c Result of efficient AIG-to-CNF conversion using package CNF
p cnf 8478 34565
-2 -3 -3967 0
-2 3 3967 0
2 3 -3967 0
2 -3 3967 0
3 -4 -3647 0
3 -2435 -3646 -3647 0
-3 3647 0
-3 4 2435 0
-3 4 3646 0
4 -5 -1230 0
-4 5 0
-4 1230 0
-5 -6 -20 0
-5 6 20 0
5 6 -20 0
5 -6 20 0
-6 7 9 0
-6 -7 -9 0
6 -7 9 0
6 7 -9 0
7 -8421 -8 0
-7 8421 0
-7 8 0
8 -8420 -8422 0
-8 8420 0
-8 8422 0
-9 -8420 10 0
-9 10 12 0
-9 -8420 12 0
9 8420 -12 0
9 -10 -12 0
9 8420 -10 0
-10 8 11 0
-10 8421 8423 0
-10 8423 11 0
-10 8421 8 0
10 -8423 -8 0
10 -8421 -11 0
11 8420 -8422 0
11 -8420 8422 0
-11 -8420 -8422 0
-11 8420 8422 0
-12 13 15 0
12 -13 0
12 -15 0
-13 8423 14 0
-13 11 14 0
13 -14 0
13 -8423 -11 0
14 -8424 -8 0
-14 8424 0
-14 8 0
15 8420 -16 0
15 -8420 16 0
-15 -8420 -16 0
-15 8420 16 0
16 -8421 -17 0
-16 8421 0
-16 17 0
-17 8420 19 0
-17 -8420 -18 0
17 -8420 18 0
17 8420 -19 0
-18 8432 8433 0
18 -8432 0
18 -8433 0
19 -8432 -8433 0
-19 8432 0
-19 8433 0
20 -21 -32 0
20 23 -32 0
-20 32 0
-20 21 -23 0
21 -22 12 0
21 22 -12 0
-21 22 12 0
-21 -22 -12 0
-22 -8421 8422 0
-22 8420 8421 0
-22 -8420 -8422 -8423 0
22 8420 -8421 -8422 0
22 -8420 -8422 8423 0
22 -8420 8421 8422 0
23 24 -25 0
-23 -24 0
-23 25 0
-24 -13 -15 0
-24 13 15 0
24 13 -15 0
24 -13 15 0
-25 -8432 26 0
-25 26 30 0
-25 -8432 30 0
25 8432 -30 0
25 -26 -30 0
25 8432 -26 0
-26 8420 27 0
-26 -8420 -27 0
26 -8420 27 0
26 8420 -27 0
-27 8421 29 0
-27 28 29 0
27 -29 0
27 -8421 -28 0
28 -18 19 0
-28 18 0
-28 -19 0
29 -8423 -17 0
-29 8423 0
-29 17 0
-30 8424 31 0
-30 11 31 0
30 -31 0
30 -8424 -11 0
31 -8419 -8 0
-31 8419 0
-31 8 0
-32 33 34 0
32 -33 0
32 -34 0
33 21 -23 0
33 -21 23 0
-33 -21 -23 0
-33 21 23 0
34 35 -66 0
34 35 -67 0
-34 -35 0
-34 66 67 0
35 36 -37 0
-35 -36 0
-35 37 0
36 -24 25 0
36 24 -25 0
-36 24 25 0
-36 -24 -25 0
-37 38 -63 0
-37 38 65 0
37 -38 0
37 63 -65 0
38 -39 -52 0
-38 39 0
-38 52 0
-39 40 47 0
-39 47 50 0
-39 40 50 0
39 -47 -50 0
39 -40 -47 0
39 -40 -50 0
40 8432 -41 0
40 -8432 41 0
-40 -8432 -41 0
-40 8432 41 0
41 -8421 -42 0
-41 8421 0
-41 42 0
-42 43 45 0
42 -43 0
42 -45 0
43 -8432 44 0
-43 8432 0
-43 -44 0
-44 8438 8440 0
44 -8438 0
44 -8440 0
45 8432 -46 0
-45 -8432 0
-45 46 0
46 -8438 -8440 0
-46 8438 0
-46 8440 0
-47 8420 48 0
-47 -8420 -48 0
47 -8420 48 0
47 8420 -48 0
-48 8423 49 0
-48 28 49 0
48 -49 0
48 -8423 -28 0
49 -8424 -17 0
-49 8424 0
-49 17 0
-50 8419 51 0
-50 11 51 0
50 -51 0
50 -8419 -11 0
51 -8442 -8 0
-51 8442 0
-51 8 0
-52 53 61 0
52 -53 0
52 -61 0
-53 -8438 54 0
-53 54 58 0
-53 -8438 58 0
53 8438 -58 0
53 -54 -58 0
53 8438 -54 0
-54 8432 55 0
-54 -8432 -55 0
54 -8432 55 0
54 8432 -55 0
-55 8421 57 0
-55 56 57 0
55 -57 0
55 -8421 -56 0
56 -44 46 0
-56 44 0
-56 -46 0
57 -8423 -42 0
-57 8423 0
-57 42 0
-58 8420 59 0
-58 -8420 -59 0
58 -8420 59 0
58 8420 -59 0
-59 8424 60 0
-59 28 60 0
59 -60 0
59 -8424 -28 0
60 -8419 -17 0
-60 8419 0
-60 17 0
61 -50 62 0
61 50 -62 0
-61 50 62 0
-61 -50 -62 0
-62 40 47 0
-62 -40 -47 0
62 -40 47 0
62 40 -47 0
63 -30 64 0
63 30 -64 0
-63 30 64 0
-63 -30 -64 0
-64 8432 26 0
-64 -8432 -26 0
64 -8432 26 0
64 8432 -26 0
65 -39 52 0
65 39 -52 0
-65 39 52 0
-65 -39 -52 0
-66 36 37 0
-66 -36 -37 0
66 -36 37 0
66 36 -37 0
67 -89 -90 0
67 68 -90 0
-67 90 0
-67 -68 89 0
68 69 -70 0
-68 -69 0
-68 70 0
-69 -53 -61 0
-69 53 61 0
69 53 -61 0
69 -53 61 0
-70 71 86 0
-70 71 88 0
70 -71 0
70 -86 -88 0
71 -72 -74 0
-71 72 0
-71 74 0
-72 8442 73 0
-72 11 73 0
72 -73 0
72 -8442 -11 0
73 -8428 -8 0
-73 8428 0
-73 8 0
-74 75 83 0
-74 75 78 0
-74 78 83 0
74 -78 -83 0
74 -75 -83 0
74 -75 -78 0
-75 8420 76 0
-75 -8420 -76 0
75 -8420 76 0
75 8420 -76 0
-76 8419 77 0
-76 28 77 0
76 -77 0
76 -8419 -28 0
77 -8442 -17 0
-77 8442 0
-77 17 0
78 8438 -79 0
78 -8438 79 0
-78 -8438 -79 0
-78 8438 79 0
79 -8421 -80 0
-79 8421 0
-79 80 0
-80 8438 82 0
-80 -8438 -81 0
80 -8438 81 0
80 8438 -82 0
-81 8417 8444 0
81 -8417 0
81 -8444 0
82 -8417 -8444 0
-82 8417 0
-82 8444 0
-83 8432 84 0
-83 -8432 -84 0
83 -8432 84 0
83 8432 -84 0
-84 8423 85 0
-84 56 85 0
84 -85 0
84 -8423 -56 0
85 -8424 -42 0
-85 8424 0
-85 42 0
-86 8428 87 0
-86 11 87 0
86 -87 0
86 -8428 -11 0
87 -8412 -8 0
-87 8412 0
-87 8 0
88 -72 74 0
88 72 -74 0
-88 72 74 0
-88 -72 -74 0
89 63 -65 0
89 -63 65 0
-89 -63 -65 0
-89 63 65 0
-90 91 92 0
90 -91 0
90 -92 0
91 68 -89 0
91 -68 89 0
-91 -68 -89 0
-91 68 89 0
92 93 -134 0
92 93 -135 0
-92 -93 0
-92 134 135 0
93 94 -95 0
-93 -94 0
-93 95 0
94 -69 70 0
94 69 -70 0
-94 69 70 0
-94 -69 -70 0
-95 96 132 0
-95 96 -133 0
95 -96 0
95 -132 133 0
96 97 -99 0
-96 -97 0
-96 99 0
97 -58 98 0
97 58 -98 0
-97 58 98 0
-97 -58 -98 0
-98 8438 54 0
-98 -8438 -54 0
98 -8438 54 0
98 8438 -54 0
-99 100 128 0
99 -100 0
99 -128 0
100 -101 -109 0
-100 101 0
-100 109 0
-101 -8444 102 0
-101 102 106 0
-101 -8444 106 0
101 8444 -106 0
101 -102 -106 0
101 8444 -102 0
-102 8438 103 0
-102 -8438 -103 0
102 -8438 103 0
102 8438 -103 0
-103 8421 105 0
-103 104 105 0
103 -105 0
103 -8421 -104 0
104 -81 82 0
-104 81 0
-104 -82 0
105 -8423 -80 0
-105 8423 0
-105 80 0
-106 8432 107 0
-106 -8432 -107 0
106 -8432 107 0
106 8432 -107 0
-107 8424 108 0
-107 56 108 0
107 -108 0
107 -8424 -56 0
108 -8419 -42 0
-108 8419 0
-108 42 0
-109 110 116 0
-109 110 117 0
109 -110 0
109 -116 -117 0
110 -111 -113 0
-110 111 0
-110 113 0
-111 8412 112 0
-111 11 112 0
111 -112 0
111 -8412 -11 0
112 -8435 -8 0
-112 8435 0
-112 8 0
-113 8420 114 0
-113 -8420 -114 0
113 -8420 114 0
113 8420 -114 0
-114 8442 115 0
-114 28 115 0
114 -115 0
114 -8442 -28 0
115 -8428 -17 0
-115 8428 0
-115 17 0
116 -111 113 0
116 111 -113 0
-116 111 113 0
-116 -111 -113 0
-117 118 126 0
-117 118 121 0
-117 121 126 0
117 -121 -126 0
117 -118 -126 0
117 -118 -121 0
-118 8432 119 0
-118 -8432 -119 0
118 -8432 119 0
118 8432 -119 0
-119 8419 120 0
-119 56 120 0
119 -120 0
119 -8419 -56 0
120 -8442 -42 0
-120 8442 0
-120 42 0
121 8444 -122 0
121 -8444 122 0
-121 -8444 -122 0
-121 8444 122 0
122 -8421 -123 0
-122 8421 0
-122 123 0
-123 8444 125 0
-123 -8444 -124 0
123 -8444 124 0
123 8444 -125 0
-124 8408 8410 0
124 -8408 0
124 -8410 0
125 -8408 -8410 0
-125 8408 0
-125 8410 0
-126 8438 127 0
-126 -8438 -127 0
126 -8438 127 0
126 8438 -127 0
-127 8423 8424 0
-127 80 104 0
-127 8424 104 0
-127 8423 80 0
127 -8423 -104 0
127 -8424 -80 0
128 -129 -131 0
-128 129 0
-128 131 0
129 -75 130 0
129 75 -130 0
-129 75 130 0
-129 -75 -130 0
-130 78 83 0
-130 -78 -83 0
130 -78 83 0
130 78 -83 0
131 -101 109 0
131 101 -109 0
-131 101 109 0
-131 -101 -109 0
-132 -86 -88 0
-132 86 88 0
132 86 -88 0
132 -86 88 0
-133 97 99 0
-133 -97 -99 0
133 -97 99 0
133 97 -99 0
-134 94 95 0
-134 -94 -95 0
134 -94 95 0
134 94 -95 0
135 136 -162 0
135 136 -163 0
-135 -136 0
-135 162 163 0
136 -137 161 0
-136 137 0
-136 -161 0
-137 138 160 0
-137 -86 160 0
-137 -86 138 0
137 86 -160 0
137 86 -138 0
137 -138 -160 0
-138 139 156 0
-138 145 156 0
138 -156 0
138 -139 -145 0
-139 140 142 0
139 -140 0
139 -142 0
-140 8435 141 0
-140 11 141 0
140 -141 0
140 -8435 -11 0
141 -8405 -8 0
-141 8405 0
-141 8 0
-142 8420 143 0
-142 -8420 -143 0
142 -8420 143 0
142 8420 -143 0
-143 8428 144 0
-143 28 144 0
143 -144 0
143 -8428 -28 0
144 -8412 -17 0
-144 8412 0
-144 17 0
145 -146 -154 0
-145 146 0
-145 154 0
-146 -8410 147 0
-146 147 151 0
-146 -8410 151 0
146 8410 -151 0
146 -147 -151 0
146 8410 -147 0
-147 8444 148 0
-147 -8444 -148 0
147 -8444 148 0
147 8444 -148 0
-148 8421 150 0
-148 149 150 0
148 -150 0
148 -8421 -149 0
149 -124 125 0
-149 124 0
-149 -125 0
150 -8423 -123 0
-150 8423 0
-150 123 0
-151 8438 152 0
-151 -8438 -152 0
151 -8438 152 0
151 8438 -152 0
-152 8424 153 0
-152 104 153 0
152 -153 0
152 -8424 -104 0
153 -8419 -80 0
-153 8419 0
-153 80 0
154 -118 155 0
154 118 -155 0
-154 118 155 0
-154 -118 -155 0
-155 121 126 0
-155 -121 -126 0
155 -121 126 0
155 121 -126 0
156 157 -159 0
-156 -157 0
-156 159 0
157 -106 158 0
157 106 -158 0
-157 106 158 0
-157 -106 -158 0
-158 8444 102 0
-158 -8444 -102 0
158 -8444 102 0
158 8444 -102 0
-159 -139 -145 0
-159 139 145 0
159 139 -145 0
159 -139 145 0
160 129 -131 0
160 -129 131 0
-160 -129 -131 0
-160 129 131 0
161 -132 133 0
161 132 -133 0
-161 132 133 0
-161 -132 -133 0
-162 -137 -161 0
-162 137 161 0
162 137 -161 0
162 -137 161 0
163 164 -214 0
163 164 -215 0
-163 -164 0
-163 214 215 0
164 165 -167 0
-164 -165 0
-164 167 0
165 160 -166 0
165 -160 166 0
-165 -160 -166 0
-165 160 166 0
166 -86 138 0
166 86 -138 0
-166 86 138 0
-166 -86 -138 0
-167 168 211 0
167 -168 0
167 -211 0
168 -169 -170 0
-168 169 0
-168 170 0
-169 116 117 0
-169 -116 -117 0
169 -116 117 0
169 116 -117 0
-170 171 -209 0
-170 171 210 0
170 -171 0
170 209 -210 0
171 -172 -183 0
-171 172 0
-171 183 0
-172 173 180 0
-172 173 182 0
172 -173 0
172 -180 -182 0
173 -174 -177 0
-173 174 0
-173 177 0
-174 8432 175 0
-174 -8432 -175 0
174 -8432 175 0
174 8432 -175 0
-175 8442 176 0
-175 56 176 0
175 -176 0
175 -8442 -56 0
176 -8428 -42 0
-176 8428 0
-176 42 0
-177 8420 178 0
-177 -8420 -178 0
177 -8420 178 0
177 8420 -178 0
-178 8412 179 0
-178 28 179 0
178 -179 0
178 -8412 -28 0
179 -8435 -17 0
-179 8435 0
-179 17 0
-180 8405 181 0
-180 11 181 0
180 -181 0
180 -8405 -11 0
181 -8430 -8 0
-181 8430 0
-181 8 0
182 -174 177 0
182 174 -177 0
-182 174 177 0
-182 -174 -177 0
-183 184 -206 0
-183 184 208 0
183 -184 0
183 206 -208 0
184 -185 -197 0
-184 185 0
-184 197 0
-185 186 195 0
-185 186 189 0
-185 189 195 0
185 -189 -195 0
185 -186 -195 0
185 -186 -189 0
-186 8438 187 0
-186 -8438 -187 0
186 -8438 187 0
186 8438 -187 0
-187 8419 188 0
-187 104 188 0
187 -188 0
187 -8419 -104 0
188 -8442 -80 0
-188 8442 0
-188 80 0
189 8410 -190 0
189 -8410 190 0
-189 -8410 -190 0
-189 8410 190 0
190 -8421 -191 0
-190 8421 0
-190 191 0
-191 8410 193 0
-191 -192 193 0
191 -193 0
191 -8410 192 0
-192 8400 8402 0
192 -8400 0
192 -8402 0
193 8410 -194 0
-193 -8410 0
-193 194 0
194 -8400 -8402 0
-194 8400 0
-194 8402 0
-195 8444 196 0
-195 -8444 -196 0
195 -8444 196 0
195 8444 -196 0
-196 8423 8424 0
-196 123 149 0
-196 8424 149 0
-196 8423 123 0
196 -8423 -149 0
196 -8424 -123 0
-197 198 203 0
-197 198 205 0
197 -198 0
197 -203 -205 0
198 -199 -201 0
-198 199 0
-198 201 0
-199 8432 200 0
-199 -8432 -200 0
199 -8432 200 0
199 8432 -200 0
-200 8412 8428 0
-200 42 56 0
-200 8428 42 0
-200 8412 56 0
200 -8412 -42 0
200 -8428 -56 0
-201 8420 202 0
-201 -8420 -202 0
201 -8420 202 0
201 8420 -202 0
-202 8405 8435 0
-202 17 28 0
-202 8435 17 0
-202 8405 28 0
202 -8405 -17 0
202 -8435 -28 0
-203 8430 204 0
-203 11 204 0
203 -204 0
203 -8430 -11 0
204 -8414 -8 0
-204 8414 0
-204 8 0
205 -199 201 0
205 199 -201 0
-205 199 201 0
-205 -199 -201 0
206 -151 207 0
206 151 -207 0
-206 151 207 0
-206 -151 -207 0
-207 8410 147 0
-207 -8410 -147 0
207 -8410 147 0
207 8410 -147 0
208 -185 197 0
208 185 -197 0
-208 185 197 0
-208 -185 -197 0
209 -140 142 0
209 140 -142 0
-209 140 142 0
-209 -140 -142 0
210 -172 183 0
210 172 -183 0
-210 172 183 0
-210 -172 -183 0
211 212 -213 0
-211 -212 0
-211 213 0
-212 157 159 0
-212 -157 -159 0
212 -157 159 0
212 157 -159 0
213 -169 170 0
213 169 -170 0
-213 169 170 0
-213 -169 -170 0
-214 165 167 0
-214 -165 -167 0
214 -165 167 0
214 165 -167 0
215 216 -248 0
215 -247 -248 0
-215 248 0
-215 -216 247 0
-216 217 245 0
-216 217 -246 0
216 -217 0
216 -245 246 0
217 -218 -219 0
-217 218 0
-217 219 0
-218 -146 -154 0
-218 146 154 0
218 146 -154 0
218 -146 154 0
-219 220 242 0
-219 238 242 0
219 -242 0
219 -220 -238 0
-220 221 228 0
220 -221 0
220 -228 0
-221 -8402 222 0
-221 222 225 0
-221 -8402 225 0
221 8402 -225 0
221 -222 -225 0
221 8402 -222 0
-222 8410 223 0
-222 -8410 -223 0
222 -8410 223 0
222 8410 -223 0
-223 8421 8423 0
-223 191 224 0
-223 8423 224 0
-223 8421 191 0
223 -8421 -224 0
223 -8423 -191 0
224 -192 194 0
-224 192 0
-224 -194 0
-225 8444 226 0
-225 -8444 -226 0
225 -8444 226 0
225 8444 -226 0
-226 8424 227 0
-226 149 227 0
226 -227 0
226 -8424 -149 0
227 -8419 -123 0
-227 8419 0
-227 123 0
-228 229 234 0
-228 229 237 0
228 -229 0
228 -234 -237 0
229 -230 -232 0
-229 230 0
-229 232 0
-230 8438 231 0
-230 -8438 -231 0
230 -8438 231 0
230 8438 -231 0
-231 8428 8442 0
-231 80 104 0
-231 8442 80 0
-231 8428 104 0
231 -8428 -80 0
231 -8442 -104 0
-232 8432 233 0
-232 -8432 -233 0
232 -8432 233 0
232 8432 -233 0
-233 8412 8435 0
-233 42 56 0
-233 8435 56 0
-233 8412 42 0
233 -8412 -56 0
233 -8435 -42 0
-234 8420 235 0
-234 -8420 -235 0
234 -8420 235 0
234 8420 -235 0
-235 8405 236 0
-235 28 236 0
235 -236 0
235 -8405 -28 0
236 -8430 -17 0
-236 8430 0
-236 17 0
237 -230 232 0
237 230 -232 0
-237 230 232 0
-237 -230 -232 0
238 -239 -241 0
-238 239 0
-238 241 0
239 -186 240 0
239 186 -240 0
-239 186 240 0
-239 -186 -240 0
-240 189 195 0
-240 -189 -195 0
240 -189 195 0
240 189 -195 0
-241 -203 -205 0
-241 203 205 0
241 203 -205 0
241 -203 205 0
242 -243 -244 0
-242 243 0
-242 244 0
-243 -180 -182 0
-243 180 182 0
243 180 -182 0
243 -180 182 0
-244 -220 -238 0
-244 220 238 0
244 220 -238 0
244 -220 238 0
245 -218 219 0
245 218 -219 0
-245 218 219 0
-245 -218 -219 0
246 209 -210 0
246 -209 210 0
-246 -209 -210 0
-246 209 210 0
-247 -212 -213 0
-247 212 213 0
247 212 -213 0
247 -212 213 0
-248 249 250 0
248 -249 0
248 -250 0
249 -216 247 0
249 216 -247 0
-249 216 247 0
-249 -216 -247 0
250 251 -294 0
250 251 -295 0
-250 -251 0
-250 294 295 0
251 252 -253 0
-251 -252 0
-251 253 0
252 245 -246 0
252 -245 246 0
-252 -245 -246 0
-252 245 246 0
-253 254 291 0
253 -254 0
253 -291 0
254 255 -256 0
-254 -255 0
-254 256 0
255 206 -208 0
255 -206 208 0
-255 -206 -208 0
-255 206 208 0
-256 257 -289 0
-256 257 290 0
256 -257 0
256 289 -290 0
257 -258 -283 0
-257 258 0
-257 283 0
-258 259 272 0
-258 259 282 0
258 -259 0
258 -272 -282 0
259 -260 -262 0
-259 260 0
-259 262 0
-260 8414 261 0
-260 11 261 0
260 -261 0
260 -8414 -11 0
261 -8398 -8 0
-261 8398 0
-261 8 0
-262 263 268 0
-262 268 270 0
-262 263 270 0
262 -268 -270 0
262 -263 -268 0
262 -263 -270 0
263 8402 -264 0
263 -8402 264 0
-263 -8402 -264 0
-263 8402 264 0
264 -8421 -265 0
-264 8421 0
-264 265 0
-265 8402 267 0
-265 -8402 -266 0
265 -8402 266 0
265 8402 -267 0
-266 8392 8395 0
266 -8392 0
266 -8395 0
267 -8392 -8395 0
-267 8392 0
-267 8395 0
-268 8410 269 0
-268 -8410 -269 0
268 -8410 269 0
268 8410 -269 0
-269 8423 8424 0
-269 191 224 0
-269 8424 224 0
-269 8423 191 0
269 -8423 -224 0
269 -8424 -191 0
-270 8444 271 0
-270 -8444 -271 0
270 -8444 271 0
270 8444 -271 0
-271 8419 8442 0
-271 123 149 0
-271 8442 149 0
-271 8419 123 0
271 -8419 -149 0
271 -8442 -123 0
-272 273 278 0
-272 273 281 0
272 -273 0
272 -278 -281 0
273 -274 -276 0
-273 274 0
-273 276 0
-274 8438 275 0
-274 -8438 -275 0
274 -8438 275 0
274 8438 -275 0
-275 8412 8428 0
-275 80 104 0
-275 8428 80 0
-275 8412 104 0
275 -8412 -80 0
275 -8428 -104 0
-276 8432 277 0
-276 -8432 -277 0
276 -8432 277 0
276 8432 -277 0
-277 8405 8435 0
-277 42 56 0
-277 8435 42 0
-277 8405 56 0
277 -8405 -42 0
277 -8435 -56 0
-278 8420 279 0
-278 -8420 -279 0
278 -8420 279 0
278 8420 -279 0
-279 8430 280 0
-279 28 280 0
279 -280 0
279 -8430 -28 0
280 -8414 -17 0
-280 8414 0
-280 17 0
281 -274 276 0
281 274 -276 0
-281 274 276 0
-281 -274 -276 0
282 -260 262 0
282 260 -262 0
-282 260 262 0
-282 -260 -262 0
-283 284 -286 0
-283 -286 288 0
-283 284 288 0
283 -284 -288 0
283 286 -288 0
283 -284 286 0
-284 8398 285 0
-284 11 285 0
284 -285 0
284 -8398 -11 0
285 -8390 -8 0
-285 8390 0
-285 8 0
286 -225 287 0
286 225 -287 0
-286 225 287 0
-286 -225 -287 0
-287 8402 222 0
-287 -8402 -222 0
287 -8402 222 0
287 8402 -222 0
-288 -234 -237 0
-288 234 237 0
288 234 -237 0
288 -234 237 0
289 -221 228 0
289 221 -228 0
-289 221 228 0
-289 -221 -228 0
290 -258 283 0
290 258 -283 0
-290 258 283 0
-290 -258 -283 0
291 -292 293 0
-291 292 0
-291 -293 0
292 -243 244 0
292 243 -244 0
-292 243 244 0
-292 -243 -244 0
-293 255 256 0
-293 -255 -256 0
293 -255 256 0
293 255 -256 0
-294 252 253 0
-294 -252 -253 0
294 -252 253 0
294 252 -253 0
295 296 -347 0
295 -346 -347 0
-295 347 0
-295 -296 346 0
-296 297 -344 0
-296 297 345 0
296 -297 0
296 344 -345 0
297 -298 -299 0
-297 298 0
-297 299 0
-298 239 241 0
-298 -239 -241 0
298 -239 241 0
298 239 -241 0
-299 300 342 0
-299 300 343 0
299 -300 0
299 -342 -343 0
300 -301 -338 0
-300 301 0
-300 338 0
-301 302 319 0
-301 302 320 0
301 -302 0
301 -319 -320 0
302 -303 -309 0
-302 303 0
-302 309 0
-303 -8395 304 0
-303 304 307 0
-303 -8395 307 0
303 8395 -307 0
303 -304 -307 0
303 8395 -304 0
-304 8402 305 0
-304 -8402 -305 0
304 -8402 305 0
304 8402 -305 0
-305 8421 8423 0
-305 265 306 0
-305 8423 306 0
-305 8421 265 0
305 -8421 -306 0
305 -8423 -265 0
306 -266 267 0
-306 266 0
-306 -267 0
-307 8410 308 0
-307 -8410 -308 0
307 -8410 308 0
307 8410 -308 0
-308 8419 8424 0
-308 191 224 0
-308 8424 191 0
-308 8419 224 0
308 -8419 -191 0
308 -8424 -224 0
-309 310 315 0
-309 310 318 0
309 -310 0
309 -315 -318 0
310 -311 -313 0
-310 311 0
-310 313 0
-311 8444 312 0
-311 -8444 -312 0
311 -8444 312 0
311 8444 -312 0
-312 8428 8442 0
-312 123 149 0
-312 8442 123 0
-312 8428 149 0
312 -8428 -123 0
312 -8442 -149 0
-313 8438 314 0
-313 -8438 -314 0
313 -8438 314 0
313 8438 -314 0
-314 8412 8435 0
-314 80 104 0
-314 8435 104 0
-314 8412 80 0
314 -8412 -104 0
314 -8435 -80 0
-315 8432 316 0
-315 -8432 -316 0
315 -8432 316 0
315 8432 -316 0
-316 8405 317 0
-316 56 317 0
316 -317 0
316 -8405 -56 0
317 -8430 -42 0
-317 8430 0
-317 42 0
318 -311 313 0
318 311 -313 0
-318 311 313 0
-318 -311 -313 0
319 -303 309 0
319 303 -309 0
-319 303 309 0
-319 -303 -309 0
-320 321 327 0
-320 321 328 0
320 -321 0
320 -327 -328 0
321 -322 -324 0
-321 322 0
-321 324 0
-322 8390 323 0
-322 11 323 0
322 -323 0
322 -8390 -11 0
323 -8388 -8 0
-323 8388 0
-323 8 0
-324 8420 325 0
-324 -8420 -325 0
324 -8420 325 0
324 8420 -325 0
-325 8414 326 0
-325 28 326 0
325 -326 0
325 -8414 -28 0
326 -8398 -17 0
-326 8398 0
-326 17 0
327 -322 324 0
327 322 -324 0
-327 322 324 0
-327 -322 -324 0
-328 329 334 0
-328 334 336 0
-328 329 336 0
328 -334 -336 0
328 -329 -334 0
328 -329 -336 0
329 8395 -330 0
329 -8395 330 0
-329 -8395 -330 0
-329 8395 330 0
330 -8421 -331 0
-330 8421 0
-330 331 0
-331 8395 333 0
-331 -8395 -332 0
331 -8395 332 0
331 8395 -333 0
-332 8426 8446 0
332 -8426 0
332 -8446 0
333 -8426 -8446 0
-333 8426 0
-333 8446 0
-334 8402 335 0
-334 -8402 -335 0
334 -8402 335 0
334 8402 -335 0
-335 8423 8424 0
-335 265 306 0
-335 8424 306 0
-335 8423 265 0
335 -8423 -306 0
335 -8424 -265 0
-336 8410 337 0
-336 -8410 -337 0
336 -8410 337 0
336 8410 -337 0
-337 8419 8442 0
-337 191 224 0
-337 8442 224 0
-337 8419 191 0
337 -8419 -224 0
337 -8442 -191 0
-338 339 341 0
-338 -284 339 0
-338 -284 341 0
338 284 -339 0
338 -339 -341 0
338 284 -341 0
339 -270 340 0
339 270 -340 0
-339 270 340 0
-339 -270 -340 0
-340 263 268 0
-340 -263 -268 0
340 -263 268 0
340 263 -268 0
-341 -278 -281 0
-341 278 281 0
341 278 -281 0
341 -278 281 0
-342 -272 -282 0
-342 272 282 0
342 272 -282 0
342 -272 282 0
343 -301 338 0
343 301 -338 0
-343 301 338 0
-343 -301 -338 0
344 289 -290 0
344 -289 290 0
-344 -289 -290 0
-344 289 290 0
345 -298 299 0
345 298 -299 0
-345 298 299 0
-345 -298 -299 0
-346 292 293 0
-346 -292 -293 0
346 -292 293 0
346 292 -293 0
-347 348 349 0
347 -348 0
347 -349 0
348 -296 346 0
348 296 -346 0
-348 296 346 0
-348 -296 -346 0
349 350 -397 0
349 350 -398 0
-349 -350 0
-349 397 398 0
350 -351 396 0
-350 351 0
-350 -396 0
-351 352 394 0
-351 352 -395 0
351 -352 0
351 -394 395 0
352 353 -355 0
-352 -353 0
-352 355 0
353 -288 354 0
353 288 -354 0
-353 288 354 0
-353 -288 -354 0
-354 -284 -286 0
-354 284 286 0
354 284 -286 0
354 -284 286 0
-355 356 392 0
-355 356 393 0
355 -356 0
355 -392 -393 0
356 -357 -385 0
-356 357 0
-356 385 0
-357 358 374 0
357 -358 0
357 -374 0
358 -359 -364 0
-358 359 0
-358 364 0
-359 360 362 0
359 -360 0
359 -362 0
-360 8388 361 0
-360 11 361 0
360 -361 0
360 -8388 -11 0
361 -8449 -8 0
-361 8449 0
-361 8 0
-362 8420 363 0
-362 -8420 -363 0
362 -8420 363 0
362 8420 -363 0
-363 8390 8398 0
-363 17 28 0
-363 8398 17 0
-363 8390 28 0
363 -8390 -17 0
363 -8398 -28 0
-364 365 370 0
364 -365 0
364 -370 0
365 -366 -368 0
-365 366 0
-365 368 0
-366 8444 367 0
-366 -8444 -367 0
366 -8444 367 0
366 8444 -367 0
-367 8412 8428 0
-367 123 149 0
-367 8428 123 0
-367 8412 149 0
367 -8412 -123 0
367 -8428 -149 0
-368 8438 369 0
-368 -8438 -369 0
368 -8438 369 0
368 8438 -369 0
-369 8405 8435 0
-369 80 104 0
-369 8435 80 0
-369 8405 104 0
369 -8405 -80 0
369 -8435 -104 0
370 -371 -373 0
-370 371 0
-370 373 0
-371 8432 372 0
-371 -8432 -372 0
371 -8432 372 0
371 8432 -372 0
-372 8414 8430 0
-372 42 56 0
-372 8430 42 0
-372 8414 56 0
372 -8414 -42 0
372 -8430 -56 0
373 -366 368 0
373 366 -368 0
-373 366 368 0
-373 -366 -368 0
374 -375 -384 0
-374 375 0
-374 384 0
375 376 -382 0
-375 -376 0
-375 382 0
376 -377 -378 0
376 -377 379 0
-376 377 0
-376 378 -379 0
-377 8426 8451 0
377 -8426 0
377 -8451 0
378 -8426 -8451 0
-378 8426 0
-378 8451 0
-379 8395 380 0
-379 -8395 -380 0
379 -8395 380 0
379 8395 -380 0
-380 8421 8423 0
-380 331 381 0
-380 8423 381 0
-380 8421 331 0
380 -8421 -381 0
380 -8423 -331 0
381 -332 333 0
-381 332 0
-381 -333 0
382 -336 383 0
382 336 -383 0
-382 336 383 0
-382 -336 -383 0
-383 329 334 0
-383 -329 -334 0
383 -329 334 0
383 329 -334 0
384 -359 364 0
384 359 -364 0
-384 359 364 0
-384 -359 -364 0
-385 386 390 0
-385 386 -391 0
385 -386 0
385 -390 391 0
386 387 -389 0
-386 -387 0
-386 389 0
387 -307 388 0
387 307 -388 0
-387 307 388 0
-387 -307 -388 0
-388 8395 304 0
-388 -8395 -304 0
388 -8395 304 0
388 8395 -304 0
-389 -315 -318 0
-389 315 318 0
389 315 -318 0
389 -315 318 0
-390 327 328 0
-390 -327 -328 0
390 -327 328 0
390 327 -328 0
-391 387 389 0
-391 -387 -389 0
391 -387 389 0
391 387 -389 0
-392 319 320 0
-392 -319 -320 0
392 -319 320 0
392 319 -320 0
393 -357 385 0
393 357 -385 0
-393 357 385 0
-393 -357 -385 0
-394 -342 -343 0
-394 342 343 0
394 342 -343 0
394 -342 343 0
-395 353 355 0
-395 -353 -355 0
395 -353 355 0
395 353 -355 0
396 344 -345 0
396 -344 345 0
-396 -344 -345 0
-396 344 345 0
-397 -351 -396 0
-397 351 396 0
397 351 -396 0
397 -351 396 0
398 399 -456 0
398 399 -457 0
-398 -399 0
-398 456 457 0
399 400 -401 0
-399 -400 0
-399 401 0
400 -394 395 0
400 394 -395 0
-400 394 395 0
-400 -394 -395 0
-401 402 454 0
-401 402 -455 0
401 -402 0
401 -454 455 0
402 403 -405 0
-402 -403 0
-402 405 0
403 -284 404 0
403 284 -404 0
-403 284 404 0
-403 -284 -404 0
-404 339 341 0
-404 -339 -341 0
404 -339 341 0
404 339 -341 0
-405 406 451 0
405 -406 0
405 -451 0
406 407 -413 0
-406 -407 0
-406 413 0
407 408 -411 0
407 408 -412 0
-407 -408 0
-407 411 412 0
408 409 -410 0
-408 -409 0
-408 410 0
409 -360 362 0
409 360 -362 0
-409 360 362 0
-409 -360 -362 0
-410 -371 -373 0
-410 371 373 0
410 371 -373 0
410 -371 373 0
411 376 -382 0
411 -376 382 0
-411 -376 -382 0
-411 376 382 0
-412 409 410 0
-412 -409 -410 0
412 -409 410 0
412 409 -410 0
-413 414 435 0
-413 414 436 0
413 -414 0
413 -435 -436 0
414 -415 -425 0
-414 415 0
-414 425 0
-415 416 421 0
-415 416 424 0
415 -416 0
415 -421 -424 0
416 -417 -419 0
-416 417 0
-416 419 0
-417 8402 418 0
-417 -8402 -418 0
417 -8402 418 0
417 8402 -418 0
-418 8419 8424 0
-418 265 306 0
-418 8424 265 0
-418 8419 306 0
418 -8419 -265 0
418 -8424 -306 0
-419 8410 420 0
-419 -8410 -420 0
419 -8410 420 0
419 8410 -420 0
-420 8428 8442 0
-420 191 224 0
-420 8442 191 0
-420 8428 224 0
420 -8428 -191 0
420 -8442 -224 0
-421 8444 422 0
-421 -8444 -422 0
421 -8444 422 0
421 8444 -422 0
-422 8412 423 0
-422 149 423 0
422 -423 0
422 -8412 -149 0
423 -8435 -123 0
-423 8435 0
-423 123 0
424 -417 419 0
424 417 -419 0
-424 417 419 0
-424 -417 -419 0
-425 426 431 0
-425 426 434 0
425 -426 0
425 -431 -434 0
426 -427 -429 0
-426 427 0
-426 429 0
-427 8438 428 0
-427 -8438 -428 0
427 -8438 428 0
427 8438 -428 0
-428 8405 8430 0
-428 80 104 0
-428 8430 104 0
-428 8405 80 0
428 -8405 -104 0
428 -8430 -80 0
-429 8432 430 0
-429 -8432 -430 0
429 -8432 430 0
429 8432 -430 0
-430 8398 8414 0
-430 42 56 0
-430 8414 42 0
-430 8398 56 0
430 -8398 -42 0
430 -8414 -56 0
-431 8420 432 0
-431 -8420 -432 0
431 -8420 432 0
431 8420 -432 0
-432 8390 433 0
-432 28 433 0
432 -433 0
432 -8390 -28 0
433 -8388 -17 0
-433 8388 0
-433 17 0
434 -427 429 0
434 427 -429 0
-434 427 429 0
-434 -427 -429 0
435 -415 425 0
435 415 -425 0
-435 415 425 0
-435 -415 -425 0
-436 437 448 0
-436 437 450 0
436 -437 0
436 -448 -450 0
437 -438 -440 0
-437 438 0
-437 440 0
-438 8449 439 0
-438 11 439 0
438 -439 0
438 -8449 -11 0
439 -8453 -8 0
-439 8453 0
-439 8 0
-440 441 446 0
-440 8451 441 0
-440 8451 446 0
440 -8451 -441 0
440 -441 -446 0
440 -8451 -446 0
441 8426 -442 0
441 -8426 442 0
-441 -8426 -442 0
-441 8426 442 0
442 -8421 -443 0
-442 8421 0
-442 443 0
-443 8426 445 0
-443 -8426 -444 0
443 -8426 444 0
443 8426 -445 0
-444 8451 8455 0
444 -8451 0
444 -8455 0
445 -8451 -8455 0
-445 8451 0
-445 8455 0
-446 8395 447 0
-446 -8395 -447 0
446 -8395 447 0
446 8395 -447 0
-447 8423 8424 0
-447 331 381 0
-447 8424 381 0
-447 8423 331 0
447 -8423 -381 0
447 -8424 -331 0
-448 449 379 0
-448 -449 -379 0
448 -449 379 0
448 449 -379 0
449 -377 378 0
-449 377 0
-449 -378 0
450 -438 440 0
450 438 -440 0
-450 438 440 0
-450 -438 -440 0
451 -452 453 0
-451 452 0
-451 -453 0
452 375 -384 0
452 -375 384 0
-452 -375 -384 0
-452 375 384 0
-453 407 413 0
-453 -407 -413 0
453 -407 413 0
453 407 -413 0
-454 -392 -393 0
-454 392 393 0
454 392 -393 0
454 -392 393 0
-455 403 405 0
-455 -403 -405 0
455 -403 405 0
455 403 -405 0
-456 400 401 0
-456 -400 -401 0
456 -400 401 0
456 400 -401 0
457 -458 515 0
457 -458 516 0
-457 458 0
-457 -515 -516 0
-458 459 460 0
458 -459 0
458 -460 0
459 -454 455 0
459 454 -455 0
-459 454 455 0
-459 -454 -455 0
460 461 -512 0
-460 -461 0
-460 512 0
461 462 -463 0
-461 -462 0
-461 463 0
462 -390 391 0
462 390 -391 0
-462 390 391 0
-462 -390 -391 0
-463 464 510 0
-463 464 511 0
463 -464 0
463 -510 -511 0
464 -465 -471 0
-464 465 0
-464 471 0
-465 466 469 0
-465 466 470 0
465 -466 0
465 -469 -470 0
466 -467 -468 0
-466 467 0
-466 468 0
-467 -421 -424 0
-467 421 424 0
467 421 -424 0
467 -421 424 0
-468 -431 -434 0
-468 431 434 0
468 431 -434 0
468 -431 434 0
469 -467 468 0
469 467 -468 0
-469 467 468 0
-469 -467 -468 0
-470 -448 -450 0
-470 448 450 0
470 448 -450 0
470 -448 450 0
-471 472 493 0
-471 472 494 0
471 -472 0
471 -493 -494 0
472 -473 -483 0
-472 473 0
-472 483 0
-473 474 479 0
-473 474 482 0
473 -474 0
473 -479 -482 0
474 -475 -477 0
-474 475 0
-474 477 0
-475 8402 476 0
-475 -8402 -476 0
475 -8402 476 0
475 8402 -476 0
-476 8419 8442 0
-476 265 306 0
-476 8442 306 0
-476 8419 265 0
476 -8419 -306 0
476 -8442 -265 0
-477 8410 478 0
-477 -8410 -478 0
477 -8410 478 0
477 8410 -478 0
-478 8412 8428 0
-478 191 224 0
-478 8428 191 0
-478 8412 224 0
478 -8412 -191 0
478 -8428 -224 0
-479 8444 480 0
-479 -8444 -480 0
479 -8444 480 0
479 8444 -480 0
-480 8435 481 0
-480 149 481 0
480 -481 0
480 -8435 -149 0
481 -8405 -123 0
-481 8405 0
-481 123 0
482 -475 477 0
482 475 -477 0
-482 475 477 0
-482 -475 -477 0
-483 484 489 0
-483 484 492 0
483 -484 0
483 -489 -492 0
484 -485 -487 0
-484 485 0
-484 487 0
-485 8438 486 0
-485 -8438 -486 0
485 -8438 486 0
485 8438 -486 0
-486 8414 8430 0
-486 80 104 0
-486 8430 80 0
-486 8414 104 0
486 -8414 -80 0
486 -8430 -104 0
-487 8432 488 0
-487 -8432 -488 0
487 -8432 488 0
487 8432 -488 0
-488 8390 8398 0
-488 42 56 0
-488 8398 42 0
-488 8390 56 0
488 -8390 -42 0
488 -8398 -56 0
-489 8420 490 0
-489 -8420 -490 0
489 -8420 490 0
489 8420 -490 0
-490 8388 491 0
-490 28 491 0
490 -491 0
490 -8388 -28 0
491 -8449 -17 0
-491 8449 0
-491 17 0
492 -485 487 0
492 485 -487 0
-492 485 487 0
-492 -485 -487 0
493 -473 483 0
493 473 -483 0
-493 473 483 0
-493 -473 -483 0
-494 495 507 0
-494 495 509 0
494 -495 0
494 -507 -509 0
495 -496 -498 0
-495 496 0
-495 498 0
-496 8453 497 0
-496 11 497 0
496 -497 0
496 -8453 -11 0
497 -8457 -8 0
-497 8457 0
-497 8 0
-498 499 502 0
-498 8451 502 0
498 -502 0
498 -8451 -499 0
-499 8426 500 0
-499 -8426 -500 0
499 -8426 500 0
499 8426 -500 0
-500 8421 8423 0
-500 443 501 0
-500 8423 501 0
-500 8421 443 0
500 -8421 -501 0
500 -8423 -443 0
501 -444 445 0
-501 444 0
-501 -445 0
502 -503 -506 0
-502 503 0
-502 506 0
-503 8395 504 0
-503 -8395 -504 0
503 -8395 504 0
503 8395 -504 0
-504 8424 505 0
-504 381 505 0
504 -505 0
504 -8424 -381 0
505 -8419 -331 0
-505 8419 0
-505 331 0
-506 8451 499 0
-506 -8451 -499 0
506 -8451 499 0
506 8451 -499 0
-507 -446 -508 0
-507 446 508 0
507 446 -508 0
507 -446 508 0
508 8451 -441 0
508 -8451 441 0
-508 -8451 -441 0
-508 8451 441 0
509 -496 498 0
509 496 -498 0
-509 496 498 0
-509 -496 -498 0
-510 435 436 0
-510 -435 -436 0
510 -435 436 0
510 435 -436 0
511 -465 471 0
511 465 -471 0
-511 465 471 0
-511 -465 -471 0
-512 513 514 0
512 -513 0
512 -514 0
-513 452 453 0
-513 -452 -453 0
513 -452 453 0
513 452 -453 0
-514 462 463 0
-514 -462 -463 0
514 -462 463 0
514 462 -463 0
515 459 -460 0
515 -459 460 0
-515 -459 -460 0
-515 459 460 0
-516 517 572 0
-516 571 572 0
516 -572 0
516 -517 -571 0
-517 518 569 0
-517 518 570 0
517 -518 0
517 -569 -570 0
518 -519 -520 0
-518 519 0
-518 520 0
-519 411 412 0
-519 -411 -412 0
519 -411 412 0
519 411 -412 0
-520 521 567 0
-520 521 568 0
520 -521 0
520 -567 -568 0
521 -522 -561 0
-521 522 0
-521 561 0
-522 523 544 0
-522 523 545 0
522 -523 0
522 -544 -545 0
523 -524 -534 0
-523 524 0
-523 534 0
-524 525 530 0
-524 525 533 0
524 -525 0
524 -530 -533 0
525 -526 -528 0
-525 526 0
-525 528 0
-526 8402 527 0
-526 -8402 -527 0
526 -8402 527 0
526 8402 -527 0
-527 8428 8442 0
-527 265 306 0
-527 8442 265 0
-527 8428 306 0
527 -8428 -265 0
527 -8442 -306 0
-528 8410 529 0
-528 -8410 -529 0
528 -8410 529 0
528 8410 -529 0
-529 8412 8435 0
-529 191 224 0
-529 8435 224 0
-529 8412 191 0
529 -8412 -224 0
529 -8435 -191 0
-530 8444 531 0
-530 -8444 -531 0
530 -8444 531 0
530 8444 -531 0
-531 8405 532 0
-531 149 532 0
531 -532 0
531 -8405 -149 0
532 -8430 -123 0
-532 8430 0
-532 123 0
533 -526 528 0
533 526 -528 0
-533 526 528 0
-533 -526 -528 0
-534 535 540 0
-534 535 543 0
534 -535 0
534 -540 -543 0
535 -536 -538 0
-535 536 0
-535 538 0
-536 8438 537 0
-536 -8438 -537 0
536 -8438 537 0
536 8438 -537 0
-537 8398 8414 0
-537 80 104 0
-537 8414 80 0
-537 8398 104 0
537 -8398 -80 0
537 -8414 -104 0
-538 8432 539 0
-538 -8432 -539 0
538 -8432 539 0
538 8432 -539 0
-539 8388 8390 0
-539 42 56 0
-539 8390 42 0
-539 8388 56 0
539 -8388 -42 0
539 -8390 -56 0
-540 8420 541 0
-540 -8420 -541 0
540 -8420 541 0
540 8420 -541 0
-541 8449 542 0
-541 28 542 0
541 -542 0
541 -8449 -28 0
542 -8453 -17 0
-542 8453 0
-542 17 0
543 -536 538 0
543 536 -538 0
-543 536 538 0
-543 -536 -538 0
544 -524 534 0
544 524 -534 0
-544 524 534 0
-544 -524 -534 0
-545 546 558 0
545 -546 0
545 -558 0
546 -547 -549 0
-546 547 0
-546 549 0
-547 8457 548 0
-547 11 548 0
547 -548 0
547 -8457 -11 0
548 -8459 -8 0
-548 8459 0
-548 8 0
-549 551 553 0
-549 550 553 0
549 -553 0
549 -550 -551 0
550 8421 -8451 0
550 -8451 -8461 0
-550 8451 0
-550 -8421 8461 0
-551 8426 552 0
-551 -8426 -552 0
551 -8426 552 0
551 8426 -552 0
-552 8423 8424 0
-552 443 501 0
-552 8424 501 0
-552 8423 443 0
552 -8423 -501 0
552 -8424 -443 0
553 -554 -557 0
-553 554 0
-553 557 0
-554 8395 555 0
-554 -8395 -555 0
554 -8395 555 0
554 8395 -555 0
-555 8419 556 0
-555 381 556 0
555 -556 0
555 -8419 -381 0
556 -8442 -331 0
-556 8442 0
-556 331 0
-557 550 551 0
-557 -550 -551 0
557 -550 551 0
557 550 -551 0
558 -559 -560 0
-558 559 0
-558 560 0
559 -503 506 0
559 503 -506 0
-559 503 506 0
-559 -503 -506 0
560 -547 549 0
560 547 -549 0
-560 547 549 0
-560 -547 -549 0
-561 562 565 0
-561 562 566 0
561 -562 0
561 -565 -566 0
562 -563 -564 0
-562 563 0
-562 564 0
-563 -479 -482 0
-563 479 482 0
563 479 -482 0
563 -479 482 0
-564 -489 -492 0
-564 489 492 0
564 489 -492 0
564 -489 492 0
565 -563 564 0
565 563 -564 0
-565 563 564 0
-565 -563 -564 0
-566 -507 -509 0
-566 507 509 0
566 507 -509 0
566 -507 509 0
-567 493 494 0
-567 -493 -494 0
567 -493 494 0
567 493 -494 0
568 -522 561 0
568 522 -561 0
-568 522 561 0
-568 -522 -561 0
-569 -510 -511 0
-569 510 511 0
569 510 -511 0
569 -510 511 0
570 -519 520 0
570 519 -520 0
-570 519 520 0
-570 -519 -520 0
571 -513 514 0
571 513 -514 0
-571 513 514 0
-571 -513 -514 0
572 -573 -574 0
-572 573 0
-572 574 0
-573 -517 -571 0
-573 517 571 0
573 517 -571 0
573 -517 571 0
-574 575 633 0
-574 575 634 0
574 -575 0
574 -633 -634 0
575 -576 -632 0
-575 576 0
-575 632 0
-576 577 630 0
-576 577 631 0
576 -577 0
576 -630 -631 0
577 -578 -579 0
-577 578 0
-577 579 0
-578 469 470 0
-578 -469 -470 0
578 -469 470 0
578 469 -470 0
-579 580 628 0
-579 580 629 0
579 -580 0
579 -628 -629 0
580 -581 -621 0
-580 581 0
-580 621 0
-581 582 603 0
-581 582 604 0
581 -582 0
581 -603 -604 0
582 -583 -593 0
-582 583 0
-582 593 0
-583 584 589 0
-583 584 592 0
583 -584 0
583 -589 -592 0
584 -585 -587 0
-584 585 0
-584 587 0
-585 8402 586 0
-585 -8402 -586 0
585 -8402 586 0
585 8402 -586 0
-586 8412 8428 0
-586 265 306 0
-586 8428 265 0
-586 8412 306 0
586 -8412 -265 0
586 -8428 -306 0
-587 8410 588 0
-587 -8410 -588 0
587 -8410 588 0
587 8410 -588 0
-588 8405 8435 0
-588 191 224 0
-588 8435 191 0
-588 8405 224 0
588 -8405 -191 0
588 -8435 -224 0
-589 8444 590 0
-589 -8444 -590 0
589 -8444 590 0
589 8444 -590 0
-590 8430 591 0
-590 149 591 0
590 -591 0
590 -8430 -149 0
591 -8414 -123 0
-591 8414 0
-591 123 0
592 -585 587 0
592 585 -587 0
-592 585 587 0
-592 -585 -587 0
-593 594 599 0
-593 594 602 0
593 -594 0
593 -599 -602 0
594 -595 -597 0
-594 595 0
-594 597 0
-595 8438 596 0
-595 -8438 -596 0
595 -8438 596 0
595 8438 -596 0
-596 8390 8398 0
-596 80 104 0
-596 8398 80 0
-596 8390 104 0
596 -8390 -80 0
596 -8398 -104 0
-597 8432 598 0
-597 -8432 -598 0
597 -8432 598 0
597 8432 -598 0
-598 8388 8449 0
-598 42 56 0
-598 8449 56 0
-598 8388 42 0
598 -8388 -56 0
598 -8449 -42 0
-599 8420 600 0
-599 -8420 -600 0
599 -8420 600 0
599 8420 -600 0
-600 8453 601 0
-600 28 601 0
600 -601 0
600 -8453 -28 0
601 -8457 -17 0
-601 8457 0
-601 17 0
602 -595 597 0
602 595 -597 0
-602 595 597 0
-602 -595 -597 0
603 -583 593 0
603 583 -593 0
-603 583 593 0
-603 -583 -593 0
-604 605 618 0
604 -605 0
604 -618 0
605 -606 -608 0
-605 606 0
-605 608 0
-606 8459 607 0
-606 11 607 0
606 -607 0
606 -8459 -11 0
607 -8463 -8 0
-607 8463 0
-607 8 0
-608 609 614 0
-608 609 617 0
608 -609 0
608 -614 -617 0
609 -610 -612 0
-609 610 0
-609 612 0
-610 8451 611 0
-610 -8451 -611 0
610 -8451 611 0
610 8451 -611 0
-611 8423 8461 0
-611 8421 -8461 0
-611 8451 8461 0
611 -8421 -8461 0
611 -8423 -8451 8461 0
-612 8426 613 0
-612 -8426 -613 0
612 -8426 613 0
612 8426 -613 0
-613 8419 8424 0
-613 443 501 0
-613 8424 443 0
-613 8419 501 0
613 -8419 -443 0
613 -8424 -501 0
-614 8395 615 0
-614 -8395 -615 0
614 -8395 615 0
614 8395 -615 0
-615 8442 616 0
-615 381 616 0
615 -616 0
615 -8442 -381 0
616 -8428 -331 0
-616 8428 0
-616 331 0
617 -610 612 0
617 610 -612 0
-617 610 612 0
-617 -610 -612 0
618 -619 -620 0
-618 619 0
-618 620 0
619 -554 557 0
619 554 -557 0
-619 554 557 0
-619 -554 -557 0
620 -606 608 0
620 606 -608 0
-620 606 608 0
-620 -606 -608 0
-621 622 625 0
621 -622 0
621 -625 0
622 -623 -624 0
-622 623 0
-622 624 0
-623 -530 -533 0
-623 530 533 0
623 530 -533 0
623 -530 533 0
-624 -540 -543 0
-624 540 543 0
624 540 -543 0
624 -540 543 0
625 -626 -627 0
-625 626 0
-625 627 0
626 -623 624 0
626 623 -624 0
-626 623 624 0
-626 -623 -624 0
627 559 -560 0
627 -559 560 0
-627 -559 -560 0
-627 559 560 0
-628 544 545 0
-628 -544 -545 0
628 -544 545 0
628 544 -545 0
629 -581 621 0
629 581 -621 0
-629 581 621 0
-629 -581 -621 0
-630 -567 -568 0
-630 567 568 0
630 567 -568 0
630 -567 568 0
631 -578 579 0
631 578 -579 0
-631 578 579 0
-631 -578 -579 0
-632 -569 -570 0
-632 569 570 0
632 569 -570 0
632 -569 570 0
633 -576 632 0
633 576 -632 0
-633 576 632 0
-633 -576 -632 0
-634 635 692 0
-634 635 693 0
634 -635 0
634 -692 -693 0
635 -636 -691 0
-635 636 0
-635 691 0
-636 637 689 0
-636 637 690 0
636 -637 0
636 -689 -690 0
637 -638 -639 0
-637 638 0
-637 639 0
-638 565 566 0
-638 -565 -566 0
638 -565 566 0
638 565 -566 0
-639 640 687 0
-639 640 688 0
639 -640 0
639 -687 -688 0
640 -641 -680 0
-640 641 0
-640 680 0
-641 642 663 0
-641 642 664 0
641 -642 0
641 -663 -664 0
642 -643 -653 0
-642 643 0
-642 653 0
-643 644 649 0
-643 644 652 0
643 -644 0
643 -649 -652 0
644 -645 -647 0
-644 645 0
-644 647 0
-645 8402 646 0
-645 -8402 -646 0
645 -8402 646 0
645 8402 -646 0
-646 8412 8435 0
-646 265 306 0
-646 8435 306 0
-646 8412 265 0
646 -8412 -306 0
646 -8435 -265 0
-647 8410 648 0
-647 -8410 -648 0
647 -8410 648 0
647 8410 -648 0
-648 8405 8430 0
-648 191 224 0
-648 8430 224 0
-648 8405 191 0
648 -8405 -224 0
648 -8430 -191 0
-649 8444 650 0
-649 -8444 -650 0
649 -8444 650 0
649 8444 -650 0
-650 8414 651 0
-650 149 651 0
650 -651 0
650 -8414 -149 0
651 -8398 -123 0
-651 8398 0
-651 123 0
652 -645 647 0
652 645 -647 0
-652 645 647 0
-652 -645 -647 0
-653 654 659 0
-653 654 662 0
653 -654 0
653 -659 -662 0
654 -655 -657 0
-654 655 0
-654 657 0
-655 8438 656 0
-655 -8438 -656 0
655 -8438 656 0
655 8438 -656 0
-656 8388 8390 0
-656 80 104 0
-656 8390 80 0
-656 8388 104 0
656 -8388 -80 0
656 -8390 -104 0
-657 8432 658 0
-657 -8432 -658 0
657 -8432 658 0
657 8432 -658 0
-658 8449 8453 0
-658 42 56 0
-658 8453 56 0
-658 8449 42 0
658 -8449 -56 0
658 -8453 -42 0
-659 8420 660 0
-659 -8420 -660 0
659 -8420 660 0
659 8420 -660 0
-660 8457 661 0
-660 28 661 0
660 -661 0
660 -8457 -28 0
661 -8459 -17 0
-661 8459 0
-661 17 0
662 -655 657 0
662 655 -657 0
-662 655 657 0
-662 -655 -657 0
663 -643 653 0
663 643 -653 0
-663 643 653 0
-663 -643 -653 0
-664 11 676 0
-664 665 676 0
-664 8463 676 0
664 -676 0
664 -8463 -11 -665 0
-665 666 671 0
665 -666 0
665 -671 0
666 -667 -669 0
-666 667 0
-666 669 0
-667 8451 668 0
-667 -8451 -668 0
667 -8451 668 0
667 8451 -668 0
-668 8424 8461 0
-668 8423 -8461 0
-668 8451 8461 0
668 -8423 -8461 0
668 -8424 -8451 8461 0
-669 8426 670 0
-669 -8426 -670 0
669 -8426 670 0
669 8426 -670 0
-670 8419 8442 0
-670 443 501 0
-670 8442 501 0
-670 8419 443 0
670 -8419 -501 0
670 -8442 -443 0
671 -672 -675 0
-671 672 0
-671 675 0
-672 8395 673 0
-672 -8395 -673 0
672 -8395 673 0
672 8395 -673 0
-673 8428 674 0
-673 381 674 0
673 -674 0
673 -8428 -381 0
674 -8412 -331 0
-674 8412 0
-674 331 0
675 -667 669 0
675 667 -669 0
-675 667 669 0
-675 -667 -669 0
676 -677 -678 0
-676 677 0
-676 678 0
-677 -614 -617 0
-677 614 617 0
677 614 -617 0
677 -614 617 0
-678 679 665 0
-678 -679 -665 0
678 -679 665 0
678 679 -665 0
679 -8463 -11 0
-679 8463 0
-679 11 0
-680 681 684 0
680 -681 0
680 -684 0
681 -682 -683 0
-681 682 0
-681 683 0
-682 -589 -592 0
-682 589 592 0
682 589 -592 0
682 -589 592 0
-683 -599 -602 0
-683 599 602 0
683 599 -602 0
683 -599 602 0
684 -685 -686 0
-684 685 0
-684 686 0
685 -682 683 0
685 682 -683 0
-685 682 683 0
-685 -682 -683 0
686 619 -620 0
686 -619 620 0
-686 -619 -620 0
-686 619 620 0
-687 603 604 0
-687 -603 -604 0
687 -603 604 0
687 603 -604 0
688 -641 680 0
688 641 -680 0
-688 641 680 0
-688 -641 -680 0
-689 -628 -629 0
-689 628 629 0
689 628 -629 0
689 -628 629 0
690 -638 639 0
690 638 -639 0
-690 638 639 0
-690 -638 -639 0
-691 -630 -631 0
-691 630 631 0
691 630 -631 0
691 -630 631 0
692 -636 691 0
692 636 -691 0
-692 636 691 0
-692 -636 -691 0
-693 694 739 0
-693 694 740 0
693 -694 0
693 -739 -740 0
694 -695 -738 0
-694 695 0
-694 738 0
-695 696 697 0
-695 697 737 0
-695 696 737 0
695 -697 -737 0
695 -696 -697 0
695 -696 -737 0
696 626 -627 0
696 -626 627 0
-696 -626 -627 0
-696 626 627 0
-697 698 735 0
-697 698 736 0
697 -698 0
697 -735 -736 0
698 -699 -728 0
-698 699 0
-698 728 0
-699 700 722 0
699 -700 0
699 -722 0
700 -701 -712 0
-700 701 0
-700 712 0
-701 702 707 0
701 -702 0
701 -707 0
702 -703 -705 0
-702 703 0
-702 705 0
-703 8402 704 0
-703 -8402 -704 0
703 -8402 704 0
703 8402 -704 0
-704 8405 8435 0
-704 265 306 0
-704 8435 265 0
-704 8405 306 0
704 -8405 -265 0
704 -8435 -306 0
-705 8410 706 0
-705 -8410 -706 0
705 -8410 706 0
705 8410 -706 0
-706 8414 8430 0
-706 191 224 0
-706 8430 191 0
-706 8414 224 0
706 -8414 -191 0
706 -8430 -224 0
707 -708 -711 0
-707 708 0
-707 711 0
-708 8444 709 0
-708 -8444 -709 0
708 -8444 709 0
708 8444 -709 0
-709 8398 710 0
-709 149 710 0
709 -710 0
709 -8398 -149 0
710 -8390 -123 0
-710 8390 0
-710 123 0
711 -703 705 0
711 703 -705 0
-711 703 705 0
-711 -703 -705 0
-712 713 718 0
-712 713 721 0
712 -713 0
712 -718 -721 0
713 -714 -716 0
-713 714 0
-713 716 0
-714 8438 715 0
-714 -8438 -715 0
714 -8438 715 0
714 8438 -715 0
-715 8388 8449 0
-715 80 104 0
-715 8449 104 0
-715 8388 80 0
715 -8388 -104 0
715 -8449 -80 0
-716 8432 717 0
-716 -8432 -717 0
716 -8432 717 0
716 8432 -717 0
-717 8453 8457 0
-717 42 56 0
-717 8457 56 0
-717 8453 42 0
717 -8453 -56 0
717 -8457 -42 0
-718 8420 719 0
-718 -8420 -719 0
718 -8420 719 0
718 8420 -719 0
-719 8459 720 0
-719 28 720 0
719 -720 0
719 -8459 -28 0
720 -8463 -17 0
-720 8463 0
-720 17 0
721 -714 716 0
721 714 -716 0
-721 714 716 0
-721 -714 -716 0
722 -723 -727 0
-722 723 0
-722 727 0
723 -724 -726 0
-723 724 0
-723 726 0
724 -8420 725 0
-724 8420 0
-724 -725 0
725 -8463 -28 0
-725 8463 0
-725 28 0
-726 -672 -675 0
-726 672 675 0
726 672 -675 0
726 -672 675 0
727 -701 712 0
727 701 -712 0
-727 701 712 0
-727 -701 -712 0
-728 729 732 0
728 -729 0
728 -732 0
729 -730 -731 0
-729 730 0
-729 731 0
-730 -649 -652 0
-730 649 652 0
730 649 -652 0
730 -649 652 0
-731 -659 -662 0
-731 659 662 0
731 659 -662 0
731 -659 662 0
732 -733 -734 0
-732 733 0
-732 734 0
733 -730 731 0
733 730 -731 0
-733 730 731 0
-733 -730 -731 0
734 -677 678 0
734 677 -678 0
-734 677 678 0
-734 -677 -678 0
-735 663 664 0
-735 -663 -664 0
735 -663 664 0
735 663 -664 0
736 -699 728 0
736 699 -728 0
-736 699 728 0
-736 -699 -728 0
-737 -687 -688 0
-737 687 688 0
737 687 -688 0
737 -687 688 0
-738 -689 -690 0
-738 689 690 0
738 689 -690 0
738 -689 690 0
739 -695 738 0
739 695 -738 0
-739 695 738 0
-739 -695 -738 0
-740 741 790 0
-740 788 790 0
740 -790 0
740 -741 -788 0
-741 742 743 0
-741 743 787 0
-741 742 787 0
741 -743 -787 0
741 -742 -743 0
741 -742 -787 0
742 685 -686 0
742 -685 686 0
-742 -685 -686 0
-742 685 686 0
-743 744 784 0
743 -744 0
743 -784 0
744 -745 -778 0
-744 745 0
-744 778 0
-745 746 767 0
-745 746 777 0
745 -746 0
745 -767 -777 0
746 -747 -757 0
-746 747 0
-746 757 0
-747 748 753 0
-747 748 756 0
747 -748 0
747 -753 -756 0
748 -749 -751 0
-748 749 0
-748 751 0
-749 8451 750 0
-749 -8451 -750 0
749 -8451 750 0
749 8451 -750 0
-750 8424 -8461 0
-750 8451 8461 0
-750 8419 8461 0
750 -8424 -8461 0
750 -8419 -8451 8461 0
-751 8426 752 0
-751 -8426 -752 0
751 -8426 752 0
751 8426 -752 0
-752 8428 8442 0
-752 443 501 0
-752 8442 443 0
-752 8428 501 0
752 -8428 -443 0
752 -8442 -501 0
-753 8395 754 0
-753 -8395 -754 0
753 -8395 754 0
753 8395 -754 0
-754 8412 755 0
-754 381 755 0
754 -755 0
754 -8412 -381 0
755 -8435 -331 0
-755 8435 0
-755 331 0
756 -749 751 0
756 749 -751 0
-756 749 751 0
-756 -749 -751 0
-757 758 763 0
-757 758 766 0
757 -758 0
757 -763 -766 0
758 -759 -761 0
-758 759 0
-758 761 0
-759 8402 760 0
-759 -8402 -760 0
759 -8402 760 0
759 8402 -760 0
-760 8405 8430 0
-760 265 306 0
-760 8430 306 0
-760 8405 265 0
760 -8405 -306 0
760 -8430 -265 0
-761 8410 762 0
-761 -8410 -762 0
761 -8410 762 0
761 8410 -762 0
-762 8398 8414 0
-762 191 224 0
-762 8414 191 0
-762 8398 224 0
762 -8398 -191 0
762 -8414 -224 0
-763 8444 764 0
-763 -8444 -764 0
763 -8444 764 0
763 8444 -764 0
-764 8390 765 0
-764 149 765 0
764 -765 0
764 -8390 -149 0
765 -8388 -123 0
-765 8388 0
-765 123 0
766 -759 761 0
766 759 -761 0
-766 759 761 0
-766 -759 -761 0
-767 768 775 0
767 -768 0
767 -775 0
768 -769 -772 0
-768 769 0
-768 772 0
-769 8438 770 0
-769 -8438 -770 0
769 -8438 770 0
769 8438 -770 0
-770 8449 771 0
-770 104 771 0
770 -771 0
770 -8449 -104 0
771 -8453 -80 0
-771 8453 0
-771 80 0
-772 8432 773 0
-772 -8432 -773 0
772 -8432 773 0
772 8432 -773 0
-773 8457 774 0
-773 56 774 0
773 -774 0
773 -8457 -56 0
774 -8459 -42 0
-774 8459 0
-774 42 0
775 -725 -776 0
-775 725 0
-775 776 0
776 -769 772 0
776 769 -772 0
-776 769 772 0
-776 -769 -772 0
777 -747 757 0
777 747 -757 0
-777 747 757 0
-777 -747 -757 0
-778 779 782 0
-778 779 783 0
778 -779 0
778 -782 -783 0
779 -780 -781 0
-779 780 0
-779 781 0
-780 -708 -711 0
-780 708 711 0
780 708 -711 0
780 -708 711 0
-781 -718 -721 0
-781 718 721 0
781 718 -721 0
781 -718 721 0
-782 724 726 0
-782 -724 -726 0
782 -724 726 0
782 724 -726 0
783 -780 781 0
783 780 -781 0
-783 780 781 0
-783 -780 -781 0
784 -785 -786 0
-784 785 0
-784 786 0
785 723 -727 0
785 -723 727 0
-785 -723 -727 0
-785 723 727 0
786 -745 778 0
786 745 -778 0
-786 745 778 0
-786 -745 -778 0
-787 -735 -736 0
-787 735 736 0
787 735 -736 0
787 -735 736 0
788 -737 789 0
788 737 -789 0
-788 737 789 0
-788 -737 -789 0
-789 696 697 0
-789 -696 -697 0
789 -696 697 0
789 696 -697 0
790 -791 -792 0
-790 791 0
-790 792 0
-791 -741 -788 0
-791 741 788 0
791 741 -788 0
791 -741 788 0
-792 793 844 0
-792 842 844 0
792 -844 0
792 -793 -842 0
-793 795 841 0
-793 794 841 0
-793 794 795 0
793 -794 -841 0
793 -794 -795 0
793 -795 -841 0
794 733 -734 0
794 -733 734 0
-794 -733 -734 0
-794 733 734 0
-795 796 839 0
-795 796 840 0
795 -796 0
795 -839 -840 0
796 -797 -832 0
-796 797 0
-796 832 0
-797 798 820 0
-797 798 831 0
797 -798 0
797 -820 -831 0
798 -799 -809 0
-798 799 0
-798 809 0
-799 800 805 0
-799 800 808 0
799 -800 0
799 -805 -808 0
800 -801 -803 0
-800 801 0
-800 803 0
-801 8451 802 0
-801 -8451 -802 0
801 -8451 802 0
801 8451 -802 0
-802 8442 8461 0
-802 8419 -8461 0
-802 8451 8461 0
802 -8419 -8461 0
802 -8442 -8451 8461 0
-803 8426 804 0
-803 -8426 -804 0
803 -8426 804 0
803 8426 -804 0
-804 8412 8428 0
-804 443 501 0
-804 8428 443 0
-804 8412 501 0
804 -8412 -443 0
804 -8428 -501 0
-805 8395 806 0
-805 -8395 -806 0
805 -8395 806 0
805 8395 -806 0
-806 8435 807 0
-806 381 807 0
806 -807 0
806 -8435 -381 0
807 -8405 -331 0
-807 8405 0
-807 331 0
808 -801 803 0
808 801 -803 0
-808 801 803 0
-808 -801 -803 0
-809 810 815 0
809 -810 0
809 -815 0
810 -811 -813 0
-810 811 0
-810 813 0
-811 8402 812 0
-811 -8402 -812 0
811 -8402 812 0
811 8402 -812 0
-812 8414 8430 0
-812 265 306 0
-812 8430 265 0
-812 8414 306 0
812 -8414 -265 0
812 -8430 -306 0
-813 8410 814 0
-813 -8410 -814 0
813 -8410 814 0
813 8410 -814 0
-814 8390 8398 0
-814 191 224 0
-814 8398 191 0
-814 8390 224 0
814 -8390 -191 0
814 -8398 -224 0
815 -816 -819 0
-815 816 0
-815 819 0
-816 8444 817 0
-816 -8444 -817 0
816 -8444 817 0
816 8444 -817 0
-817 8388 818 0
-817 149 818 0
817 -818 0
817 -8388 -149 0
818 -8449 -123 0
-818 8449 0
-818 123 0
819 -811 813 0
819 811 -813 0
-819 811 813 0
-819 -811 -813 0
-820 821 828 0
820 -821 0
820 -828 0
821 -822 -825 0
-821 822 0
-821 825 0
-822 8438 823 0
-822 -8438 -823 0
822 -8438 823 0
822 8438 -823 0
-823 8453 824 0
-823 104 824 0
823 -824 0
823 -8453 -104 0
824 -8457 -80 0
-824 8457 0
-824 80 0
-825 8432 826 0
-825 -8432 -826 0
825 -8432 826 0
825 8432 -826 0
-826 8459 827 0
-826 56 827 0
826 -827 0
826 -8459 -56 0
827 -8463 -42 0
-827 8463 0
-827 42 0
828 -8432 829 -830 0
-828 8432 0
-828 -829 0
-828 830 0
829 -8463 -56 0
-829 8463 0
-829 56 0
830 -822 825 0
830 822 -825 0
-830 822 825 0
-830 -822 -825 0
831 -799 809 0
831 799 -809 0
-831 799 809 0
-831 -799 -809 0
-832 833 836 0
832 -833 0
832 -836 0
833 -834 -835 0
-833 834 0
-833 835 0
-834 -753 -756 0
-834 753 756 0
834 753 -756 0
834 -753 756 0
-835 -763 -766 0
-835 763 766 0
835 763 -766 0
835 -763 766 0
836 -837 -838 0
-836 837 0
-836 838 0
837 725 -776 0
837 -725 776 0
-837 -725 -776 0
-837 725 776 0
838 -834 835 0
838 834 -835 0
-838 834 835 0
-838 -834 -835 0
-839 -767 -777 0
-839 767 777 0
839 767 -777 0
839 -767 777 0
840 -797 832 0
840 797 -832 0
-840 797 832 0
-840 -797 -832 0
841 785 -786 0
841 -785 786 0
-841 -785 -786 0
-841 785 786 0
842 -787 843 0
842 787 -843 0
-842 787 843 0
-842 -787 -843 0
-843 742 743 0
-843 -742 -743 0
843 -742 743 0
843 742 -743 0
844 -845 -846 0
-844 845 0
-844 846 0
-845 -793 -842 0
-845 793 842 0
845 793 -842 0
845 -793 842 0
-846 847 888 0
-846 847 889 0
846 -847 0
846 -888 -889 0
847 -848 -886 0
-847 848 0
-847 886 0
-848 849 884 0
-848 849 885 0
848 -849 0
848 -884 -885 0
849 -850 -851 0
-849 850 0
-849 851 0
-850 -782 -783 0
-850 782 783 0
850 782 -783 0
850 -782 783 0
-851 856 881 0
-851 852 881 0
851 -881 0
851 -852 -856 0
852 -853 -854 0
-852 853 0
-852 854 0
-853 -816 -819 0
-853 816 819 0
853 816 -819 0
853 -816 819 0
854 855 -830 0
854 -855 830 0
-854 -855 -830 0
-854 855 830 0
855 -8432 829 0
-855 8432 0
-855 -829 0
-856 857 879 0
-856 857 880 0
856 -857 0
856 -879 -880 0
857 -858 -869 0
-857 858 0
-857 869 0
-858 859 864 0
858 -859 0
858 -864 0
859 -860 -862 0
-859 860 0
-859 862 0
-860 8451 861 0
-860 -8451 -861 0
860 -8451 861 0
860 8451 -861 0
-861 8442 -8461 0
-861 8451 8461 0
-861 8428 8461 0
861 -8442 -8461 0
861 -8428 -8451 8461 0
-862 8426 863 0
-862 -8426 -863 0
862 -8426 863 0
862 8426 -863 0
-863 8412 8435 0
-863 443 501 0
-863 8435 501 0
-863 8412 443 0
863 -8412 -501 0
863 -8435 -443 0
864 -865 -868 0
-864 865 0
-864 868 0
-865 8395 866 0
-865 -8395 -866 0
865 -8395 866 0
865 8395 -866 0
-866 8405 867 0
-866 381 867 0
866 -867 0
866 -8405 -381 0
867 -8430 -331 0
-867 8430 0
-867 331 0
868 -860 862 0
868 860 -862 0
-868 860 862 0
-868 -860 -862 0
-869 870 875 0
-869 870 878 0
869 -870 0
869 -875 -878 0
870 -871 -873 0
-870 871 0
-870 873 0
-871 8402 872 0
-871 -8402 -872 0
871 -8402 872 0
871 8402 -872 0
-872 8398 8414 0
-872 265 306 0
-872 8414 265 0
-872 8398 306 0
872 -8398 -265 0
872 -8414 -306 0
-873 8410 874 0
-873 -8410 -874 0
873 -8410 874 0
873 8410 -874 0
-874 8388 8390 0
-874 191 224 0
-874 8390 191 0
-874 8388 224 0
874 -8388 -191 0
874 -8390 -224 0
-875 8444 876 0
-875 -8444 -876 0
875 -8444 876 0
875 8444 -876 0
-876 8449 877 0
-876 149 877 0
876 -877 0
876 -8449 -149 0
877 -8453 -123 0
-877 8453 0
-877 123 0
878 -871 873 0
878 871 -873 0
-878 871 873 0
-878 -871 -873 0
-879 -805 -808 0
-879 805 808 0
879 805 -808 0
879 -805 808 0
880 -858 869 0
880 858 -869 0
-880 858 869 0
-880 -858 -869 0
881 -882 -883 0
-881 882 0
-881 883 0
-882 -820 -831 0
-882 820 831 0
882 820 -831 0
882 -820 831 0
-883 852 856 0
-883 -852 -856 0
883 -852 856 0
883 852 -856 0
-884 -839 -840 0
-884 839 840 0
884 839 -840 0
884 -839 840 0
885 -850 851 0
885 850 -851 0
-885 850 851 0
-885 -850 -851 0
-886 841 887 0
-886 -841 -887 0
886 -841 887 0
886 841 -887 0
-887 794 795 0
-887 -794 -795 0
887 -794 795 0
887 794 -795 0
888 -848 886 0
888 848 -886 0
-888 848 886 0
-888 -848 -886 0
-889 890 931 0
-889 890 932 0
889 -890 0
889 -931 -932 0
890 -891 -930 0
-890 891 0
-890 930 0
-891 893 929 0
-891 892 929 0
-891 892 893 0
891 -892 -929 0
891 -892 -893 0
891 -893 -929 0
892 837 -838 0
892 -837 838 0
-892 -837 -838 0
-892 837 838 0
-893 894 927 0
-893 894 928 0
893 -894 0
893 -927 -928 0
894 -895 -911 0
-894 895 0
-894 911 0
-895 896 899 0
-895 829 899 0
895 -899 0
895 -829 -896 0
-896 8438 897 0
-896 -8438 -897 0
896 -8438 897 0
896 8438 -897 0
-897 8457 898 0
-897 104 898 0
897 -898 0
897 -8457 -104 0
898 -8459 -80 0
-898 8459 0
-898 80 0
899 -900 -901 0
-899 900 0
-899 901 0
-900 829 896 0
-900 -829 -896 0
900 -829 896 0
900 829 -896 0
-901 902 907 0
-901 902 910 0
901 -902 0
901 -907 -910 0
902 -903 -905 0
-902 903 0
-902 905 0
-903 8451 904 0
-903 -8451 -904 0
903 -8451 904 0
903 8451 -904 0
-904 8428 -8461 0
-904 8451 8461 0
-904 8412 8461 0
904 -8428 -8461 0
904 -8412 -8451 8461 0
-905 8426 906 0
-905 -8426 -906 0
905 -8426 906 0
905 8426 -906 0
-906 8405 8435 0
-906 443 501 0
-906 8435 443 0
-906 8405 501 0
906 -8405 -443 0
906 -8435 -501 0
-907 8395 908 0
-907 -8395 -908 0
907 -8395 908 0
907 8395 -908 0
-908 8430 909 0
-908 381 909 0
908 -909 0
908 -8430 -381 0
909 -8414 -331 0
-909 8414 0
-909 331 0
910 -903 905 0
910 903 -905 0
-910 903 905 0
-910 -903 -905 0
-911 912 924 0
911 -912 0
911 -924 0
912 -913 -923 0
-912 913 0
-912 923 0
-913 914 919 0
-913 914 922 0
913 -914 0
913 -919 -922 0
914 -915 -917 0
-914 915 0
-914 917 0
-915 8402 916 0
-915 -8402 -916 0
915 -8402 916 0
915 8402 -916 0
-916 8390 8398 0
-916 265 306 0
-916 8398 265 0
-916 8390 306 0
916 -8390 -265 0
916 -8398 -306 0
-917 8410 918 0
-917 -8410 -918 0
917 -8410 918 0
917 8410 -918 0
-918 8388 8449 0
-918 191 224 0
-918 8449 224 0
-918 8388 191 0
918 -8388 -224 0
918 -8449 -191 0
-919 8444 920 0
-919 -8444 -920 0
919 -8444 920 0
919 8444 -920 0
-920 8453 921 0
-920 149 921 0
920 -921 0
920 -8453 -149 0
921 -8457 -123 0
-921 8457 0
-921 123 0
922 -915 917 0
922 915 -917 0
-922 915 917 0
-922 -915 -917 0
-923 -865 -868 0
-923 865 868 0
923 865 -868 0
923 -865 868 0
924 -925 -926 0
-924 925 0
-924 926 0
-925 -875 -878 0
-925 875 878 0
925 875 -878 0
925 -875 878 0
926 -913 923 0
926 913 -923 0
-926 913 923 0
-926 -913 -923 0
-927 -879 -880 0
-927 879 880 0
927 879 -880 0
927 -879 880 0
928 -895 911 0
928 895 -911 0
-928 895 911 0
-928 -895 -911 0
929 -882 883 0
929 882 -883 0
-929 882 883 0
-929 -882 -883 0
-930 -884 -885 0
-930 884 885 0
930 884 -885 0
930 -884 885 0
931 -891 930 0
931 891 -930 0
-931 891 930 0
-931 -891 -930 0
-932 933 964 0
-932 933 965 0
932 -933 0
932 -964 -965 0
933 -934 -962 0
-933 934 0
-933 962 0
-934 935 960 0
-934 935 961 0
934 -935 0
934 -960 -961 0
935 -936 -937 0
-935 936 0
-935 937 0
-936 -853 -854 0
-936 853 854 0
936 853 -854 0
936 -853 854 0
-937 941 959 0
-937 938 959 0
-937 938 941 0
937 -938 -959 0
937 -938 -941 0
937 -941 -959 0
938 -939 -940 0
-938 939 0
-938 940 0
-939 -907 -910 0
-939 907 910 0
939 907 -910 0
939 -907 910 0
-940 -919 -922 0
-940 919 922 0
940 919 -922 0
940 -919 922 0
-941 -942 945 0
-941 943 945 0
-941 8438 945 0
941 -945 0
941 -8438 942 -943 0
942 -8463 -104 0
-942 8463 0
-942 104 0
-943 8438 944 0
-943 -8438 -944 0
943 -8438 944 0
943 8438 -944 0
-944 8459 8463 0
-944 80 104 0
-944 8463 104 0
-944 8459 80 0
944 -8459 -104 0
944 -8463 -80 0
945 -946 -948 0
-945 946 0
-945 948 0
-946 947 943 0
-946 -947 -943 0
946 -947 943 0
946 947 -943 0
947 -8438 942 0
-947 8438 0
-947 -942 0
-948 949 954 0
948 -949 0
948 -954 0
949 -950 -952 0
-949 950 0
-949 952 0
-950 8451 951 0
-950 -8451 -951 0
950 -8451 951 0
950 8451 -951 0
-951 8435 8461 0
-951 8412 -8461 0
-951 8451 8461 0
951 -8412 -8461 0
951 -8435 -8451 8461 0
-952 8426 953 0
-952 -8426 -953 0
952 -8426 953 0
952 8426 -953 0
-953 8405 8430 0
-953 443 501 0
-953 8430 501 0
-953 8405 443 0
953 -8405 -501 0
953 -8430 -443 0
954 -955 -958 0
-954 955 0
-954 958 0
-955 8395 956 0
-955 -8395 -956 0
955 -8395 956 0
955 8395 -956 0
-956 8414 957 0
-956 381 957 0
956 -957 0
956 -8414 -381 0
957 -8398 -331 0
-957 8398 0
-957 331 0
958 -950 952 0
958 950 -952 0
-958 950 952 0
-958 -950 -952 0
959 -900 901 0
959 900 -901 0
-959 900 901 0
-959 -900 -901 0
-960 -927 -928 0
-960 927 928 0
960 927 -928 0
960 -927 928 0
961 -936 937 0
961 936 -937 0
-961 936 937 0
-961 -936 -937 0
-962 929 963 0
-962 -929 -963 0
962 -929 963 0
962 929 -963 0
-963 892 893 0
-963 -892 -893 0
963 -892 893 0
963 892 -893 0
964 -934 962 0
964 934 -962 0
-964 934 962 0
-964 -934 -962 0
-965 966 1003 0
-965 966 1004 0
965 -966 0
965 -1003 -1004 0
966 -967 -968 0
-966 967 0
-966 968 0
-967 -960 -961 0
-967 960 961 0
967 960 -961 0
967 -960 961 0
-968 969 1000 0
-968 969 1002 0
968 -969 0
968 -1000 -1002 0
969 -970 -971 0
-969 970 0
-969 971 0
-970 -925 -926 0
-970 925 926 0
970 925 -926 0
970 -925 926 0
-971 972 997 0
971 -972 0
971 -997 0
972 -973 -983 0
-972 973 0
-972 983 0
-973 974 979 0
-973 974 982 0
973 -974 0
973 -979 -982 0
974 -975 -977 0
-974 975 0
-974 977 0
-975 8402 976 0
-975 -8402 -976 0
975 -8402 976 0
975 8402 -976 0
-976 8388 8390 0
-976 265 306 0
-976 8390 265 0
-976 8388 306 0
976 -8388 -265 0
976 -8390 -306 0
-977 8410 978 0
-977 -8410 -978 0
977 -8410 978 0
977 8410 -978 0
-978 8449 8453 0
-978 191 224 0
-978 8453 224 0
-978 8449 191 0
978 -8449 -224 0
978 -8453 -191 0
-979 8444 980 0
-979 -8444 -980 0
979 -8444 980 0
979 8444 -980 0
-980 8457 981 0
-980 149 981 0
980 -981 0
980 -8457 -149 0
981 -8459 -123 0
-981 8459 0
-981 123 0
982 -975 977 0
982 975 -977 0
-982 975 977 0
-982 -975 -977 0
-983 984 994 0
-983 942 994 0
983 -994 0
983 -942 -984 0
-984 985 990 0
984 -985 0
984 -990 0
985 -986 -988 0
-985 986 0
-985 988 0
-986 8451 987 0
-986 -8451 -987 0
986 -8451 987 0
986 8451 -987 0
-987 8435 -8461 0
-987 8451 8461 0
-987 8405 8461 0
987 -8435 -8461 0
987 -8405 -8451 8461 0
-988 8426 989 0
-988 -8426 -989 0
988 -8426 989 0
988 8426 -989 0
-989 8414 8430 0
-989 443 501 0
-989 8430 443 0
-989 8414 501 0
989 -8414 -443 0
989 -8430 -501 0
990 -991 -993 0
-990 991 0
-990 993 0
-991 8395 992 0
-991 -8395 -992 0
991 -8395 992 0
991 8395 -992 0
-992 8390 8398 0
-992 331 381 0
-992 8398 331 0
-992 8390 381 0
992 -8390 -331 0
992 -8398 -381 0
993 -986 988 0
993 986 -988 0
-993 986 988 0
-993 -986 -988 0
994 -995 -996 0
-994 995 0
-994 996 0
-995 -955 -958 0
-995 955 958 0
995 955 -958 0
995 -955 958 0
-996 942 984 0
-996 -942 -984 0
996 -942 984 0
996 942 -984 0
997 -998 -999 0
-997 998 0
-997 999 0
998 -946 948 0
998 946 -948 0
-998 946 948 0
-998 -946 -948 0
999 -973 983 0
999 973 -983 0
-999 973 983 0
-999 -973 -983 0
-1000 959 1001 0
-1000 -959 -1001 0
1000 -959 1001 0
1000 959 -1001 0
-1001 938 941 0
-1001 -938 -941 0
1001 -938 941 0
1001 938 -941 0
1002 -970 971 0
1002 970 -971 0
-1002 970 971 0
-1002 -970 -971 0
1003 -967 968 0
1003 967 -968 0
-1003 967 968 0
-1003 -967 -968 0
-1004 1005 1028 0
-1004 1005 1029 0
1004 -1005 0
1004 -1028 -1029 0
1005 -1006 -1027 0
-1005 1006 0
-1005 1027 0
-1006 1008 1026 0
-1006 1007 1026 0
-1006 1007 1008 0
1006 -1007 -1026 0
1006 -1007 -1008 0
1006 -1008 -1026 0
1007 -939 940 0
1007 939 -940 0
-1007 939 940 0
-1007 -939 -940 0
-1008 1009 1023 0
-1008 1019 1023 0
1008 -1023 0
1008 -1009 -1019 0
-1009 1010 1015 0
-1009 1010 1018 0
1009 -1010 0
1009 -1015 -1018 0
1010 -1011 -1013 0
-1010 1011 0
-1010 1013 0
-1011 8402 1012 0
-1011 -8402 -1012 0
1011 -8402 1012 0
1011 8402 -1012 0
-1012 8388 8449 0
-1012 265 306 0
-1012 8449 306 0
-1012 8388 265 0
1012 -8388 -306 0
1012 -8449 -265 0
-1013 8410 1014 0
-1013 -8410 -1014 0
1013 -8410 1014 0
1013 8410 -1014 0
-1014 8453 8457 0
-1014 191 224 0
-1014 8457 224 0
-1014 8453 191 0
1014 -8453 -224 0
1014 -8457 -191 0
-1015 8444 1016 0
-1015 -8444 -1016 0
1015 -8444 1016 0
1015 8444 -1016 0
-1016 8459 1017 0
-1016 149 1017 0
1016 -1017 0
1016 -8459 -149 0
1017 -8463 -123 0
-1017 8463 0
-1017 123 0
1018 -1011 1013 0
1018 1011 -1013 0
-1018 1011 1013 0
-1018 -1011 -1013 0
1019 -1020 -1022 0
-1019 1020 0
-1019 1022 0
1020 -8444 1021 0
-1020 8444 0
-1020 -1021 0
1021 -8463 -149 0
-1021 8463 0
-1021 149 0
-1022 -991 -993 0
-1022 991 993 0
1022 991 -993 0
1022 -991 993 0
1023 -1024 -1025 0
-1023 1024 0
-1023 1025 0
-1024 -979 -982 0
-1024 979 982 0
1024 979 -982 0
1024 -979 982 0
-1025 -1009 -1019 0
-1025 1009 1019 0
1025 1009 -1019 0
1025 -1009 1019 0
1026 998 -999 0
1026 -998 999 0
-1026 -998 -999 0
-1026 998 999 0
-1027 -1000 -1002 0
-1027 1000 1002 0
1027 1000 -1002 0
1027 -1000 1002 0
1028 -1006 1027 0
1028 1006 -1027 0
-1028 1006 1027 0
-1028 -1006 -1027 0
-1029 1030 1059 0
-1029 1030 1060 0
1029 -1030 0
1029 -1059 -1060 0
1030 -1031 -1057 0
-1030 1031 0
-1030 1057 0
-1031 1033 1056 0
-1031 1032 1056 0
-1031 1032 1033 0
1031 -1032 -1056 0
1031 -1032 -1033 0
1031 -1033 -1056 0
1032 -995 996 0
1032 995 -996 0
-1032 995 996 0
-1032 -995 -996 0
-1033 1034 1054 0
-1033 1034 1055 0
1033 -1034 0
1033 -1054 -1055 0
1034 -1035 -1046 0
-1034 1035 0
-1034 1046 0
-1035 1036 1041 0
1035 -1036 0
1035 -1041 0
1036 -1037 -1039 0
-1036 1037 0
-1036 1039 0
-1037 8451 1038 0
-1037 -8451 -1038 0
1037 -8451 1038 0
1037 8451 -1038 0
-1038 8430 8461 0
-1038 8405 -8461 0
-1038 8451 8461 0
1038 -8405 -8461 0
1038 -8430 -8451 8461 0
-1039 8426 1040 0
-1039 -8426 -1040 0
1039 -8426 1040 0
1039 8426 -1040 0
-1040 8398 8414 0
-1040 443 501 0
-1040 8414 443 0
-1040 8398 501 0
1040 -8398 -443 0
1040 -8414 -501 0
1041 -1042 -1045 0
-1041 1042 0
-1041 1045 0
-1042 8395 1043 0
-1042 -8395 -1043 0
1042 -8395 1043 0
1042 8395 -1043 0
-1043 8390 1044 0
-1043 381 1044 0
1043 -1044 0
1043 -8390 -381 0
1044 -8388 -331 0
-1044 8388 0
-1044 331 0
1045 -1037 1039 0
1045 1037 -1039 0
-1045 1037 1039 0
-1045 -1037 -1039 0
-1046 1047 1052 0
1046 -1047 0
1046 -1052 0
1047 -1048 -1050 0
-1047 1048 0
-1047 1050 0
-1048 8402 1049 0
-1048 -8402 -1049 0
1048 -8402 1049 0
1048 8402 -1049 0
-1049 8449 8453 0
-1049 265 306 0
-1049 8453 306 0
-1049 8449 265 0
1049 -8449 -306 0
1049 -8453 -265 0
-1050 8410 1051 0
-1050 -8410 -1051 0
1050 -8410 1051 0
1050 8410 -1051 0
-1051 8457 8459 0
-1051 191 224 0
-1051 8459 224 0
-1051 8457 191 0
1051 -8457 -224 0
1051 -8459 -191 0
1052 -1021 -1053 0
-1052 1021 0
-1052 1053 0
1053 -1048 1050 0
1053 1048 -1050 0
-1053 1048 1050 0
-1053 -1048 -1050 0
-1054 -1015 -1018 0
-1054 1015 1018 0
1054 1015 -1018 0
1054 -1015 1018 0
1055 -1035 1046 0
1055 1035 -1046 0
-1055 1035 1046 0
-1055 -1035 -1046 0
1056 -1024 1025 0
1056 1024 -1025 0
-1056 1024 1025 0
-1056 -1024 -1025 0
-1057 -1058 -1026 0
-1057 1058 1026 0
1057 1058 -1026 0
1057 -1058 1026 0
-1058 1007 1008 0
-1058 -1007 -1008 0
1058 -1007 1008 0
1058 1007 -1008 0
1059 -1031 1057 0
1059 1031 -1057 0
-1059 1031 1057 0
-1059 -1031 -1057 0
-1060 1061 1092 0
-1060 1061 1093 0
1060 -1061 0
1060 -1092 -1093 0
1061 -1062 -1090 0
-1061 1062 0
-1061 1090 0
-1062 1063 1088 0
-1062 1063 1089 0
1062 -1063 0
1062 -1088 -1089 0
1063 -1064 -1065 0
-1063 1064 0
-1063 1065 0
-1064 1020 1022 0
-1064 -1020 -1022 0
1064 -1020 1022 0
1064 1020 -1022 0
-1065 1066 1086 0
-1065 1066 1087 0
1065 -1066 0
1065 -1086 -1087 0
1066 -1067 -1077 0
-1066 1067 0
-1066 1077 0
-1067 1068 1073 0
-1067 1068 1076 0
1067 -1068 0
1067 -1073 -1076 0
1068 -1069 -1071 0
-1068 1069 0
-1068 1071 0
-1069 8451 1070 0
-1069 -8451 -1070 0
1069 -8451 1070 0
1069 8451 -1070 0
-1070 8430 -8461 0
-1070 8451 8461 0
-1070 8414 8461 0
1070 -8430 -8461 0
1070 -8414 -8451 8461 0
-1071 8426 1072 0
-1071 -8426 -1072 0
1071 -8426 1072 0
1071 8426 -1072 0
-1072 8390 8398 0
-1072 443 501 0
-1072 8398 443 0
-1072 8390 501 0
1072 -8390 -443 0
1072 -8398 -501 0
-1073 8395 1074 0
-1073 -8395 -1074 0
1073 -8395 1074 0
1073 8395 -1074 0
-1074 8388 1075 0
-1074 381 1075 0
1074 -1075 0
1074 -8388 -381 0
1075 -8449 -331 0
-1075 8449 0
-1075 331 0
1076 -1069 1071 0
1076 1069 -1071 0
-1076 1069 1071 0
-1076 -1069 -1071 0
-1077 1078 1083 0
1077 -1078 0
1077 -1083 0
1078 -1079 -1081 0
-1078 1079 0
-1078 1081 0
-1079 8402 1080 0
-1079 -8402 -1080 0
1079 -8402 1080 0
1079 8402 -1080 0
-1080 8453 8457 0
-1080 265 306 0
-1080 8457 306 0
-1080 8453 265 0
1080 -8453 -306 0
1080 -8457 -265 0
-1081 8410 1082 0
-1081 -8410 -1082 0
1081 -8410 1082 0
1081 8410 -1082 0
-1082 8459 8463 0
-1082 191 224 0
-1082 8463 224 0
-1082 8459 191 0
1082 -8459 -224 0
1082 -8463 -191 0
1083 -8410 1084 -1085 0
-1083 8410 0
-1083 -1084 0
-1083 1085 0
1084 -8463 -224 0
-1084 8463 0
-1084 224 0
1085 -1079 1081 0
1085 1079 -1081 0
-1085 1079 1081 0
-1085 -1079 -1081 0
-1086 -1042 -1045 0
-1086 1042 1045 0
1086 1042 -1045 0
1086 -1042 1045 0
1087 -1067 1077 0
1087 1067 -1077 0
-1087 1067 1077 0
-1087 -1067 -1077 0
-1088 -1054 -1055 0
-1088 1054 1055 0
1088 1054 -1055 0
1088 -1054 1055 0
1089 -1064 1065 0
1089 1064 -1065 0
-1089 1064 1065 0
-1089 -1064 -1065 0
-1090 1056 1091 0
-1090 -1056 -1091 0
1090 -1056 1091 0
1090 1056 -1091 0
-1091 1032 1033 0
-1091 -1032 -1033 0
1091 -1032 1033 0
1091 1032 -1033 0
1092 -1062 1090 0
1092 1062 -1090 0
-1092 1062 1090 0
-1092 -1062 -1090 0
-1093 1094 1116 0
-1093 1094 1117 0
1093 -1094 0
1093 -1116 -1117 0
1094 -1095 -1115 0
-1094 1095 0
-1094 1115 0
-1095 1096 1097 0
-1095 1097 1114 0
-1095 1096 1114 0
1095 -1097 -1114 0
1095 -1096 -1097 0
1095 -1096 -1114 0
1096 1021 -1053 0
1096 -1021 1053 0
-1096 -1021 -1053 0
-1096 1021 1053 0
-1097 1098 1110 0
1097 -1098 0
1097 -1110 0
1098 -1099 -1109 0
-1098 1099 0
-1098 1109 0
-1099 1100 1105 0
-1099 1100 1108 0
1099 -1100 0
1099 -1105 -1108 0
1100 -1101 -1103 0
-1100 1101 0
-1100 1103 0
-1101 8451 1102 0
-1101 -8451 -1102 0
1101 -8451 1102 0
1101 8451 -1102 0
-1102 8414 -8461 0
-1102 8451 8461 0
-1102 8398 8461 0
1102 -8414 -8461 0
1102 -8398 -8451 8461 0
-1103 8426 1104 0
-1103 -8426 -1104 0
1103 -8426 1104 0
1103 8426 -1104 0
-1104 8388 8390 0
-1104 443 501 0
-1104 8390 443 0
-1104 8388 501 0
1104 -8388 -443 0
1104 -8390 -501 0
-1105 8395 1106 0
-1105 -8395 -1106 0
1105 -8395 1106 0
1105 8395 -1106 0
-1106 8449 1107 0
-1106 381 1107 0
1106 -1107 0
1106 -8449 -381 0
1107 -8453 -331 0
-1107 8453 0
-1107 331 0
1108 -1101 1103 0
1108 1101 -1103 0
-1108 1101 1103 0
-1108 -1101 -1103 0
-1109 -1073 -1076 0
-1109 1073 1076 0
1109 1073 -1076 0
1109 -1073 1076 0
1110 -1111 -1113 0
-1110 1111 0
-1110 1113 0
1111 1112 -1085 0
1111 -1112 1085 0
-1111 -1112 -1085 0
-1111 1112 1085 0
1112 -8410 1084 0
-1112 8410 0
-1112 -1084 0
1113 -1099 1109 0
1113 1099 -1109 0
-1113 1099 1109 0
-1113 -1099 -1109 0
-1114 -1086 -1087 0
-1114 1086 1087 0
1114 1086 -1087 0
1114 -1086 1087 0
-1115 -1088 -1089 0
-1115 1088 1089 0
1115 1088 -1089 0
1115 -1088 1089 0
1116 -1095 1115 0
1116 1095 -1115 0
-1116 1095 1115 0
-1116 -1095 -1115 0
-1117 1118 1139 0
-1117 1118 1140 0
1117 -1118 0
1117 -1139 -1140 0
1118 -1119 -1137 0
-1118 1119 0
-1118 1137 0
1119 -1120 -1136 0
-1119 1120 0
-1119 1136 0
-1120 1121 1123 0
-1120 1084 1123 0
1120 -1123 0
1120 -1084 -1121 0
-1121 8402 1122 0
-1121 -8402 -1122 0
1121 -8402 1122 0
1121 8402 -1122 0
-1122 8457 8459 0
-1122 265 306 0
-1122 8459 306 0
-1122 8457 265 0
1122 -8457 -306 0
1122 -8459 -265 0
1123 -1124 -1125 0
-1123 1124 0
-1123 1125 0
-1124 1084 1121 0
-1124 -1084 -1121 0
1124 -1084 1121 0
1124 1084 -1121 0
-1125 1126 1131 0
1125 -1126 0
1125 -1131 0
1126 -1127 -1129 0
-1126 1127 0
-1126 1129 0
-1127 8451 1128 0
-1127 -8451 -1128 0
1127 -8451 1128 0
1127 8451 -1128 0
-1128 8398 -8461 0
-1128 8451 8461 0
-1128 8390 8461 0
1128 -8398 -8461 0
1128 -8390 -8451 8461 0
-1129 8426 1130 0
-1129 -8426 -1130 0
1129 -8426 1130 0
1129 8426 -1130 0
-1130 8388 8449 0
-1130 443 501 0
-1130 8449 501 0
-1130 8388 443 0
1130 -8388 -501 0
1130 -8449 -443 0
1131 -1132 -1135 0
-1131 1132 0
-1131 1135 0
-1132 8395 1133 0
-1132 -8395 -1133 0
1132 -8395 1133 0
1132 8395 -1133 0
-1133 8453 1134 0
-1133 381 1134 0
1133 -1134 0
1133 -8453 -381 0
1134 -8457 -331 0
-1134 8457 0
-1134 331 0
1135 -1127 1129 0
1135 1127 -1129 0
-1135 1127 1129 0
-1135 -1127 -1129 0
1136 1111 -1113 0
1136 -1111 1113 0
-1136 -1111 -1113 0
-1136 1111 1113 0
1137 -1114 1138 0
1137 1114 -1138 0
-1137 1114 1138 0
-1137 -1114 -1138 0
-1138 1096 1097 0
-1138 -1096 -1097 0
1138 -1096 1097 0
1138 1096 -1097 0
1139 1119 -1137 0
1139 -1119 1137 0
-1139 -1119 -1137 0
-1139 1119 1137 0
-1140 1141 1157 0
-1140 1141 1158 0
1140 -1141 0
1140 -1157 -1158 0
1141 -1142 -1156 0
-1141 1142 0
-1141 1156 0
-1142 1143 1153 0
1142 -1143 0
1142 -1153 0
1143 -1144 -1145 0
-1143 1144 0
-1143 1145 0
-1144 -1105 -1108 0
-1144 1105 1108 0
1144 1105 -1108 0
1144 -1105 1108 0
-1145 -1146 1149 0
-1145 1147 1149 0
-1145 8402 1149 0
1145 -1149 0
1145 -8402 1146 -1147 0
1146 -8463 -306 0
-1146 8463 0
-1146 306 0
-1147 8402 1148 0
-1147 -8402 -1148 0
1147 -8402 1148 0
1147 8402 -1148 0
-1148 8459 8463 0
-1148 265 306 0
-1148 8463 306 0
-1148 8459 265 0
1148 -8459 -306 0
1148 -8463 -265 0
1149 -1150 -1152 0
-1149 1150 0
-1149 1152 0
-1150 1151 1147 0
-1150 -1151 -1147 0
1150 -1151 1147 0
1150 1151 -1147 0
1151 -8402 1146 0
-1151 8402 0
-1151 -1146 0
-1152 -1132 -1135 0
-1152 1132 1135 0
1152 1132 -1135 0
1152 -1132 1135 0
1153 -1154 -1155 0
-1153 1154 0
-1153 1155 0
1154 -1124 1125 0
1154 1124 -1125 0
-1154 1124 1125 0
-1154 -1124 -1125 0
1155 -1144 1145 0
1155 1144 -1145 0
-1155 1144 1145 0
-1155 -1144 -1145 0
-1156 -1120 -1136 0
-1156 1120 1136 0
1156 1120 -1136 0
1156 -1120 1136 0
1157 -1142 1156 0
1157 1142 -1156 0
-1157 1142 1156 0
-1157 -1142 -1156 0
-1158 1159 1173 0
-1158 1159 1174 0
1158 -1159 0
1158 -1173 -1174 0
1159 -1160 -1172 0
-1159 1160 0
-1159 1172 0
1160 -1161 -1171 0
-1160 1161 0
-1160 1171 0
-1161 1162 1167 0
-1161 1162 1170 0
1161 -1162 0
1161 -1167 -1170 0
1162 -1163 -1165 0
-1162 1163 0
-1162 1165 0
-1163 8451 1164 0
-1163 -8451 -1164 0
1163 -8451 1164 0
1163 8451 -1164 0
-1164 8390 -8461 0
-1164 8451 8461 0
-1164 8388 8461 0
1164 -8390 -8461 0
1164 -8388 -8451 8461 0
-1165 8426 1166 0
-1165 -8426 -1166 0
1165 -8426 1166 0
1165 8426 -1166 0
-1166 8449 8453 0
-1166 443 501 0
-1166 8453 501 0
-1166 8449 443 0
1166 -8449 -501 0
1166 -8453 -443 0
-1167 8395 1168 0
-1167 -8395 -1168 0
1167 -8395 1168 0
1167 8395 -1168 0
-1168 8457 1169 0
-1168 381 1169 0
1168 -1169 0
1168 -8457 -381 0
1169 -8459 -331 0
-1169 8459 0
-1169 331 0
1170 -1163 1165 0
1170 1163 -1165 0
-1170 1163 1165 0
-1170 -1163 -1165 0
1171 -1150 1152 0
1171 1150 -1152 0
-1171 1150 1152 0
-1171 -1150 -1152 0
1172 1154 -1155 0
1172 -1154 1155 0
-1172 -1154 -1155 0
-1172 1154 1155 0
1173 1160 -1172 0
1173 -1160 1172 0
-1173 -1160 -1172 0
-1173 1160 1172 0
-1174 1175 1190 0
-1174 1175 1191 0
1174 -1175 0
1174 -1190 -1191 0
1175 -1176 -1189 0
-1175 1176 0
-1175 1189 0
-1176 1177 1186 0
-1176 1146 1186 0
1176 -1186 0
1176 -1146 -1177 0
-1177 1178 1183 0
-1177 1178 1185 0
1177 -1178 0
1177 -1183 -1185 0
1178 -1179 -1181 0
-1178 1179 0
-1178 1181 0
-1179 8451 1180 0
-1179 -8451 -1180 0
1179 -8451 1180 0
1179 8451 -1180 0
-1180 8449 8461 0
-1180 8388 -8461 0
-1180 8451 8461 0
1180 -8388 -8461 0
1180 -8449 -8451 8461 0
-1181 8426 1182 0
-1181 -8426 -1182 0
1181 -8426 1182 0
1181 8426 -1182 0
-1182 8453 8457 0
-1182 443 501 0
-1182 8457 501 0
-1182 8453 443 0
1182 -8453 -501 0
1182 -8457 -443 0
-1183 8395 1184 0
-1183 -8395 -1184 0
1183 -8395 1184 0
1183 8395 -1184 0
-1184 8459 8463 0
-1184 331 381 0
-1184 8463 381 0
-1184 8459 331 0
1184 -8459 -381 0
1184 -8463 -331 0
1185 -1179 1181 0
1185 1179 -1181 0
-1185 1179 1181 0
-1185 -1179 -1181 0
1186 -1187 -1188 0
-1186 1187 0
-1186 1188 0
-1187 -1167 -1170 0
-1187 1167 1170 0
1187 1167 -1170 0
1187 -1167 1170 0
-1188 1146 1177 0
-1188 -1146 -1177 0
1188 -1146 1177 0
1188 1146 -1177 0
-1189 -1161 -1171 0
-1189 1161 1171 0
1189 1161 -1171 0
1189 -1161 1171 0
1190 -1176 1189 0
1190 1176 -1189 0
-1190 1176 1189 0
-1190 -1176 -1189 0
-1191 1192 1198 0
-1191 1192 1229 0
1191 -1192 0
1191 -1198 -1229 0
1192 -1193 -1197 0
-1192 1193 0
-1192 1197 0
1193 -1194 -1196 0
-1193 1194 0
-1193 1196 0
1194 -8395 1195 0
-1194 8395 0
-1194 -1195 0
1195 -8463 -381 0
-1195 8463 0
-1195 381 0
-1196 -1183 -1185 0
-1196 1183 1185 0
1196 1183 -1185 0
1196 -1183 1185 0
1197 -1187 1188 0
1197 1187 -1188 0
-1197 1187 1188 0
-1197 -1187 -1188 0
-1198 1199 1209 0
-1198 1199 1228 0
1198 -1199 0
1198 -1209 -1228 0
1199 -1200 -1208 0
-1199 1200 0
-1199 1208 0
-1200 1201 1206 0
1200 -1201 0
1200 -1206 0
1201 -1202 -1204 0
-1201 1202 0
-1201 1204 0
-1202 8451 1203 0
-1202 -8451 -1203 0
1202 -8451 1203 0
1202 8451 -1203 0
-1203 8451 8461 0
-1203 8449 -8461 0
-1203 8453 8461 0
1203 -8449 -8461 0
1203 -8451 -8453 8461 0
-1204 8426 1205 0
-1204 -8426 -1205 0
1204 -8426 1205 0
1204 8426 -1205 0
-1205 8457 8459 0
-1205 443 501 0
-1205 8459 501 0
-1205 8457 443 0
1205 -8457 -501 0
1205 -8459 -443 0
1206 -1195 -1207 0
-1206 1195 0
-1206 1207 0
1207 -1202 1204 0
1207 1202 -1204 0
-1207 1202 1204 0
-1207 -1202 -1204 0
-1208 1194 1196 0
-1208 -1194 -1196 0
1208 -1194 1196 0
1208 1194 -1196 0
-1209 1219 1220 0
-1209 1210 1219 0
-1209 1210 1220 0
1209 -1210 -1219 0
1209 -1219 -1220 0
1209 -1210 -1220 0
-1210 1211 1216 0
1210 -1211 0
1210 -1216 0
1211 -1212 -1214 0
-1211 1212 0
-1211 1214 0
-1212 8451 1213 0
-1212 -8451 -1213 0
1212 -8451 1213 0
1212 8451 -1213 0
-1213 8453 -8461 0
-1213 8457 8461 0
-1213 8451 8461 0
1213 -8453 -8461 0
1213 -8451 -8457 8461 0
-1214 8426 1215 0
-1214 -8426 -1215 0
1214 -8426 1215 0
1214 8426 -1215 0
-1215 8459 8463 0
-1215 443 501 0
-1215 8463 501 0
-1215 8459 443 0
1215 -8459 -501 0
1215 -8463 -443 0
1216 -8426 1217 -1218 0
-1216 8426 0
-1216 -1217 0
-1216 1218 0
1217 -8463 -501 0
-1217 8463 0
-1217 501 0
1218 -1212 1214 0
1218 1212 -1214 0
-1218 1212 1214 0
-1218 -1212 -1214 0
1219 1195 -1207 0
1219 -1195 1207 0
-1219 -1195 -1207 0
-1219 1195 1207 0
1220 -1221 -1226 0
-1220 1221 0
-1220 1226 0
-1221 1222 1224 0
-1221 1217 1224 0
-1221 1217 1222 0
1221 -1217 -1224 0
1221 -1217 -1222 0
1221 -1222 -1224 0
-1222 8451 1223 0
-1222 -8451 -1223 0
1222 -8451 1223 0
1222 8451 -1223 0
-1223 8457 -8461 0
-1223 8459 8461 0
-1223 8451 8461 0
1223 -8457 -8461 0
1223 -8451 -8459 8461 0
1224 -8451 8463 1225 0
-1224 8451 0
-1224 -1225 0
-1224 -8463 0
1225 -8459 -8461 0
-1225 8459 0
-1225 8461 0
1226 1227 -1218 0
1226 -1227 1218 0
-1226 -1227 -1218 0
-1226 1227 1218 0
1227 -8426 1217 0
-1227 8426 0
-1227 -1217 0
1228 -1200 1208 0
1228 1200 -1208 0
-1228 1200 1208 0
-1228 -1200 -1208 0
1229 1193 -1197 0
1229 -1193 1197 0
-1229 -1193 -1197 0
-1229 1193 1197 0
-1230 -1231 -1245 0
-1230 1231 1245 0
1230 1231 -1245 0
1230 -1231 1245 0
-1231 1232 1234 0
-1231 -1232 -1234 0
1231 -1232 1234 0
1231 1232 -1234 0
1232 -8464 -1233 0
-1232 8464 0
-1232 1233 0
1233 -8396 -8447 0
-1233 8396 0
-1233 8447 0
-1234 -8447 1235 0
-1234 1235 1237 0
-1234 -8447 1237 0
1234 8447 -1237 0
1234 -1235 -1237 0
1234 8447 -1235 0
-1235 1233 1236 0
-1235 8464 8466 0
-1235 8466 1236 0
-1235 8464 1233 0
1235 -8466 -1233 0
1235 -8464 -1236 0
1236 8396 -8447 0
1236 -8396 8447 0
-1236 -8396 -8447 0
-1236 8396 8447 0
-1237 1238 1240 0
1237 -1238 0
1237 -1240 0
-1238 8466 1239 0
-1238 1236 1239 0
1238 -1239 0
1238 -8466 -1236 0
1239 -8468 -1233 0
-1239 8468 0
-1239 1233 0
1240 8447 -1241 0
1240 -8447 1241 0
-1240 -8447 -1241 0
-1240 8447 1241 0
1241 -8464 -1242 0
-1241 8464 0
-1241 1242 0
-1242 8447 1244 0
-1242 -8447 -1243 0
1242 -8447 1243 0
1242 8447 -1244 0
-1243 8393 8403 0
1243 -8393 0
1243 -8403 0
1244 -8393 -8403 0
-1244 8393 0
-1244 8403 0
1245 -1246 -1257 0
1245 1248 -1257 0
-1245 1257 0
-1245 1246 -1248 0
1246 -1247 1237 0
1246 1247 -1237 0
-1246 1247 1237 0
-1246 -1247 -1237 0
-1247 8447 8464 0
-1247 8396 -8464 0
-1247 -8396 -8447 -8466 0
1247 8396 -8447 8464 0
1247 -8396 8447 -8464 0
1247 -8396 -8447 8466 0
1248 1249 -1250 0
-1248 -1249 0
-1248 1250 0
-1249 -1238 -1240 0
-1249 1238 1240 0
1249 1238 -1240 0
1249 -1238 1240 0
-1250 -8393 1251 0
-1250 1251 1255 0
-1250 -8393 1255 0
1250 8393 -1255 0
1250 -1251 -1255 0
1250 8393 -1251 0
-1251 8447 1252 0
-1251 -8447 -1252 0
1251 -8447 1252 0
1251 8447 -1252 0
-1252 8464 1254 0
-1252 1253 1254 0
1252 -1254 0
1252 -8464 -1253 0
1253 -1243 1244 0
-1253 1243 0
-1253 -1244 0
1254 -8466 -1242 0
-1254 8466 0
-1254 1242 0
-1255 8468 1256 0
-1255 1236 1256 0
1255 -1256 0
1255 -8468 -1236 0
1256 -8415 -1233 0
-1256 8415 0
-1256 1233 0
-1257 1258 1259 0
1257 -1258 0
1257 -1259 0
1258 1246 -1248 0
1258 -1246 1248 0
-1258 -1246 -1248 0
-1258 1246 1248 0
1259 1260 -1288 0
1259 1260 -1289 0
-1259 -1260 0
-1259 1288 1289 0
1260 1261 -1262 0
-1260 -1261 0
-1260 1262 0
1261 -1249 1250 0
1261 1249 -1250 0
-1261 1249 1250 0
-1261 -1249 -1250 0
-1262 1263 -1285 0
-1262 1263 1287 0
1262 -1263 0
1262 1285 -1287 0
1263 -1264 -1276 0
-1263 1264 0
-1263 1276 0
-1264 1265 1272 0
-1264 1272 1274 0
-1264 1265 1274 0
1264 -1272 -1274 0
1264 -1265 -1272 0
1264 -1265 -1274 0
1265 8393 -1266 0
1265 -8393 1266 0
-1265 -8393 -1266 0
-1265 8393 1266 0
1266 -8464 -1267 0
-1266 8464 0
-1266 1267 0
-1267 1268 1270 0
1267 -1268 0
1267 -1270 0
1268 -8393 1269 0
-1268 8393 0
-1268 -1269 0
-1269 8470 8471 0
1269 -8470 0
1269 -8471 0
1270 8393 -1271 0
-1270 -8393 0
-1270 1271 0
1271 -8470 -8471 0
-1271 8470 0
-1271 8471 0
-1272 8447 1273 0
-1272 -8447 -1273 0
1272 -8447 1273 0
1272 8447 -1273 0
-1273 8466 8468 0
-1273 1242 1253 0
-1273 8468 1253 0
-1273 8466 1242 0
1273 -8466 -1253 0
1273 -8468 -1242 0
-1274 8415 1275 0
-1274 1236 1275 0
1274 -1275 0
1274 -8415 -1236 0
1275 -8436 -1233 0
-1275 8436 0
-1275 1233 0
-1276 1277 1283 0
1276 -1277 0
1276 -1283 0
-1277 -8470 1278 0
-1277 1278 1281 0
-1277 -8470 1281 0
1277 8470 -1281 0
1277 -1278 -1281 0
1277 8470 -1278 0
-1278 8393 1279 0
-1278 -8393 -1279 0
1278 -8393 1279 0
1278 8393 -1279 0
-1279 8464 8466 0
-1279 1267 1280 0
-1279 8466 1280 0
-1279 8464 1267 0
1279 -8464 -1280 0
1279 -8466 -1267 0
1280 -1269 1271 0
-1280 1269 0
-1280 -1271 0
-1281 8447 1282 0
-1281 -8447 -1282 0
1281 -8447 1282 0
1281 8447 -1282 0
-1282 8415 8468 0
-1282 1242 1253 0
-1282 8468 1242 0
-1282 8415 1253 0
1282 -8415 -1242 0
1282 -8468 -1253 0
1283 -1274 1284 0
1283 1274 -1284 0
-1283 1274 1284 0
-1283 -1274 -1284 0
-1284 1265 1272 0
-1284 -1265 -1272 0
1284 -1265 1272 0
1284 1265 -1272 0
1285 -1255 1286 0
1285 1255 -1286 0
-1285 1255 1286 0
-1285 -1255 -1286 0
-1286 8393 1251 0
-1286 -8393 -1251 0
1286 -8393 1251 0
1286 8393 -1251 0
1287 -1264 1276 0
1287 1264 -1276 0
-1287 1264 1276 0
-1287 -1264 -1276 0
-1288 1261 1262 0
-1288 -1261 -1262 0
1288 -1261 1262 0
1288 1261 -1262 0
1289 -1310 -1311 0
1289 1290 -1311 0
-1289 1311 0
-1289 -1290 1310 0
1290 1291 -1292 0
-1290 -1291 0
-1290 1292 0
-1291 -1277 -1283 0
-1291 1277 1283 0
1291 1277 -1283 0
1291 -1277 1283 0
-1292 1293 1307 0
-1292 1293 1309 0
1292 -1293 0
1292 -1307 -1309 0
1293 -1294 -1296 0
-1293 1294 0
-1293 1296 0
-1294 8436 1295 0
-1294 1236 1295 0
1294 -1295 0
1294 -8436 -1236 0
1295 -8406 -1233 0
-1295 8406 0
-1295 1233 0
-1296 1297 1305 0
-1296 1297 1300 0
-1296 1300 1305 0
1296 -1300 -1305 0
1296 -1297 -1305 0
1296 -1297 -1300 0
-1297 8447 1298 0
-1297 -8447 -1298 0
1297 -8447 1298 0
1297 8447 -1298 0
-1298 8415 1299 0
-1298 1253 1299 0
1298 -1299 0
1298 -8415 -1253 0
1299 -8436 -1242 0
-1299 8436 0
-1299 1242 0
1300 8470 -1301 0
1300 -8470 1301 0
-1300 -8470 -1301 0
-1300 8470 1301 0
1301 -8464 -1302 0
-1301 8464 0
-1301 1302 0
-1302 8470 1304 0
-1302 -8470 -1303 0
1302 -8470 1303 0
1302 8470 -1304 0
-1303 8469 8472 0
1303 -8469 0
1303 -8472 0
1304 -8469 -8472 0
-1304 8469 0
-1304 8472 0
-1305 8393 1306 0
-1305 -8393 -1306 0
1305 -8393 1306 0
1305 8393 -1306 0
-1306 8466 8468 0
-1306 1267 1280 0
-1306 8468 1280 0
-1306 8466 1267 0
1306 -8466 -1280 0
1306 -8468 -1267 0
-1307 8406 1308 0
-1307 1236 1308 0
1307 -1308 0
1307 -8406 -1236 0
1308 -8473 -1233 0
-1308 8473 0
-1308 1233 0
1309 -1294 1296 0
1309 1294 -1296 0
-1309 1294 1296 0
-1309 -1294 -1296 0
1310 1285 -1287 0
1310 -1285 1287 0
-1310 -1285 -1287 0
-1310 1285 1287 0
-1311 1312 1313 0
1311 -1312 0
1311 -1313 0
1312 1290 -1310 0
1312 -1290 1310 0
-1312 -1290 -1310 0
-1312 1290 1310 0
1313 1314 -1355 0
1313 1314 -1356 0
-1313 -1314 0
-1313 1355 1356 0
1314 1315 -1316 0
-1314 -1315 0
-1314 1316 0
1315 -1291 1292 0
1315 1291 -1292 0
-1315 1291 1292 0
-1315 -1291 -1292 0
-1316 1317 1353 0
-1316 1317 -1354 0
1316 -1317 0
1316 -1353 1354 0
1317 1318 -1320 0
-1317 -1318 0
-1317 1320 0
1318 -1281 1319 0
1318 1281 -1319 0
-1318 1281 1319 0
-1318 -1281 -1319 0
-1319 8470 1278 0
-1319 -8470 -1278 0
1319 -8470 1278 0
1319 8470 -1278 0
-1320 1321 1349 0
1320 -1321 0
1320 -1349 0
1321 -1322 -1329 0
-1321 1322 0
-1321 1329 0
-1322 -8469 1323 0
-1322 1323 1327 0
-1322 -8469 1327 0
1322 8469 -1327 0
1322 -1323 -1327 0
1322 8469 -1323 0
-1323 8470 1324 0
-1323 -8470 -1324 0
1323 -8470 1324 0
1323 8470 -1324 0
-1324 8464 1326 0
-1324 1325 1326 0
1324 -1326 0
1324 -8464 -1325 0
1325 -1303 1304 0
-1325 1303 0
-1325 -1304 0
1326 -8466 -1302 0
-1326 8466 0
-1326 1302 0
-1327 8393 1328 0
-1327 -8393 -1328 0
1327 -8393 1328 0
1327 8393 -1328 0
-1328 8415 8468 0
-1328 1267 1280 0
-1328 8468 1267 0
-1328 8415 1280 0
1328 -8415 -1267 0
1328 -8468 -1280 0
-1329 1330 1335 0
-1329 1330 1336 0
1329 -1330 0
1329 -1335 -1336 0
1330 -1331 -1333 0
-1330 1331 0
-1330 1333 0
-1331 8473 1332 0
-1331 1236 1332 0
1331 -1332 0
1331 -8473 -1236 0
1332 -8474 -1233 0
-1332 8474 0
-1332 1233 0
-1333 8447 1334 0
-1333 -8447 -1334 0
1333 -8447 1334 0
1333 8447 -1334 0
-1334 8406 8436 0
-1334 1242 1253 0
-1334 8436 1242 0
-1334 8406 1253 0
1334 -8406 -1242 0
1334 -8436 -1253 0
1335 -1331 1333 0
1335 1331 -1333 0
-1335 1331 1333 0
-1335 -1331 -1333 0
-1336 1341 1344 0
-1336 8469 1337 1344 0
-1336 -8469 -1337 1344 0
1336 -1344 0
1336 8469 -1337 -1341 0
1336 -8469 1337 -1341 0
1337 -8464 -1338 0
-1337 8464 0
-1337 1338 0
-1338 8469 1340 0
-1338 -8469 -1339 0
1338 -8469 1339 0
1338 8469 -1340 0
-1339 8465 8467 0
1339 -8465 0
1339 -8467 0
1340 -8465 -8467 0
-1340 8465 0
-1340 8467 0
-1341 8470 1342 0
-1341 -8470 -1342 0
1341 -8470 1342 0
1341 8470 -1342 0
-1342 8466 1343 0
-1342 1325 1343 0
1342 -1343 0
1342 -8466 -1325 0
1343 -8468 -1302 0
-1343 8468 0
-1343 1302 0
1344 -1345 -1347 0
-1344 1345 0
-1344 1347 0
-1345 8393 1346 0
-1345 -8393 -1346 0
1345 -8393 1346 0
1345 8393 -1346 0
-1346 8415 8436 0
-1346 1267 1280 0
-1346 8436 1280 0
-1346 8415 1267 0
1346 -8415 -1280 0
1346 -8436 -1267 0
-1347 1348 1341 0
-1347 -1348 -1341 0
1347 -1348 1341 0
1347 1348 -1341 0
1348 8469 -1337 0
1348 -8469 1337 0
-1348 -8469 -1337 0
-1348 8469 1337 0
1349 -1350 -1352 0
-1349 1350 0
-1349 1352 0
1350 -1297 1351 0
1350 1297 -1351 0
-1350 1297 1351 0
-1350 -1297 -1351 0
-1351 1300 1305 0
-1351 -1300 -1305 0
1351 -1300 1305 0
1351 1300 -1305 0
1352 -1322 1329 0
1352 1322 -1329 0
-1352 1322 1329 0
-1352 -1322 -1329 0
-1353 -1307 -1309 0
-1353 1307 1309 0
1353 1307 -1309 0
1353 -1307 1309 0
-1354 1318 1320 0
-1354 -1318 -1320 0
1354 -1318 1320 0
1354 1318 -1320 0
-1355 1315 1316 0
-1355 -1315 -1316 0
1355 -1315 1316 0
1355 1315 -1316 0
1356 1357 -1381 0
1356 1357 -1382 0
-1356 -1357 0
-1356 1381 1382 0
1357 -1358 1380 0
-1357 1358 0
-1357 -1380 0
-1358 1359 1379 0
-1358 -1307 1379 0
-1358 -1307 1359 0
1358 1307 -1379 0
1358 1307 -1359 0
1358 -1359 -1379 0
-1359 1360 1375 0
-1359 1365 1375 0
1359 -1375 0
1359 -1360 -1365 0
-1360 1361 1363 0
1360 -1361 0
1360 -1363 0
-1361 8474 1362 0
-1361 1236 1362 0
1361 -1362 0
1361 -8474 -1236 0
1362 -8475 -1233 0
-1362 8475 0
-1362 1233 0
-1363 8447 1364 0
-1363 -8447 -1364 0
1363 -8447 1364 0
1363 8447 -1364 0
-1364 8406 8473 0
-1364 1242 1253 0
-1364 8473 1253 0
-1364 8406 1242 0
1364 -8406 -1253 0
1364 -8473 -1242 0
1365 -1366 -1374 0
-1365 1366 0
-1365 1374 0
-1366 -8465 1367 0
-1366 1367 1371 0
-1366 -8465 1371 0
1366 8465 -1371 0
1366 -1367 -1371 0
1366 8465 -1367 0
-1367 8469 1368 0
-1367 -8469 -1368 0
1367 -8469 1368 0
1367 8469 -1368 0
-1368 8464 1370 0
-1368 1369 1370 0
1368 -1370 0
1368 -8464 -1369 0
1369 -1339 1340 0
-1369 1339 0
-1369 -1340 0
1370 -8466 -1338 0
-1370 8466 0
-1370 1338 0
-1371 8470 1372 0
-1371 -8470 -1372 0
1371 -8470 1372 0
1371 8470 -1372 0
-1372 8468 1373 0
-1372 1325 1373 0
1372 -1373 0
1372 -8468 -1325 0
1373 -8415 -1302 0
-1373 8415 0
-1373 1302 0
1374 -1345 1347 0
1374 1345 -1347 0
-1374 1345 1347 0
-1374 -1345 -1347 0
1375 1376 -1378 0
-1375 -1376 0
-1375 1378 0
1376 -1327 1377 0
1376 1327 -1377 0
-1376 1327 1377 0
-1376 -1327 -1377 0
-1377 8469 1323 0
-1377 -8469 -1323 0
1377 -8469 1323 0
1377 8469 -1323 0
-1378 -1360 -1365 0
-1378 1360 1365 0
1378 1360 -1365 0
1378 -1360 1365 0
1379 1350 -1352 0
1379 -1350 1352 0
-1379 -1350 -1352 0
-1379 1350 1352 0
1380 -1353 1354 0
1380 1353 -1354 0
-1380 1353 1354 0
-1380 -1353 -1354 0
-1381 -1358 -1380 0
-1381 1358 1380 0
1381 1358 -1380 0
1381 -1358 1380 0
1382 1383 -1431 0
1382 1383 -1432 0
-1382 -1383 0
-1382 1431 1432 0
1383 1384 -1386 0
-1383 -1384 0
-1383 1386 0
1384 1379 -1385 0
1384 -1379 1385 0
-1384 -1379 -1385 0
-1384 1379 1385 0
1385 -1307 1359 0
1385 1307 -1359 0
-1385 1307 1359 0
-1385 -1307 -1359 0
-1386 1387 1428 0
1386 -1387 0
1386 -1428 0
1387 -1388 -1389 0
-1387 1388 0
-1387 1389 0
-1388 1335 1336 0
-1388 -1335 -1336 0
1388 -1335 1336 0
1388 1335 -1336 0
-1389 1390 -1426 0
-1389 1390 1427 0
1389 -1390 0
1389 1426 -1427 0
1390 -1391 -1400 0
-1390 1391 0
-1390 1400 0
-1391 1392 1397 0
-1391 1392 1399 0
1391 -1392 0
1391 -1397 -1399 0
1392 -1393 -1395 0
-1392 1393 0
-1392 1395 0
-1393 8393 1394 0
-1393 -8393 -1394 0
1393 -8393 1394 0
1393 8393 -1394 0
-1394 8406 8436 0
-1394 1267 1280 0
-1394 8436 1267 0
-1394 8406 1280 0
1394 -8406 -1267 0
1394 -8436 -1280 0
-1395 8447 1396 0
-1395 -8447 -1396 0
1395 -8447 1396 0
1395 8447 -1396 0
-1396 8473 8474 0
-1396 1242 1253 0
-1396 8474 1253 0
-1396 8473 1242 0
1396 -8473 -1253 0
1396 -8474 -1242 0
-1397 8475 1398 0
-1397 1236 1398 0
1397 -1398 0
1397 -8475 -1236 0
1398 -8476 -1233 0
-1398 8476 0
-1398 1233 0
1399 -1393 1395 0
1399 1393 -1395 0
-1399 1393 1395 0
-1399 -1393 -1395 0
-1400 1401 -1423 0
-1400 1401 1425 0
1400 -1401 0
1400 1423 -1425 0
1401 -1402 -1414 0
-1401 1402 0
-1401 1414 0
-1402 1403 1412 0
-1402 1403 1406 0
-1402 1406 1412 0
1402 -1406 -1412 0
1402 -1403 -1412 0
1402 -1403 -1406 0
-1403 8470 1404 0
-1403 -8470 -1404 0
1403 -8470 1404 0
1403 8470 -1404 0
-1404 8415 1405 0
-1404 1325 1405 0
1404 -1405 0
1404 -8415 -1325 0
1405 -8436 -1302 0
-1405 8436 0
-1405 1302 0
1406 8465 -1407 0
1406 -8465 1407 0
-1406 -8465 -1407 0
-1406 8465 1407 0
1407 -8464 -1408 0
-1407 8464 0
-1407 1408 0
-1408 8465 1410 0
-1408 -1409 1410 0
1408 -1410 0
1408 -8465 1409 0
-1409 8386 8477 0
1409 -8386 0
1409 -8477 0
1410 8465 -1411 0
-1410 -8465 0
-1410 1411 0
1411 -8386 -8477 0
-1411 8386 0
-1411 8477 0
-1412 8469 1413 0
-1412 -8469 -1413 0
1412 -8469 1413 0
1412 8469 -1413 0
-1413 8466 8468 0
-1413 1338 1369 0
-1413 8468 1369 0
-1413 8466 1338 0
1413 -8466 -1369 0
1413 -8468 -1338 0
-1414 1415 1420 0
-1414 1415 1422 0
1414 -1415 0
1414 -1420 -1422 0
1415 -1416 -1418 0
-1415 1416 0
-1415 1418 0
-1416 8393 1417 0
-1416 -8393 -1417 0
1416 -8393 1417 0
1416 8393 -1417 0
-1417 8406 8473 0
-1417 1267 1280 0
-1417 8473 1280 0
-1417 8406 1267 0
1417 -8406 -1280 0
1417 -8473 -1267 0
-1418 8447 1419 0
-1418 -8447 -1419 0
1418 -8447 1419 0
1418 8447 -1419 0
-1419 8474 8475 0
-1419 1242 1253 0
-1419 8475 1253 0
-1419 8474 1242 0
1419 -8474 -1253 0
1419 -8475 -1242 0
-1420 8476 1421 0
-1420 1236 1421 0
1420 -1421 0
1420 -8476 -1236 0
1421 -8385 -1233 0
-1421 8385 0
-1421 1233 0
1422 -1416 1418 0
1422 1416 -1418 0
-1422 1416 1418 0
-1422 -1416 -1418 0
1423 -1371 1424 0
1423 1371 -1424 0
-1423 1371 1424 0
-1423 -1371 -1424 0
-1424 8465 1367 0
-1424 -8465 -1367 0
1424 -8465 1367 0
1424 8465 -1367 0
1425 -1402 1414 0
1425 1402 -1414 0
-1425 1402 1414 0
-1425 -1402 -1414 0
1426 -1361 1363 0
1426 1361 -1363 0
-1426 1361 1363 0
-1426 -1361 -1363 0
1427 -1391 1400 0
1427 1391 -1400 0
-1427 1391 1400 0
-1427 -1391 -1400 0
1428 1429 -1430 0
-1428 -1429 0
-1428 1430 0
-1429 1376 1378 0
-1429 -1376 -1378 0
1429 -1376 1378 0
1429 1376 -1378 0
1430 -1388 1389 0
1430 1388 -1389 0
-1430 1388 1389 0
-1430 -1388 -1389 0
-1431 1384 1386 0
-1431 -1384 -1386 0
1431 -1384 1386 0
1431 1384 -1386 0
1432 1433 -1464 0
1432 -1463 -1464 0
-1432 1464 0
-1432 -1433 1463 0
-1433 1434 1461 0
-1433 1434 -1462 0
1433 -1434 0
1433 -1461 1462 0
1434 -1435 -1436 0
-1434 1435 0
-1434 1436 0
-1435 -1366 -1374 0
-1435 1366 1374 0
1435 1366 -1374 0
1435 -1366 1374 0
-1436 1437 1458 0
-1436 1454 1458 0
1436 -1458 0
1436 -1437 -1454 0
-1437 1438 1445 0
1437 -1438 0
1437 -1445 0
-1438 -8477 1439 0
-1438 1439 1442 0
-1438 -8477 1442 0
1438 8477 -1442 0
1438 -1439 -1442 0
1438 8477 -1439 0
-1439 8465 1440 0
-1439 -8465 -1440 0
1439 -8465 1440 0
1439 8465 -1440 0
-1440 8464 8466 0
-1440 1408 1441 0
-1440 8466 1441 0
-1440 8464 1408 0
1440 -8464 -1441 0
1440 -8466 -1408 0
1441 -1409 1411 0
-1441 1409 0
-1441 -1411 0
-1442 8469 1443 0
-1442 -8469 -1443 0
1442 -8469 1443 0
1442 8469 -1443 0
-1443 8468 1444 0
-1443 1369 1444 0
1443 -1444 0
1443 -8468 -1369 0
1444 -8415 -1338 0
-1444 8415 0
-1444 1338 0
-1445 1446 1451 0
-1445 1446 1453 0
1445 -1446 0
1445 -1451 -1453 0
1446 -1447 -1449 0
-1446 1447 0
-1446 1449 0
-1447 8470 1448 0
-1447 -8470 -1448 0
1447 -8470 1448 0
1447 8470 -1448 0
-1448 8406 8436 0
-1448 1302 1325 0
-1448 8436 1302 0
-1448 8406 1325 0
1448 -8406 -1302 0
1448 -8436 -1325 0
-1449 8393 1450 0
-1449 -8393 -1450 0
1449 -8393 1450 0
1449 8393 -1450 0
-1450 8473 8474 0
-1450 1267 1280 0
-1450 8474 1280 0
-1450 8473 1267 0
1450 -8473 -1280 0
1450 -8474 -1267 0
-1451 8447 1452 0
-1451 -8447 -1452 0
1451 -8447 1452 0
1451 8447 -1452 0
-1452 8475 8476 0
-1452 1242 1253 0
-1452 8476 1253 0
-1452 8475 1242 0
1452 -8475 -1253 0
1452 -8476 -1242 0
1453 -1447 1449 0
1453 1447 -1449 0
-1453 1447 1449 0
-1453 -1447 -1449 0
1454 -1455 -1457 0
-1454 1455 0
-1454 1457 0
1455 -1403 1456 0
1455 1403 -1456 0
-1455 1403 1456 0
-1455 -1403 -1456 0
-1456 1406 1412 0
-1456 -1406 -1412 0
1456 -1406 1412 0
1456 1406 -1412 0
-1457 -1420 -1422 0
-1457 1420 1422 0
1457 1420 -1422 0
1457 -1420 1422 0
1458 -1459 -1460 0
-1458 1459 0
-1458 1460 0
-1459 -1397 -1399 0
-1459 1397 1399 0
1459 1397 -1399 0
1459 -1397 1399 0
-1460 -1437 -1454 0
-1460 1437 1454 0
1460 1437 -1454 0
1460 -1437 1454 0
1461 -1435 1436 0
1461 1435 -1436 0
-1461 1435 1436 0
-1461 -1435 -1436 0
1462 1426 -1427 0
1462 -1426 1427 0
-1462 -1426 -1427 0
-1462 1426 1427 0
-1463 -1429 -1430 0
-1463 1429 1430 0
1463 1429 -1430 0
1463 -1429 1430 0
-1464 1465 1466 0
1464 -1465 0
1464 -1466 0
1465 -1433 1463 0
1465 1433 -1463 0
-1465 1433 1463 0
-1465 -1433 -1463 0
1466 1467 -1509 0
1466 1467 -1510 0
-1466 -1467 0
-1466 1509 1510 0
1467 1468 -1469 0
-1467 -1468 0
-1467 1469 0
1468 1461 -1462 0
1468 -1461 1462 0
-1468 -1461 -1462 0
-1468 1461 1462 0
-1469 1470 1506 0
1469 -1470 0
1469 -1506 0
1470 1471 -1472 0
-1470 -1471 0
-1470 1472 0
1471 1423 -1425 0
1471 -1423 1425 0
-1471 -1423 -1425 0
-1471 1423 1425 0
-1472 1473 -1504 0
-1472 1473 1505 0
1472 -1473 0
1472 1504 -1505 0
1473 -1474 -1498 0
-1473 1474 0
-1473 1498 0
-1474 1475 1488 0
-1474 1475 1497 0
1474 -1475 0
1474 -1488 -1497 0
1475 -1476 -1478 0
-1475 1476 0
-1475 1478 0
-1476 8385 1477 0
-1476 1236 1477 0
1476 -1477 0
1476 -8385 -1236 0
1477 -8384 -1233 0
-1477 8384 0
-1477 1233 0
-1478 1479 1484 0
-1478 1484 1486 0
-1478 1479 1486 0
1478 -1484 -1486 0
1478 -1479 -1484 0
1478 -1479 -1486 0
1479 8477 -1480 0
1479 -8477 1480 0
-1479 -8477 -1480 0
-1479 8477 1480 0
1480 -8464 -1481 0
-1480 8464 0
-1480 1481 0
-1481 8477 1483 0
-1481 -8477 -1482 0
1481 -8477 1482 0
1481 8477 -1483 0
-1482 8382 8383 0
1482 -8382 0
1482 -8383 0
1483 -8382 -8383 0
-1483 8382 0
-1483 8383 0
-1484 8465 1485 0
-1484 -8465 -1485 0
1484 -8465 1485 0
1484 8465 -1485 0
-1485 8466 8468 0
-1485 1408 1441 0
-1485 8468 1441 0
-1485 8466 1408 0
1485 -8466 -1441 0
1485 -8468 -1408 0
-1486 8469 1487 0
-1486 -8469 -1487 0
1486 -8469 1487 0
1486 8469 -1487 0
-1487 8415 8436 0
-1487 1338 1369 0
-1487 8436 1369 0
-1487 8415 1338 0
1487 -8415 -1369 0
1487 -8436 -1338 0
-1488 1489 1494 0
-1488 1489 1496 0
1488 -1489 0
1488 -1494 -1496 0
1489 -1490 -1492 0
-1489 1490 0
-1489 1492 0
-1490 8470 1491 0
-1490 -8470 -1491 0
1490 -8470 1491 0
1490 8470 -1491 0
-1491 8406 8473 0
-1491 1302 1325 0
-1491 8473 1325 0
-1491 8406 1302 0
1491 -8406 -1325 0
1491 -8473 -1302 0
-1492 8393 1493 0
-1492 -8393 -1493 0
1492 -8393 1493 0
1492 8393 -1493 0
-1493 8474 8475 0
-1493 1267 1280 0
-1493 8475 1280 0
-1493 8474 1267 0
1493 -8474 -1280 0
1493 -8475 -1267 0
-1494 8447 1495 0
-1494 -8447 -1495 0
1494 -8447 1495 0
1494 8447 -1495 0
-1495 8385 8476 0
-1495 1242 1253 0
-1495 8476 1242 0
-1495 8385 1253 0
1495 -8385 -1242 0
1495 -8476 -1253 0
1496 -1490 1492 0
1496 1490 -1492 0
-1496 1490 1492 0
-1496 -1490 -1492 0
1497 -1476 1478 0
1497 1476 -1478 0
-1497 1476 1478 0
-1497 -1476 -1478 0
-1498 1499 -1501 0
-1498 -1501 1503 0
-1498 1499 1503 0
1498 -1499 -1503 0
1498 1501 -1503 0
1498 -1499 1501 0
-1499 8384 1500 0
-1499 1236 1500 0
1499 -1500 0
1499 -8384 -1236 0
1500 -8381 -1233 0
-1500 8381 0
-1500 1233 0
1501 -1442 1502 0
1501 1442 -1502 0
-1501 1442 1502 0
-1501 -1442 -1502 0
-1502 8477 1439 0
-1502 -8477 -1439 0
1502 -8477 1439 0
1502 8477 -1439 0
-1503 -1451 -1453 0
-1503 1451 1453 0
1503 1451 -1453 0
1503 -1451 1453 0
1504 -1438 1445 0
1504 1438 -1445 0
-1504 1438 1445 0
-1504 -1438 -1445 0
1505 -1474 1498 0
1505 1474 -1498 0
-1505 1474 1498 0
-1505 -1474 -1498 0
1506 -1507 1508 0
-1506 1507 0
-1506 -1508 0
1507 -1459 1460 0
1507 1459 -1460 0
-1507 1459 1460 0
-1507 -1459 -1460 0
-1508 1471 1472 0
-1508 -1471 -1472 0
1508 -1471 1472 0
1508 1471 -1472 0
-1509 1468 1469 0
-1509 -1468 -1469 0
1509 -1468 1469 0
1509 1468 -1469 0
1510 1511 -1560 0
1510 -1559 -1560 0
-1510 1560 0
-1510 -1511 1559 0
-1511 1512 -1557 0
-1511 1512 1558 0
1511 -1512 0
1511 1557 -1558 0
1512 -1513 -1514 0
-1512 1513 0
-1512 1514 0
-1513 1455 1457 0
-1513 -1455 -1457 0
1513 -1455 1457 0
1513 1455 -1457 0
-1514 1515 1555 0
-1514 1515 1556 0
1514 -1515 0
1514 -1555 -1556 0
1515 -1516 -1551 0
-1515 1516 0
-1515 1551 0
-1516 1517 1533 0
-1516 1517 1534 0
1516 -1517 0
1516 -1533 -1534 0
1517 -1518 -1524 0
-1517 1518 0
-1517 1524 0
-1518 -8383 1519 0
-1518 1519 1522 0
-1518 -8383 1522 0
1518 8383 -1522 0
1518 -1519 -1522 0
1518 8383 -1519 0
-1519 8477 1520 0
-1519 -8477 -1520 0
1519 -8477 1520 0
1519 8477 -1520 0
-1520 8464 8466 0
-1520 1481 1521 0
-1520 8466 1521 0
-1520 8464 1481 0
1520 -8464 -1521 0
1520 -8466 -1481 0
1521 -1482 1483 0
-1521 1482 0
-1521 -1483 0
-1522 8465 1523 0
-1522 -8465 -1523 0
1522 -8465 1523 0
1522 8465 -1523 0
-1523 8415 8468 0
-1523 1408 1441 0
-1523 8468 1408 0
-1523 8415 1441 0
1523 -8415 -1408 0
1523 -8468 -1441 0
-1524 1525 1530 0
-1524 1525 1532 0
1524 -1525 0
1524 -1530 -1532 0
1525 -1526 -1528 0
-1525 1526 0
-1525 1528 0
-1526 8469 1527 0
-1526 -8469 -1527 0
1526 -8469 1527 0
1526 8469 -1527 0
-1527 8406 8436 0
-1527 1338 1369 0
-1527 8436 1338 0
-1527 8406 1369 0
1527 -8406 -1338 0
1527 -8436 -1369 0
-1528 8470 1529 0
-1528 -8470 -1529 0
1528 -8470 1529 0
1528 8470 -1529 0
-1529 8473 8474 0
-1529 1302 1325 0
-1529 8474 1325 0
-1529 8473 1302 0
1529 -8473 -1325 0
1529 -8474 -1302 0
-1530 8393 1531 0
-1530 -8393 -1531 0
1530 -8393 1531 0
1530 8393 -1531 0
-1531 8475 8476 0
-1531 1267 1280 0
-1531 8476 1280 0
-1531 8475 1267 0
1531 -8475 -1280 0
1531 -8476 -1267 0
1532 -1526 1528 0
1532 1526 -1528 0
-1532 1526 1528 0
-1532 -1526 -1528 0
1533 -1518 1524 0
1533 1518 -1524 0
-1533 1518 1524 0
-1533 -1518 -1524 0
-1534 1535 1540 0
-1534 1535 1541 0
1534 -1535 0
1534 -1540 -1541 0
1535 -1536 -1538 0
-1535 1536 0
-1535 1538 0
-1536 8381 1537 0
-1536 1236 1537 0
1536 -1537 0
1536 -8381 -1236 0
1537 -8380 -1233 0
-1537 8380 0
-1537 1233 0
-1538 8447 1539 0
-1538 -8447 -1539 0
1538 -8447 1539 0
1538 8447 -1539 0
-1539 8384 8385 0
-1539 1242 1253 0
-1539 8385 1242 0
-1539 8384 1253 0
1539 -8384 -1242 0
1539 -8385 -1253 0
1540 -1536 1538 0
1540 1536 -1538 0
-1540 1536 1538 0
-1540 -1536 -1538 0
-1541 1542 1547 0
-1541 1547 1549 0
-1541 1542 1549 0
1541 -1547 -1549 0
1541 -1542 -1547 0
1541 -1542 -1549 0
1542 8383 -1543 0
1542 -8383 1543 0
-1542 -8383 -1543 0
-1542 8383 1543 0
1543 -8464 -1544 0
-1543 8464 0
-1543 1544 0
-1544 8383 1546 0
-1544 -8383 -1545 0
1544 -8383 1545 0
1544 8383 -1546 0
-1545 8378 8379 0
1545 -8378 0
1545 -8379 0
1546 -8378 -8379 0
-1546 8378 0
-1546 8379 0
-1547 8477 1548 0
-1547 -8477 -1548 0
1547 -8477 1548 0
1547 8477 -1548 0
-1548 8466 8468 0
-1548 1481 1521 0
-1548 8468 1521 0
-1548 8466 1481 0
1548 -8466 -1521 0
1548 -8468 -1481 0
-1549 8465 1550 0
-1549 -8465 -1550 0
1549 -8465 1550 0
1549 8465 -1550 0
-1550 8415 8436 0
-1550 1408 1441 0
-1550 8436 1441 0
-1550 8415 1408 0
1550 -8415 -1441 0
1550 -8436 -1408 0
-1551 1552 1554 0
-1551 -1499 1552 0
-1551 -1499 1554 0
1551 1499 -1552 0
1551 -1552 -1554 0
1551 1499 -1554 0
1552 -1486 1553 0
1552 1486 -1553 0
-1552 1486 1553 0
-1552 -1486 -1553 0
-1553 1479 1484 0
-1553 -1479 -1484 0
1553 -1479 1484 0
1553 1479 -1484 0
-1554 -1494 -1496 0
-1554 1494 1496 0
1554 1494 -1496 0
1554 -1494 1496 0
-1555 -1488 -1497 0
-1555 1488 1497 0
1555 1488 -1497 0
1555 -1488 1497 0
1556 -1516 1551 0
1556 1516 -1551 0
-1556 1516 1551 0
-1556 -1516 -1551 0
1557 1504 -1505 0
1557 -1504 1505 0
-1557 -1504 -1505 0
-1557 1504 1505 0
1558 -1513 1514 0
1558 1513 -1514 0
-1558 1513 1514 0
-1558 -1513 -1514 0
-1559 1507 1508 0
-1559 -1507 -1508 0
1559 -1507 1508 0
1559 1507 -1508 0
-1560 1561 1562 0
1560 -1561 0
1560 -1562 0
1561 -1511 1559 0
1561 1511 -1559 0
-1561 1511 1559 0
-1561 -1511 -1559 0
1562 1563 -1609 0
1562 1563 -1610 0
-1562 -1563 0
-1562 1609 1610 0
1563 -1564 1608 0
-1563 1564 0
-1563 -1608 0
-1564 1565 1606 0
-1564 1565 -1607 0
1564 -1565 0
1564 -1606 1607 0
1565 1566 -1568 0
-1565 -1566 0
-1565 1568 0
1566 -1503 1567 0
1566 1503 -1567 0
-1566 1503 1567 0
-1566 -1503 -1567 0
-1567 -1499 -1501 0
-1567 1499 1501 0
1567 1499 -1501 0
1567 -1499 1501 0
-1568 1569 1604 0
-1568 1569 1605 0
1568 -1569 0
1568 -1604 -1605 0
1569 -1570 -1597 0
-1569 1570 0
-1569 1597 0
-1570 1571 1586 0
1570 -1571 0
1570 -1586 0
1571 -1572 -1577 0
-1571 1572 0
-1571 1577 0
-1572 1573 1575 0
1572 -1573 0
1572 -1575 0
-1573 8380 1574 0
-1573 1236 1574 0
1573 -1574 0
1573 -8380 -1236 0
1574 -8377 -1233 0
-1574 8377 0
-1574 1233 0
-1575 8447 1576 0
-1575 -8447 -1576 0
1575 -8447 1576 0
1575 8447 -1576 0
-1576 8381 8384 0
-1576 1242 1253 0
-1576 8384 1242 0
-1576 8381 1253 0
1576 -8381 -1242 0
1576 -8384 -1253 0
-1577 1578 1583 0
-1577 1578 1585 0
1577 -1578 0
1577 -1583 -1585 0
1578 -1579 -1581 0
-1578 1579 0
-1578 1581 0
-1579 8469 1580 0
-1579 -8469 -1580 0
1579 -8469 1580 0
1579 8469 -1580 0
-1580 8406 8473 0
-1580 1338 1369 0
-1580 8473 1369 0
-1580 8406 1338 0
1580 -8406 -1369 0
1580 -8473 -1338 0
-1581 8470 1582 0
-1581 -8470 -1582 0
1581 -8470 1582 0
1581 8470 -1582 0
-1582 8474 8475 0
-1582 1302 1325 0
-1582 8475 1325 0
-1582 8474 1302 0
1582 -8474 -1325 0
1582 -8475 -1302 0
-1583 8393 1584 0
-1583 -8393 -1584 0
1583 -8393 1584 0
1583 8393 -1584 0
-1584 8385 8476 0
-1584 1267 1280 0
-1584 8476 1267 0
-1584 8385 1280 0
1584 -8385 -1267 0
1584 -8476 -1280 0
1585 -1579 1581 0
1585 1579 -1581 0
-1585 1579 1581 0
-1585 -1579 -1581 0
1586 -1587 -1596 0
-1586 1587 0
-1586 1596 0
1587 1588 -1594 0
-1587 -1588 0
-1587 1594 0
1588 -1589 -1590 0
1588 -1589 1591 0
-1588 1589 0
-1588 1590 -1591 0
-1589 8376 8379 0
1589 -8376 0
1589 -8379 0
1590 -8376 -8379 0
-1590 8376 0
-1590 8379 0
-1591 8383 1592 0
-1591 -8383 -1592 0
1591 -8383 1592 0
1591 8383 -1592 0
-1592 8464 8466 0
-1592 1544 1593 0
-1592 8466 1593 0
-1592 8464 1544 0
1592 -8464 -1593 0
1592 -8466 -1544 0
1593 -1545 1546 0
-1593 1545 0
-1593 -1546 0
1594 -1549 1595 0
1594 1549 -1595 0
-1594 1549 1595 0
-1594 -1549 -1595 0
-1595 1542 1547 0
-1595 -1542 -1547 0
1595 -1542 1547 0
1595 1542 -1547 0
1596 -1572 1577 0
1596 1572 -1577 0
-1596 1572 1577 0
-1596 -1572 -1577 0
-1597 1598 1602 0
-1597 1598 -1603 0
1597 -1598 0
1597 -1602 1603 0
1598 1599 -1601 0
-1598 -1599 0
-1598 1601 0
1599 -1522 1600 0
1599 1522 -1600 0
-1599 1522 1600 0
-1599 -1522 -1600 0
-1600 8383 1519 0
-1600 -8383 -1519 0
1600 -8383 1519 0
1600 8383 -1519 0
-1601 -1530 -1532 0
-1601 1530 1532 0
1601 1530 -1532 0
1601 -1530 1532 0
-1602 1540 1541 0
-1602 -1540 -1541 0
1602 -1540 1541 0
1602 1540 -1541 0
-1603 1599 1601 0
-1603 -1599 -1601 0
1603 -1599 1601 0
1603 1599 -1601 0
-1604 1533 1534 0
-1604 -1533 -1534 0
1604 -1533 1534 0
1604 1533 -1534 0
1605 -1570 1597 0
1605 1570 -1597 0
-1605 1570 1597 0
-1605 -1570 -1597 0
-1606 -1555 -1556 0
-1606 1555 1556 0
1606 1555 -1556 0
1606 -1555 1556 0
-1607 1566 1568 0
-1607 -1566 -1568 0
1607 -1566 1568 0
1607 1566 -1568 0
1608 1557 -1558 0
1608 -1557 1558 0
-1608 -1557 -1558 0
-1608 1557 1558 0
-1609 -1564 -1608 0
-1609 1564 1608 0
1609 1564 -1608 0
1609 -1564 1608 0
1610 1611 -1668 0
1610 1611 -1669 0
-1610 -1611 0
-1610 1668 1669 0
1611 1612 -1613 0
-1611 -1612 0
-1611 1613 0
1612 -1606 1607 0
1612 1606 -1607 0
-1612 1606 1607 0
-1612 -1606 -1607 0
-1613 1614 1666 0
-1613 1614 -1667 0
1613 -1614 0
1613 -1666 1667 0
1614 1615 -1617 0
-1614 -1615 0
-1614 1617 0
1615 -1499 1616 0
1615 1499 -1616 0
-1615 1499 1616 0
-1615 -1499 -1616 0
-1616 1552 1554 0
-1616 -1552 -1554 0
1616 -1552 1554 0
1616 1552 -1554 0
-1617 1618 1663 0
1617 -1618 0
1617 -1663 0
1618 1619 -1625 0
-1618 -1619 0
-1618 1625 0
1619 1620 -1623 0
1619 1620 -1624 0
-1619 -1620 0
-1619 1623 1624 0
1620 1621 -1622 0
-1620 -1621 0
-1620 1622 0
1621 -1573 1575 0
1621 1573 -1575 0
-1621 1573 1575 0
-1621 -1573 -1575 0
-1622 -1583 -1585 0
-1622 1583 1585 0
1622 1583 -1585 0
1622 -1583 1585 0
1623 1588 -1594 0
1623 -1588 1594 0
-1623 -1588 -1594 0
-1623 1588 1594 0
-1624 1621 1622 0
-1624 -1621 -1622 0
1624 -1621 1622 0
1624 1621 -1622 0
-1625 1626 1647 0
-1625 1626 1648 0
1625 -1626 0
1625 -1647 -1648 0
1626 -1627 -1637 0
-1626 1627 0
-1626 1637 0
-1627 1628 1633 0
-1627 1628 1636 0
1627 -1628 0
1627 -1633 -1636 0
1628 -1629 -1631 0
-1628 1629 0
-1628 1631 0
-1629 8477 1630 0
-1629 -8477 -1630 0
1629 -8477 1630 0
1629 8477 -1630 0
-1630 8415 8468 0
-1630 1481 1521 0
-1630 8468 1481 0
-1630 8415 1521 0
1630 -8415 -1481 0
1630 -8468 -1521 0
-1631 8465 1632 0
-1631 -8465 -1632 0
1631 -8465 1632 0
1631 8465 -1632 0
-1632 8406 8436 0
-1632 1408 1441 0
-1632 8436 1408 0
-1632 8406 1441 0
1632 -8406 -1408 0
1632 -8436 -1441 0
-1633 8469 1634 0
-1633 -8469 -1634 0
1633 -8469 1634 0
1633 8469 -1634 0
-1634 8473 1635 0
-1634 1369 1635 0
1634 -1635 0
1634 -8473 -1369 0
1635 -8474 -1338 0
-1635 8474 0
-1635 1338 0
1636 -1629 1631 0
1636 1629 -1631 0
-1636 1629 1631 0
-1636 -1629 -1631 0
-1637 1638 1643 0
1637 -1638 0
1637 -1643 0
1638 -1639 -1641 0
-1638 1639 0
-1638 1641 0
-1639 8470 1640 0
-1639 -8470 -1640 0
1639 -8470 1640 0
1639 8470 -1640 0
-1640 8475 8476 0
-1640 1302 1325 0
-1640 8476 1325 0
-1640 8475 1302 0
1640 -8475 -1325 0
1640 -8476 -1302 0
-1641 8393 1642 0
-1641 -8393 -1642 0
1641 -8393 1642 0
1641 8393 -1642 0
-1642 8384 8385 0
-1642 1267 1280 0
-1642 8385 1267 0
-1642 8384 1280 0
1642 -8384 -1267 0
1642 -8385 -1280 0
1643 -1644 -1646 0
-1643 1644 0
-1643 1646 0
-1644 8447 1645 0
-1644 -8447 -1645 0
1644 -8447 1645 0
1644 8447 -1645 0
-1645 8380 8381 0
-1645 1242 1253 0
-1645 8381 1242 0
-1645 8380 1253 0
1645 -8380 -1242 0
1645 -8381 -1253 0
1646 -1639 1641 0
1646 1639 -1641 0
-1646 1639 1641 0
-1646 -1639 -1641 0
1647 -1627 1637 0
1647 1627 -1637 0
-1647 1627 1637 0
-1647 -1627 -1637 0
-1648 1649 1660 0
-1648 1649 1662 0
1648 -1649 0
1648 -1660 -1662 0
1649 -1650 -1652 0
-1649 1650 0
-1649 1652 0
-1650 8377 1651 0
-1650 1236 1651 0
1650 -1651 0
1650 -8377 -1236 0
1651 -8375 -1233 0
-1651 8375 0
-1651 1233 0
-1652 1653 1658 0
-1652 8376 1653 0
-1652 8376 1658 0
1652 -8376 -1653 0
1652 -1653 -1658 0
1652 -8376 -1658 0
1653 8379 -1654 0
1653 -8379 1654 0
-1653 -8379 -1654 0
-1653 8379 1654 0
1654 -8464 -1655 0
-1654 8464 0
-1654 1655 0
-1655 8379 1657 0
-1655 -8379 -1656 0
1655 -8379 1656 0
1655 8379 -1657 0
-1656 8374 8376 0
1656 -8374 0
1656 -8376 0
1657 -8374 -8376 0
-1657 8374 0
-1657 8376 0
-1658 8383 1659 0
-1658 -8383 -1659 0
1658 -8383 1659 0
1658 8383 -1659 0
-1659 8466 8468 0
-1659 1544 1593 0
-1659 8468 1593 0
-1659 8466 1544 0
1659 -8466 -1593 0
1659 -8468 -1544 0
-1660 1661 1591 0
-1660 -1661 -1591 0
1660 -1661 1591 0
1660 1661 -1591 0
1661 -1589 1590 0
-1661 1589 0
-1661 -1590 0
1662 -1650 1652 0
1662 1650 -1652 0
-1662 1650 1652 0
-1662 -1650 -1652 0
1663 -1664 1665 0
-1663 1664 0
-1663 -1665 0
1664 1587 -1596 0
1664 -1587 1596 0
-1664 -1587 -1596 0
-1664 1587 1596 0
-1665 1619 1625 0
-1665 -1619 -1625 0
1665 -1619 1625 0
1665 1619 -1625 0
-1666 -1604 -1605 0
-1666 1604 1605 0
1666 1604 -1605 0
1666 -1604 1605 0
-1667 1615 1617 0
-1667 -1615 -1617 0
1667 -1615 1617 0
1667 1615 -1617 0
-1668 1612 1613 0
-1668 -1612 -1613 0
1668 -1612 1613 0
1668 1612 -1613 0
1669 -1670 1727 0
1669 -1670 1728 0
-1669 1670 0
-1669 -1727 -1728 0
-1670 1671 1672 0
1670 -1671 0
1670 -1672 0
1671 -1666 1667 0
1671 1666 -1667 0
-1671 1666 1667 0
-1671 -1666 -1667 0
1672 1673 -1724 0
-1672 -1673 0
-1672 1724 0
1673 1674 -1675 0
-1673 -1674 0
-1673 1675 0
1674 -1602 1603 0
1674 1602 -1603 0
-1674 1602 1603 0
-1674 -1602 -1603 0
-1675 1676 1722 0
-1675 1676 1723 0
1675 -1676 0
1675 -1722 -1723 0
1676 -1677 -1683 0
-1676 1677 0
-1676 1683 0
-1677 1678 1681 0
-1677 1678 1682 0
1677 -1678 0
1677 -1681 -1682 0
1678 -1679 -1680 0
-1678 1679 0
-1678 1680 0
-1679 -1633 -1636 0
-1679 1633 1636 0
1679 1633 -1636 0
1679 -1633 1636 0
-1680 -1644 -1646 0
-1680 1644 1646 0
1680 1644 -1646 0
1680 -1644 1646 0
1681 -1679 1680 0
1681 1679 -1680 0
-1681 1679 1680 0
-1681 -1679 -1680 0
-1682 -1660 -1662 0
-1682 1660 1662 0
1682 1660 -1662 0
1682 -1660 1662 0
-1683 1684 1705 0
-1683 1684 1706 0
1683 -1684 0
1683 -1705 -1706 0
1684 -1685 -1695 0
-1684 1685 0
-1684 1695 0
-1685 1686 1691 0
-1685 1686 1694 0
1685 -1686 0
1685 -1691 -1694 0
1686 -1687 -1689 0
-1686 1687 0
-1686 1689 0
-1687 8477 1688 0
-1687 -8477 -1688 0
1687 -8477 1688 0
1687 8477 -1688 0
-1688 8415 8436 0
-1688 1481 1521 0
-1688 8436 1521 0
-1688 8415 1481 0
1688 -8415 -1521 0
1688 -8436 -1481 0
-1689 8465 1690 0
-1689 -8465 -1690 0
1689 -8465 1690 0
1689 8465 -1690 0
-1690 8406 8473 0
-1690 1408 1441 0
-1690 8473 1441 0
-1690 8406 1408 0
1690 -8406 -1441 0
1690 -8473 -1408 0
-1691 8469 1692 0
-1691 -8469 -1692 0
1691 -8469 1692 0
1691 8469 -1692 0
-1692 8474 1693 0
-1692 1369 1693 0
1692 -1693 0
1692 -8474 -1369 0
1693 -8475 -1338 0
-1693 8475 0
-1693 1338 0
1694 -1687 1689 0
1694 1687 -1689 0
-1694 1687 1689 0
-1694 -1687 -1689 0
-1695 1696 1701 0
-1695 1696 1704 0
1695 -1696 0
1695 -1701 -1704 0
1696 -1697 -1699 0
-1696 1697 0
-1696 1699 0
-1697 8470 1698 0
-1697 -8470 -1698 0
1697 -8470 1698 0
1697 8470 -1698 0
-1698 8385 8476 0
-1698 1302 1325 0
-1698 8476 1302 0
-1698 8385 1325 0
1698 -8385 -1302 0
1698 -8476 -1325 0
-1699 8393 1700 0
-1699 -8393 -1700 0
1699 -8393 1700 0
1699 8393 -1700 0
-1700 8381 8384 0
-1700 1267 1280 0
-1700 8384 1267 0
-1700 8381 1280 0
1700 -8381 -1267 0
1700 -8384 -1280 0
-1701 8447 1702 0
-1701 -8447 -1702 0
1701 -8447 1702 0
1701 8447 -1702 0
-1702 8380 1703 0
-1702 1253 1703 0
1702 -1703 0
1702 -8380 -1253 0
1703 -8377 -1242 0
-1703 8377 0
-1703 1242 0
1704 -1697 1699 0
1704 1697 -1699 0
-1704 1697 1699 0
-1704 -1697 -1699 0
1705 -1685 1695 0
1705 1685 -1695 0
-1705 1685 1695 0
-1705 -1685 -1695 0
-1706 1707 1719 0
-1706 1707 1721 0
1706 -1707 0
1706 -1719 -1721 0
1707 -1708 -1710 0
-1707 1708 0
-1707 1710 0
-1708 8375 1709 0
-1708 1236 1709 0
1708 -1709 0
1708 -8375 -1236 0
1709 -8373 -1233 0
-1709 8373 0
-1709 1233 0
-1710 1711 1714 0
-1710 8376 1714 0
1710 -1714 0
1710 -8376 -1711 0
-1711 8379 1712 0
-1711 -8379 -1712 0
1711 -8379 1712 0
1711 8379 -1712 0
-1712 8464 8466 0
-1712 1655 1713 0
-1712 8466 1713 0
-1712 8464 1655 0
1712 -8464 -1713 0
1712 -8466 -1655 0
1713 -1656 1657 0
-1713 1656 0
-1713 -1657 0
1714 -1715 -1718 0
-1714 1715 0
-1714 1718 0
-1715 8383 1716 0
-1715 -8383 -1716 0
1715 -8383 1716 0
1715 8383 -1716 0
-1716 8468 1717 0
-1716 1593 1717 0
1716 -1717 0
1716 -8468 -1593 0
1717 -8415 -1544 0
-1717 8415 0
-1717 1544 0
-1718 8376 1711 0
-1718 -8376 -1711 0
1718 -8376 1711 0
1718 8376 -1711 0
-1719 -1658 -1720 0
-1719 1658 1720 0
1719 1658 -1720 0
1719 -1658 1720 0
1720 8376 -1653 0
1720 -8376 1653 0
-1720 -8376 -1653 0
-1720 8376 1653 0
1721 -1708 1710 0
1721 1708 -1710 0
-1721 1708 1710 0
-1721 -1708 -1710 0
-1722 1647 1648 0
-1722 -1647 -1648 0
1722 -1647 1648 0
1722 1647 -1648 0
1723 -1677 1683 0
1723 1677 -1683 0
-1723 1677 1683 0
-1723 -1677 -1683 0
-1724 1725 1726 0
1724 -1725 0
1724 -1726 0
-1725 1664 1665 0
-1725 -1664 -1665 0
1725 -1664 1665 0
1725 1664 -1665 0
-1726 1674 1675 0
-1726 -1674 -1675 0
1726 -1674 1675 0
1726 1674 -1675 0
1727 1671 -1672 0
1727 -1671 1672 0
-1727 -1671 -1672 0
-1727 1671 1672 0
-1728 1729 1783 0
-1728 1782 1783 0
1728 -1783 0
1728 -1729 -1782 0
-1729 1730 1780 0
-1729 1730 1781 0
1729 -1730 0
1729 -1780 -1781 0
1730 -1731 -1732 0
-1730 1731 0
-1730 1732 0
-1731 1623 1624 0
-1731 -1623 -1624 0
1731 -1623 1624 0
1731 1623 -1624 0
-1732 1733 1778 0
-1732 1733 1779 0
1732 -1733 0
1732 -1778 -1779 0
1733 -1734 -1772 0
-1733 1734 0
-1733 1772 0
-1734 1735 1755 0
-1734 1735 1756 0
1734 -1735 0
1734 -1755 -1756 0
1735 -1736 -1746 0
-1735 1736 0
-1735 1746 0
-1736 1737 1742 0
-1736 1737 1745 0
1736 -1737 0
1736 -1742 -1745 0
1737 -1738 -1740 0
-1737 1738 0
-1737 1740 0
-1738 8477 1739 0
-1738 -8477 -1739 0
1738 -8477 1739 0
1738 8477 -1739 0
-1739 8406 8436 0
-1739 1481 1521 0
-1739 8436 1481 0
-1739 8406 1521 0
1739 -8406 -1481 0
1739 -8436 -1521 0
-1740 8465 1741 0
-1740 -8465 -1741 0
1740 -8465 1741 0
1740 8465 -1741 0
-1741 8473 8474 0
-1741 1408 1441 0
-1741 8474 1441 0
-1741 8473 1408 0
1741 -8473 -1441 0
1741 -8474 -1408 0
-1742 8469 1743 0
-1742 -8469 -1743 0
1742 -8469 1743 0
1742 8469 -1743 0
-1743 8475 1744 0
-1743 1369 1744 0
1743 -1744 0
1743 -8475 -1369 0
1744 -8476 -1338 0
-1744 8476 0
-1744 1338 0
1745 -1738 1740 0
1745 1738 -1740 0
-1745 1738 1740 0
-1745 -1738 -1740 0
-1746 1747 1752 0
-1746 1747 1754 0
1746 -1747 0
1746 -1752 -1754 0
1747 -1748 -1750 0
-1747 1748 0
-1747 1750 0
-1748 8470 1749 0
-1748 -8470 -1749 0
1748 -8470 1749 0
1748 8470 -1749 0
-1749 8384 8385 0
-1749 1302 1325 0
-1749 8385 1302 0
-1749 8384 1325 0
1749 -8384 -1302 0
1749 -8385 -1325 0
-1750 8393 1751 0
-1750 -8393 -1751 0
1750 -8393 1751 0
1750 8393 -1751 0
-1751 8380 8381 0
-1751 1267 1280 0
-1751 8381 1267 0
-1751 8380 1280 0
1751 -8380 -1267 0
1751 -8381 -1280 0
-1752 8447 1753 0
-1752 -8447 -1753 0
1752 -8447 1753 0
1752 8447 -1753 0
-1753 8375 8377 0
-1753 1242 1253 0
-1753 8377 1242 0
-1753 8375 1253 0
1753 -8375 -1242 0
1753 -8377 -1253 0
1754 -1748 1750 0
1754 1748 -1750 0
-1754 1748 1750 0
-1754 -1748 -1750 0
1755 -1736 1746 0
1755 1736 -1746 0
-1755 1736 1746 0
-1755 -1736 -1746 0
-1756 1757 1769 0
1756 -1757 0
1756 -1769 0
1757 -1758 -1760 0
-1757 1758 0
-1757 1760 0
-1758 8373 1759 0
-1758 1236 1759 0
1758 -1759 0
1758 -8373 -1236 0
1759 -8372 -1233 0
-1759 8372 0
-1759 1233 0
-1760 1762 1764 0
-1760 1761 1764 0
1760 -1764 0
1760 -1761 -1762 0
1761 -8371 -8376 0
1761 -8376 8464 0
-1761 8376 0
-1761 8371 -8464 0
-1762 8379 1763 0
-1762 -8379 -1763 0
1762 -8379 1763 0
1762 8379 -1763 0
-1763 8466 8468 0
-1763 1655 1713 0
-1763 8468 1713 0
-1763 8466 1655 0
1763 -8466 -1713 0
1763 -8468 -1655 0
1764 -1765 -1768 0
-1764 1765 0
-1764 1768 0
-1765 8383 1766 0
-1765 -8383 -1766 0
1765 -8383 1766 0
1765 8383 -1766 0
-1766 8415 1767 0
-1766 1593 1767 0
1766 -1767 0
1766 -8415 -1593 0
1767 -8436 -1544 0
-1767 8436 0
-1767 1544 0
-1768 1761 1762 0
-1768 -1761 -1762 0
1768 -1761 1762 0
1768 1761 -1762 0
1769 -1770 -1771 0
-1769 1770 0
-1769 1771 0
1770 -1715 1718 0
1770 1715 -1718 0
-1770 1715 1718 0
-1770 -1715 -1718 0
1771 -1758 1760 0
1771 1758 -1760 0
-1771 1758 1760 0
-1771 -1758 -1760 0
-1772 1773 1776 0
-1772 1773 1777 0
1772 -1773 0
1772 -1776 -1777 0
1773 -1774 -1775 0
-1773 1774 0
-1773 1775 0
-1774 -1691 -1694 0
-1774 1691 1694 0
1774 1691 -1694 0
1774 -1691 1694 0
-1775 -1701 -1704 0
-1775 1701 1704 0
1775 1701 -1704 0
1775 -1701 1704 0
1776 -1774 1775 0
1776 1774 -1775 0
-1776 1774 1775 0
-1776 -1774 -1775 0
-1777 -1719 -1721 0
-1777 1719 1721 0
1777 1719 -1721 0
1777 -1719 1721 0
-1778 1705 1706 0
-1778 -1705 -1706 0
1778 -1705 1706 0
1778 1705 -1706 0
1779 -1734 1772 0
1779 1734 -1772 0
-1779 1734 1772 0
-1779 -1734 -1772 0
-1780 -1722 -1723 0
-1780 1722 1723 0
1780 1722 -1723 0
1780 -1722 1723 0
1781 -1731 1732 0
1781 1731 -1732 0
-1781 1731 1732 0
-1781 -1731 -1732 0
1782 -1725 1726 0
1782 1725 -1726 0
-1782 1725 1726 0
-1782 -1725 -1726 0
1783 -1784 -1785 0
-1783 1784 0
-1783 1785 0
-1784 -1729 -1782 0
-1784 1729 1782 0
1784 1729 -1782 0
1784 -1729 1782 0
-1785 1786 1844 0
-1785 1786 1845 0
1785 -1786 0
1785 -1844 -1845 0
1786 -1787 -1843 0
-1786 1787 0
-1786 1843 0
-1787 1788 1841 0
-1787 1788 1842 0
1787 -1788 0
1787 -1841 -1842 0
1788 -1789 -1790 0
-1788 1789 0
-1788 1790 0
-1789 1681 1682 0
-1789 -1681 -1682 0
1789 -1681 1682 0
1789 1681 -1682 0
-1790 1791 1839 0
-1790 1791 1840 0
1790 -1791 0
1790 -1839 -1840 0
1791 -1792 -1832 0
-1791 1792 0
-1791 1832 0
-1792 1793 1814 0
-1792 1793 1815 0
1792 -1793 0
1792 -1814 -1815 0
1793 -1794 -1804 0
-1793 1794 0
-1793 1804 0
-1794 1795 1800 0
-1794 1795 1803 0
1794 -1795 0
1794 -1800 -1803 0
1795 -1796 -1798 0
-1795 1796 0
-1795 1798 0
-1796 8477 1797 0
-1796 -8477 -1797 0
1796 -8477 1797 0
1796 8477 -1797 0
-1797 8406 8473 0
-1797 1481 1521 0
-1797 8473 1521 0
-1797 8406 1481 0
1797 -8406 -1521 0
1797 -8473 -1481 0
-1798 8465 1799 0
-1798 -8465 -1799 0
1798 -8465 1799 0
1798 8465 -1799 0
-1799 8474 8475 0
-1799 1408 1441 0
-1799 8475 1441 0
-1799 8474 1408 0
1799 -8474 -1441 0
1799 -8475 -1408 0
-1800 8469 1801 0
-1800 -8469 -1801 0
1800 -8469 1801 0
1800 8469 -1801 0
-1801 8476 1802 0
-1801 1369 1802 0
1801 -1802 0
1801 -8476 -1369 0
1802 -8385 -1338 0
-1802 8385 0
-1802 1338 0
1803 -1796 1798 0
1803 1796 -1798 0
-1803 1796 1798 0
-1803 -1796 -1798 0
-1804 1805 1810 0
-1804 1805 1813 0
1804 -1805 0
1804 -1810 -1813 0
1805 -1806 -1808 0
-1805 1806 0
-1805 1808 0
-1806 8470 1807 0
-1806 -8470 -1807 0
1806 -8470 1807 0
1806 8470 -1807 0
-1807 8381 8384 0
-1807 1302 1325 0
-1807 8384 1302 0
-1807 8381 1325 0
1807 -8381 -1302 0
1807 -8384 -1325 0
-1808 8393 1809 0
-1808 -8393 -1809 0
1808 -8393 1809 0
1808 8393 -1809 0
-1809 8377 8380 0
-1809 1267 1280 0
-1809 8380 1267 0
-1809 8377 1280 0
1809 -8377 -1267 0
1809 -8380 -1280 0
-1810 8447 1811 0
-1810 -8447 -1811 0
1810 -8447 1811 0
1810 8447 -1811 0
-1811 8375 1812 0
-1811 1253 1812 0
1811 -1812 0
1811 -8375 -1253 0
1812 -8373 -1242 0
-1812 8373 0
-1812 1242 0
1813 -1806 1808 0
1813 1806 -1808 0
-1813 1806 1808 0
-1813 -1806 -1808 0
1814 -1794 1804 0
1814 1794 -1804 0
-1814 1794 1804 0
-1814 -1794 -1804 0
-1815 1816 1829 0
1815 -1816 0
1815 -1829 0
1816 -1817 -1819 0
-1816 1817 0
-1816 1819 0
-1817 8372 1818 0
-1817 1236 1818 0
1817 -1818 0
1817 -8372 -1236 0
1818 -8370 -1233 0
-1818 8370 0
-1818 1233 0
-1819 1820 1825 0
-1819 1820 1828 0
1819 -1820 0
1819 -1825 -1828 0
1820 -1821 -1823 0
-1820 1821 0
-1820 1823 0
-1821 8376 1822 0
-1821 -8376 -1822 0
1821 -8376 1822 0
1821 8376 -1822 0
-1822 -8371 8464 0
-1822 8371 8376 0
-1822 8371 8466 0
1822 -8371 -8464 0
1822 8371 -8376 -8466 0
-1823 8379 1824 0
-1823 -8379 -1824 0
1823 -8379 1824 0
1823 8379 -1824 0
-1824 8415 8468 0
-1824 1655 1713 0
-1824 8468 1655 0
-1824 8415 1713 0
1824 -8415 -1655 0
1824 -8468 -1713 0
-1825 8383 1826 0
-1825 -8383 -1826 0
1825 -8383 1826 0
1825 8383 -1826 0
-1826 8436 1827 0
-1826 1593 1827 0
1826 -1827 0
1826 -8436 -1593 0
1827 -8406 -1544 0
-1827 8406 0
-1827 1544 0
1828 -1821 1823 0
1828 1821 -1823 0
-1828 1821 1823 0
-1828 -1821 -1823 0
1829 -1830 -1831 0
-1829 1830 0
-1829 1831 0
1830 -1765 1768 0
1830 1765 -1768 0
-1830 1765 1768 0
-1830 -1765 -1768 0
1831 -1817 1819 0
1831 1817 -1819 0
-1831 1817 1819 0
-1831 -1817 -1819 0
-1832 1833 1836 0
1832 -1833 0
1832 -1836 0
1833 -1834 -1835 0
-1833 1834 0
-1833 1835 0
-1834 -1742 -1745 0
-1834 1742 1745 0
1834 1742 -1745 0
1834 -1742 1745 0
-1835 -1752 -1754 0
-1835 1752 1754 0
1835 1752 -1754 0
1835 -1752 1754 0
1836 -1837 -1838 0
-1836 1837 0
-1836 1838 0
1837 -1834 1835 0
1837 1834 -1835 0
-1837 1834 1835 0
-1837 -1834 -1835 0
1838 1770 -1771 0
1838 -1770 1771 0
-1838 -1770 -1771 0
-1838 1770 1771 0
-1839 1755 1756 0
-1839 -1755 -1756 0
1839 -1755 1756 0
1839 1755 -1756 0
1840 -1792 1832 0
1840 1792 -1832 0
-1840 1792 1832 0
-1840 -1792 -1832 0
-1841 -1778 -1779 0
-1841 1778 1779 0
1841 1778 -1779 0
1841 -1778 1779 0
1842 -1789 1790 0
1842 1789 -1790 0
-1842 1789 1790 0
-1842 -1789 -1790 0
-1843 -1780 -1781 0
-1843 1780 1781 0
1843 1780 -1781 0
1843 -1780 1781 0
1844 -1787 1843 0
1844 1787 -1843 0
-1844 1787 1843 0
-1844 -1787 -1843 0
-1845 1846 1902 0
-1845 1846 1903 0
1845 -1846 0
1845 -1902 -1903 0
1846 -1847 -1901 0
-1846 1847 0
-1846 1901 0
-1847 1848 1899 0
-1847 1848 1900 0
1847 -1848 0
1847 -1899 -1900 0
1848 -1849 -1850 0
-1848 1849 0
-1848 1850 0
-1849 1776 1777 0
-1849 -1776 -1777 0
1849 -1776 1777 0
1849 1776 -1777 0
-1850 1851 1897 0
-1850 1851 1898 0
1850 -1851 0
1850 -1897 -1898 0
1851 -1852 -1890 0
-1851 1852 0
-1851 1890 0
-1852 1853 1874 0
-1852 1853 1875 0
1852 -1853 0
1852 -1874 -1875 0
1853 -1854 -1864 0
-1853 1854 0
-1853 1864 0
-1854 1855 1860 0
-1854 1855 1863 0
1854 -1855 0
1854 -1860 -1863 0
1855 -1856 -1858 0
-1855 1856 0
-1855 1858 0
-1856 8477 1857 0
-1856 -8477 -1857 0
1856 -8477 1857 0
1856 8477 -1857 0
-1857 8473 8474 0
-1857 1481 1521 0
-1857 8474 1521 0
-1857 8473 1481 0
1857 -8473 -1521 0
1857 -8474 -1481 0
-1858 8465 1859 0
-1858 -8465 -1859 0
1858 -8465 1859 0
1858 8465 -1859 0
-1859 8475 8476 0
-1859 1408 1441 0
-1859 8476 1441 0
-1859 8475 1408 0
1859 -8475 -1441 0
1859 -8476 -1408 0
-1860 8469 1861 0
-1860 -8469 -1861 0
1860 -8469 1861 0
1860 8469 -1861 0
-1861 8385 1862 0
-1861 1369 1862 0
1861 -1862 0
1861 -8385 -1369 0
1862 -8384 -1338 0
-1862 8384 0
-1862 1338 0
1863 -1856 1858 0
1863 1856 -1858 0
-1863 1856 1858 0
-1863 -1856 -1858 0
-1864 1865 1870 0
-1864 1865 1873 0
1864 -1865 0
1864 -1870 -1873 0
1865 -1866 -1868 0
-1865 1866 0
-1865 1868 0
-1866 8470 1867 0
-1866 -8470 -1867 0
1866 -8470 1867 0
1866 8470 -1867 0
-1867 8380 8381 0
-1867 1302 1325 0
-1867 8381 1302 0
-1867 8380 1325 0
1867 -8380 -1302 0
1867 -8381 -1325 0
-1868 8393 1869 0
-1868 -8393 -1869 0
1868 -8393 1869 0
1868 8393 -1869 0
-1869 8375 8377 0
-1869 1267 1280 0
-1869 8377 1267 0
-1869 8375 1280 0
1869 -8375 -1267 0
1869 -8377 -1280 0
-1870 8447 1871 0
-1870 -8447 -1871 0
1870 -8447 1871 0
1870 8447 -1871 0
-1871 8373 1872 0
-1871 1253 1872 0
1871 -1872 0
1871 -8373 -1253 0
1872 -8372 -1242 0
-1872 8372 0
-1872 1242 0
1873 -1866 1868 0
1873 1866 -1868 0
-1873 1866 1868 0
-1873 -1866 -1868 0
1874 -1854 1864 0
1874 1854 -1864 0
-1874 1854 1864 0
-1874 -1854 -1864 0
-1875 1236 1886 0
-1875 1876 1886 0
-1875 8370 1886 0
1875 -1886 0
1875 -8370 -1236 -1876 0
-1876 1877 1882 0
-1876 1877 1885 0
1876 -1877 0
1876 -1882 -1885 0
1877 -1878 -1880 0
-1877 1878 0
-1877 1880 0
-1878 8376 1879 0
-1878 -8376 -1879 0
1878 -8376 1879 0
1878 8376 -1879 0
-1879 -8371 8466 0
-1879 8371 8376 0
-1879 8371 8468 0
1879 -8371 -8466 0
1879 8371 -8376 -8468 0
-1880 8379 1881 0
-1880 -8379 -1881 0
1880 -8379 1881 0
1880 8379 -1881 0
-1881 8415 8436 0
-1881 1655 1713 0
-1881 8436 1713 0
-1881 8415 1655 0
1881 -8415 -1713 0
1881 -8436 -1655 0
-1882 8383 1883 0
-1882 -8383 -1883 0
1882 -8383 1883 0
1882 8383 -1883 0
-1883 8406 1884 0
-1883 1593 1884 0
1883 -1884 0
1883 -8406 -1593 0
1884 -8473 -1544 0
-1884 8473 0
-1884 1544 0
1885 -1878 1880 0
1885 1878 -1880 0
-1885 1878 1880 0
-1885 -1878 -1880 0
1886 -1887 -1888 0
-1886 1887 0
-1886 1888 0
-1887 -1825 -1828 0
-1887 1825 1828 0
1887 1825 -1828 0
1887 -1825 1828 0
-1888 1889 1876 0
-1888 -1889 -1876 0
1888 -1889 1876 0
1888 1889 -1876 0
1889 -8370 -1236 0
-1889 8370 0
-1889 1236 0
-1890 1891 1894 0
1890 -1891 0
1890 -1894 0
1891 -1892 -1893 0
-1891 1892 0
-1891 1893 0
-1892 -1800 -1803 0
-1892 1800 1803 0
1892 1800 -1803 0
1892 -1800 1803 0
-1893 -1810 -1813 0
-1893 1810 1813 0
1893 1810 -1813 0
1893 -1810 1813 0
1894 -1895 -1896 0
-1894 1895 0
-1894 1896 0
1895 -1892 1893 0
1895 1892 -1893 0
-1895 1892 1893 0
-1895 -1892 -1893 0
1896 1830 -1831 0
1896 -1830 1831 0
-1896 -1830 -1831 0
-1896 1830 1831 0
-1897 1814 1815 0
-1897 -1814 -1815 0
1897 -1814 1815 0
1897 1814 -1815 0
1898 -1852 1890 0
1898 1852 -1890 0
-1898 1852 1890 0
-1898 -1852 -1890 0
-1899 -1839 -1840 0
-1899 1839 1840 0
1899 1839 -1840 0
1899 -1839 1840 0
1900 -1849 1850 0
1900 1849 -1850 0
-1900 1849 1850 0
-1900 -1849 -1850 0
-1901 -1841 -1842 0
-1901 1841 1842 0
1901 1841 -1842 0
1901 -1841 1842 0
1902 -1847 1901 0
1902 1847 -1901 0
-1902 1847 1901 0
-1902 -1847 -1901 0
-1903 1904 1947 0
-1903 1904 1948 0
1903 -1904 0
1903 -1947 -1948 0
1904 -1905 -1946 0
-1904 1905 0
-1904 1946 0
-1905 1906 1907 0
-1905 1907 1945 0
-1905 1906 1945 0
1905 -1907 -1945 0
1905 -1906 -1907 0
1905 -1906 -1945 0
1906 1837 -1838 0
1906 -1837 1838 0
-1906 -1837 -1838 0
-1906 1837 1838 0
-1907 1908 1943 0
-1907 1908 1944 0
1907 -1908 0
1907 -1943 -1944 0
1908 -1909 -1936 0
-1908 1909 0
-1908 1936 0
-1909 1910 1930 0
1909 -1910 0
1909 -1930 0
1910 -1911 -1921 0
-1910 1911 0
-1910 1921 0
-1911 1912 1917 0
-1911 1912 1920 0
1911 -1912 0
1911 -1917 -1920 0
1912 -1913 -1915 0
-1912 1913 0
-1912 1915 0
-1913 8477 1914 0
-1913 -8477 -1914 0
1913 -8477 1914 0
1913 8477 -1914 0
-1914 8474 8475 0
-1914 1481 1521 0
-1914 8475 1521 0
-1914 8474 1481 0
1914 -8474 -1521 0
1914 -8475 -1481 0
-1915 8465 1916 0
-1915 -8465 -1916 0
1915 -8465 1916 0
1915 8465 -1916 0
-1916 8385 8476 0
-1916 1408 1441 0
-1916 8476 1408 0
-1916 8385 1441 0
1916 -8385 -1408 0
1916 -8476 -1441 0
-1917 8469 1918 0
-1917 -8469 -1918 0
1917 -8469 1918 0
1917 8469 -1918 0
-1918 8384 1919 0
-1918 1369 1919 0
1918 -1919 0
1918 -8384 -1369 0
1919 -8381 -1338 0
-1919 8381 0
-1919 1338 0
1920 -1913 1915 0
1920 1913 -1915 0
-1920 1913 1915 0
-1920 -1913 -1915 0
-1921 1922 1927 0
-1921 1922 1929 0
1921 -1922 0
1921 -1927 -1929 0
1922 -1923 -1925 0
-1922 1923 0
-1922 1925 0
-1923 8470 1924 0
-1923 -8470 -1924 0
1923 -8470 1924 0
1923 8470 -1924 0
-1924 8377 8380 0
-1924 1302 1325 0
-1924 8380 1302 0
-1924 8377 1325 0
1924 -8377 -1302 0
1924 -8380 -1325 0
-1925 8393 1926 0
-1925 -8393 -1926 0
1925 -8393 1926 0
1925 8393 -1926 0
-1926 8373 8375 0
-1926 1267 1280 0
-1926 8375 1267 0
-1926 8373 1280 0
1926 -8373 -1267 0
1926 -8375 -1280 0
-1927 8447 1928 0
-1927 -8447 -1928 0
1927 -8447 1928 0
1927 8447 -1928 0
-1928 8370 8372 0
-1928 1242 1253 0
-1928 8372 1242 0
-1928 8370 1253 0
1928 -8370 -1242 0
1928 -8372 -1253 0
1929 -1923 1925 0
1929 1923 -1925 0
-1929 1923 1925 0
-1929 -1923 -1925 0
1930 -1931 -1935 0
-1930 1931 0
-1930 1935 0
1931 -1932 -1934 0
-1931 1932 0
-1931 1934 0
1932 -8447 1933 0
-1932 8447 0
-1932 -1933 0
1933 -8370 -1253 0
-1933 8370 0
-1933 1253 0
-1934 -1882 -1885 0
-1934 1882 1885 0
1934 1882 -1885 0
1934 -1882 1885 0
1935 -1911 1921 0
1935 1911 -1921 0
-1935 1911 1921 0
-1935 -1911 -1921 0
-1936 1937 1940 0
1936 -1937 0
1936 -1940 0
1937 -1938 -1939 0
-1937 1938 0
-1937 1939 0
-1938 -1860 -1863 0
-1938 1860 1863 0
1938 1860 -1863 0
1938 -1860 1863 0
-1939 -1870 -1873 0
-1939 1870 1873 0
1939 1870 -1873 0
1939 -1870 1873 0
1940 -1941 -1942 0
-1940 1941 0
-1940 1942 0
1941 -1938 1939 0
1941 1938 -1939 0
-1941 1938 1939 0
-1941 -1938 -1939 0
1942 -1887 1888 0
1942 1887 -1888 0
-1942 1887 1888 0
-1942 -1887 -1888 0
-1943 1874 1875 0
-1943 -1874 -1875 0
1943 -1874 1875 0
1943 1874 -1875 0
1944 -1909 1936 0
1944 1909 -1936 0
-1944 1909 1936 0
-1944 -1909 -1936 0
-1945 -1897 -1898 0
-1945 1897 1898 0
1945 1897 -1898 0
1945 -1897 1898 0
-1946 -1899 -1900 0
-1946 1899 1900 0
1946 1899 -1900 0
1946 -1899 1900 0
1947 -1905 1946 0
1947 1905 -1946 0
-1947 1905 1946 0
-1947 -1905 -1946 0
-1948 1949 1998 0
-1948 1996 1998 0
1948 -1998 0
1948 -1949 -1996 0
-1949 1950 1951 0
-1949 1951 1995 0
-1949 1950 1995 0
1949 -1951 -1995 0
1949 -1950 -1951 0
1949 -1950 -1995 0
1950 1895 -1896 0
1950 -1895 1896 0
-1950 -1895 -1896 0
-1950 1895 1896 0
-1951 1952 1992 0
1951 -1952 0
1951 -1992 0
1952 -1953 -1986 0
-1952 1953 0
-1952 1986 0
-1953 1954 1975 0
-1953 1954 1985 0
1953 -1954 0
1953 -1975 -1985 0
1954 -1955 -1965 0
-1954 1955 0
-1954 1965 0
-1955 1956 1961 0
-1955 1956 1964 0
1955 -1956 0
1955 -1961 -1964 0
1956 -1957 -1959 0
-1956 1957 0
-1956 1959 0
-1957 8376 1958 0
-1957 -8376 -1958 0
1957 -8376 1958 0
1957 8376 -1958 0
-1958 -8371 8468 0
-1958 8371 8415 0
-1958 8371 8376 0
1958 -8371 -8468 0
1958 8371 -8376 -8415 0
-1959 8379 1960 0
-1959 -8379 -1960 0
1959 -8379 1960 0
1959 8379 -1960 0
-1960 8406 8436 0
-1960 1655 1713 0
-1960 8436 1655 0
-1960 8406 1713 0
1960 -8406 -1655 0
1960 -8436 -1713 0
-1961 8383 1962 0
-1961 -8383 -1962 0
1961 -8383 1962 0
1961 8383 -1962 0
-1962 8473 1963 0
-1962 1593 1963 0
1962 -1963 0
1962 -8473 -1593 0
1963 -8474 -1544 0
-1963 8474 0
-1963 1544 0
1964 -1957 1959 0
1964 1957 -1959 0
-1964 1957 1959 0
-1964 -1957 -1959 0
-1965 1966 1971 0
-1965 1966 1974 0
1965 -1966 0
1965 -1971 -1974 0
1966 -1967 -1969 0
-1966 1967 0
-1966 1969 0
-1967 8477 1968 0
-1967 -8477 -1968 0
1967 -8477 1968 0
1967 8477 -1968 0
-1968 8475 8476 0
-1968 1481 1521 0
-1968 8476 1521 0
-1968 8475 1481 0
1968 -8475 -1521 0
1968 -8476 -1481 0
-1969 8465 1970 0
-1969 -8465 -1970 0
1969 -8465 1970 0
1969 8465 -1970 0
-1970 8384 8385 0
-1970 1408 1441 0
-1970 8385 1408 0
-1970 8384 1441 0
1970 -8384 -1408 0
1970 -8385 -1441 0
-1971 8469 1972 0
-1971 -8469 -1972 0
1971 -8469 1972 0
1971 8469 -1972 0
-1972 8381 1973 0
-1972 1369 1973 0
1972 -1973 0
1972 -8381 -1369 0
1973 -8380 -1338 0
-1973 8380 0
-1973 1338 0
1974 -1967 1969 0
1974 1967 -1969 0
-1974 1967 1969 0
-1974 -1967 -1969 0
-1975 1976 1983 0
1975 -1976 0
1975 -1983 0
1976 -1977 -1980 0
-1976 1977 0
-1976 1980 0
-1977 8470 1978 0
-1977 -8470 -1978 0
1977 -8470 1978 0
1977 8470 -1978 0
-1978 8377 1979 0
-1978 1325 1979 0
1978 -1979 0
1978 -8377 -1325 0
1979 -8375 -1302 0
-1979 8375 0
-1979 1302 0
-1980 8393 1981 0
-1980 -8393 -1981 0
1980 -8393 1981 0
1980 8393 -1981 0
-1981 8373 1982 0
-1981 1280 1982 0
1981 -1982 0
1981 -8373 -1280 0
1982 -8372 -1267 0
-1982 8372 0
-1982 1267 0
1983 -1933 -1984 0
-1983 1933 0
-1983 1984 0
1984 -1977 1980 0
1984 1977 -1980 0
-1984 1977 1980 0
-1984 -1977 -1980 0
1985 -1955 1965 0
1985 1955 -1965 0
-1985 1955 1965 0
-1985 -1955 -1965 0
-1986 1987 1990 0
-1986 1987 1991 0
1986 -1987 0
1986 -1990 -1991 0
1987 -1988 -1989 0
-1987 1988 0
-1987 1989 0
-1988 -1917 -1920 0
-1988 1917 1920 0
1988 1917 -1920 0
1988 -1917 1920 0
-1989 -1927 -1929 0
-1989 1927 1929 0
1989 1927 -1929 0
1989 -1927 1929 0
-1990 1932 1934 0
-1990 -1932 -1934 0
1990 -1932 1934 0
1990 1932 -1934 0
1991 -1988 1989 0
1991 1988 -1989 0
-1991 1988 1989 0
-1991 -1988 -1989 0
1992 -1993 -1994 0
-1992 1993 0
-1992 1994 0
1993 1931 -1935 0
1993 -1931 1935 0
-1993 -1931 -1935 0
-1993 1931 1935 0
1994 -1953 1986 0
1994 1953 -1986 0
-1994 1953 1986 0
-1994 -1953 -1986 0
-1995 -1943 -1944 0
-1995 1943 1944 0
1995 1943 -1944 0
1995 -1943 1944 0
1996 -1945 1997 0
1996 1945 -1997 0
-1996 1945 1997 0
-1996 -1945 -1997 0
-1997 1906 1907 0
-1997 -1906 -1907 0
1997 -1906 1907 0
1997 1906 -1907 0
1998 -1999 -2000 0
-1998 1999 0
-1998 2000 0
-1999 -1949 -1996 0
-1999 1949 1996 0
1999 1949 -1996 0
1999 -1949 1996 0
-2000 2001 2051 0
-2000 2049 2051 0
2000 -2051 0
2000 -2001 -2049 0
-2001 2003 2048 0
-2001 2002 2048 0
-2001 2002 2003 0
2001 -2002 -2048 0
2001 -2002 -2003 0
2001 -2003 -2048 0
2002 1941 -1942 0
2002 -1941 1942 0
-2002 -1941 -1942 0
-2002 1941 1942 0
-2003 2004 2046 0
-2003 2004 2047 0
2003 -2004 0
2003 -2046 -2047 0
2004 -2005 -2039 0
-2004 2005 0
-2004 2039 0
-2005 2006 2027 0
-2005 2006 2038 0
2005 -2006 0
2005 -2027 -2038 0
2006 -2007 -2017 0
-2006 2007 0
-2006 2017 0
-2007 2008 2013 0
-2007 2008 2016 0
2007 -2008 0
2007 -2013 -2016 0
2008 -2009 -2011 0
-2008 2009 0
-2008 2011 0
-2009 8376 2010 0
-2009 -8376 -2010 0
2009 -8376 2010 0
2009 8376 -2010 0
-2010 -8371 8415 0
-2010 8371 8376 0
-2010 8371 8436 0
2010 -8371 -8415 0
2010 8371 -8376 -8436 0
-2011 8379 2012 0
-2011 -8379 -2012 0
2011 -8379 2012 0
2011 8379 -2012 0
-2012 8406 8473 0
-2012 1655 1713 0
-2012 8473 1713 0
-2012 8406 1655 0
2012 -8406 -1713 0
2012 -8473 -1655 0
-2013 8383 2014 0
-2013 -8383 -2014 0
2013 -8383 2014 0
2013 8383 -2014 0
-2014 8474 2015 0
-2014 1593 2015 0
2014 -2015 0
2014 -8474 -1593 0
2015 -8475 -1544 0
-2015 8475 0
-2015 1544 0
2016 -2009 2011 0
2016 2009 -2011 0
-2016 2009 2011 0
-2016 -2009 -2011 0
-2017 2018 2023 0
-2017 2018 2026 0
2017 -2018 0
2017 -2023 -2026 0
2018 -2019 -2021 0
-2018 2019 0
-2018 2021 0
-2019 8477 2020 0
-2019 -8477 -2020 0
2019 -8477 2020 0
2019 8477 -2020 0
-2020 8385 8476 0
-2020 1481 1521 0
-2020 8476 1481 0
-2020 8385 1521 0
2020 -8385 -1481 0
2020 -8476 -1521 0
-2021 8465 2022 0
-2021 -8465 -2022 0
2021 -8465 2022 0
2021 8465 -2022 0
-2022 8381 8384 0
-2022 1408 1441 0
-2022 8384 1408 0
-2022 8381 1441 0
2022 -8381 -1408 0
2022 -8384 -1441 0
-2023 8469 2024 0
-2023 -8469 -2024 0
2023 -8469 2024 0
2023 8469 -2024 0
-2024 8380 2025 0
-2024 1369 2025 0
2024 -2025 0
2024 -8380 -1369 0
2025 -8377 -1338 0
-2025 8377 0
-2025 1338 0
2026 -2019 2021 0
2026 2019 -2021 0
-2026 2019 2021 0
-2026 -2019 -2021 0
-2027 2028 2035 0
2027 -2028 0
2027 -2035 0
2028 -2029 -2032 0
-2028 2029 0
-2028 2032 0
-2029 8470 2030 0
-2029 -8470 -2030 0
2029 -8470 2030 0
2029 8470 -2030 0
-2030 8375 2031 0
-2030 1325 2031 0
2030 -2031 0
2030 -8375 -1325 0
2031 -8373 -1302 0
-2031 8373 0
-2031 1302 0
-2032 8393 2033 0
-2032 -8393 -2033 0
2032 -8393 2033 0
2032 8393 -2033 0
-2033 8372 2034 0
-2033 1280 2034 0
2033 -2034 0
2033 -8372 -1280 0
2034 -8370 -1267 0
-2034 8370 0
-2034 1267 0
2035 -8393 2036 -2037 0
-2035 8393 0
-2035 -2036 0
-2035 2037 0
2036 -8370 -1280 0
-2036 8370 0
-2036 1280 0
2037 -2029 2032 0
2037 2029 -2032 0
-2037 2029 2032 0
-2037 -2029 -2032 0
2038 -2007 2017 0
2038 2007 -2017 0
-2038 2007 2017 0
-2038 -2007 -2017 0
-2039 2040 2043 0
2039 -2040 0
2039 -2043 0
2040 -2041 -2042 0
-2040 2041 0
-2040 2042 0
-2041 -1961 -1964 0
-2041 1961 1964 0
2041 1961 -1964 0
2041 -1961 1964 0
-2042 -1971 -1974 0
-2042 1971 1974 0
2042 1971 -1974 0
2042 -1971 1974 0
2043 -2044 -2045 0
-2043 2044 0
-2043 2045 0
2044 1933 -1984 0
2044 -1933 1984 0
-2044 -1933 -1984 0
-2044 1933 1984 0
2045 -2041 2042 0
2045 2041 -2042 0
-2045 2041 2042 0
-2045 -2041 -2042 0
-2046 -1975 -1985 0
-2046 1975 1985 0
2046 1975 -1985 0
2046 -1975 1985 0
2047 -2005 2039 0
2047 2005 -2039 0
-2047 2005 2039 0
-2047 -2005 -2039 0
2048 1993 -1994 0
2048 -1993 1994 0
-2048 -1993 -1994 0
-2048 1993 1994 0
2049 -1995 2050 0
2049 1995 -2050 0
-2049 1995 2050 0
-2049 -1995 -2050 0
-2050 1950 1951 0
-2050 -1950 -1951 0
2050 -1950 1951 0
2050 1950 -1951 0
2051 -2052 -2053 0
-2051 2052 0
-2051 2053 0
-2052 -2001 -2049 0
-2052 2001 2049 0
2052 2001 -2049 0
2052 -2001 2049 0
-2053 2054 2094 0
-2053 2054 2095 0
2053 -2054 0
2053 -2094 -2095 0
2054 -2055 -2092 0
-2054 2055 0
-2054 2092 0
-2055 2056 2090 0
-2055 2056 2091 0
2055 -2056 0
2055 -2090 -2091 0
2056 -2057 -2058 0
-2056 2057 0
-2056 2058 0
-2057 -1990 -1991 0
-2057 1990 1991 0
2057 1990 -1991 0
2057 -1990 1991 0
-2058 2063 2087 0
-2058 2059 2087 0
2058 -2087 0
2058 -2059 -2063 0
2059 -2060 -2061 0
-2059 2060 0
-2059 2061 0
-2060 -2023 -2026 0
-2060 2023 2026 0
2060 2023 -2026 0
2060 -2023 2026 0
2061 2062 -2037 0
2061 -2062 2037 0
-2061 -2062 -2037 0
-2061 2062 2037 0
2062 -8393 2036 0
-2062 8393 0
-2062 -2036 0
-2063 2064 2085 0
-2063 2064 2086 0
2063 -2064 0
2063 -2085 -2086 0
2064 -2065 -2075 0
-2064 2065 0
-2064 2075 0
-2065 2066 2071 0
-2065 2066 2074 0
2065 -2066 0
2065 -2071 -2074 0
2066 -2067 -2069 0
-2066 2067 0
-2066 2069 0
-2067 8376 2068 0
-2067 -8376 -2068 0
2067 -8376 2068 0
2067 8376 -2068 0
-2068 -8371 8436 0
-2068 8371 8406 0
-2068 8371 8376 0
2068 -8371 -8436 0
2068 8371 -8376 -8406 0
-2069 8379 2070 0
-2069 -8379 -2070 0
2069 -8379 2070 0
2069 8379 -2070 0
-2070 8473 8474 0
-2070 1655 1713 0
-2070 8474 1713 0
-2070 8473 1655 0
2070 -8473 -1713 0
2070 -8474 -1655 0
-2071 8383 2072 0
-2071 -8383 -2072 0
2071 -8383 2072 0
2071 8383 -2072 0
-2072 8475 2073 0
-2072 1593 2073 0
2072 -2073 0
2072 -8475 -1593 0
2073 -8476 -1544 0
-2073 8476 0
-2073 1544 0
2074 -2067 2069 0
2074 2067 -2069 0
-2074 2067 2069 0
-2074 -2067 -2069 0
-2075 2076 2081 0
-2075 2076 2084 0
2075 -2076 0
2075 -2081 -2084 0
2076 -2077 -2079 0
-2076 2077 0
-2076 2079 0
-2077 8477 2078 0
-2077 -8477 -2078 0
2077 -8477 2078 0
2077 8477 -2078 0
-2078 8384 8385 0
-2078 1481 1521 0
-2078 8385 1481 0
-2078 8384 1521 0
2078 -8384 -1481 0
2078 -8385 -1521 0
-2079 8465 2080 0
-2079 -8465 -2080 0
2079 -8465 2080 0
2079 8465 -2080 0
-2080 8380 8381 0
-2080 1408 1441 0
-2080 8381 1408 0
-2080 8380 1441 0
2080 -8380 -1408 0
2080 -8381 -1441 0
-2081 8469 2082 0
-2081 -8469 -2082 0
2081 -8469 2082 0
2081 8469 -2082 0
-2082 8377 2083 0
-2082 1369 2083 0
2082 -2083 0
2082 -8377 -1369 0
2083 -8375 -1338 0
-2083 8375 0
-2083 1338 0
2084 -2077 2079 0
2084 2077 -2079 0
-2084 2077 2079 0
-2084 -2077 -2079 0
-2085 -2013 -2016 0
-2085 2013 2016 0
2085 2013 -2016 0
2085 -2013 2016 0
2086 -2065 2075 0
2086 2065 -2075 0
-2086 2065 2075 0
-2086 -2065 -2075 0
2087 -2088 -2089 0
-2087 2088 0
-2087 2089 0
-2088 -2027 -2038 0
-2088 2027 2038 0
2088 2027 -2038 0
2088 -2027 2038 0
-2089 2059 2063 0
-2089 -2059 -2063 0
2089 -2059 2063 0
2089 2059 -2063 0
-2090 -2046 -2047 0
-2090 2046 2047 0
2090 2046 -2047 0
2090 -2046 2047 0
2091 -2057 2058 0
2091 2057 -2058 0
-2091 2057 2058 0
-2091 -2057 -2058 0
-2092 2048 2093 0
-2092 -2048 -2093 0
2092 -2048 2093 0
2092 2048 -2093 0
-2093 2002 2003 0
-2093 -2002 -2003 0
2093 -2002 2003 0
2093 2002 -2003 0
2094 -2055 2092 0
2094 2055 -2092 0
-2094 2055 2092 0
-2094 -2055 -2092 0
-2095 2096 2137 0
-2095 2096 2138 0
2095 -2096 0
2095 -2137 -2138 0
2096 -2097 -2136 0
-2096 2097 0
-2096 2136 0
-2097 2099 2135 0
-2097 2098 2135 0
-2097 2098 2099 0
2097 -2098 -2135 0
2097 -2098 -2099 0
2097 -2099 -2135 0
2098 2044 -2045 0
2098 -2044 2045 0
-2098 -2044 -2045 0
-2098 2044 2045 0
-2099 2100 2133 0
-2099 2100 2134 0
2099 -2100 0
2099 -2133 -2134 0
2100 -2101 -2117 0
-2100 2101 0
-2100 2117 0
-2101 2102 2105 0
-2101 2036 2105 0
2101 -2105 0
2101 -2036 -2102 0
-2102 8470 2103 0
-2102 -8470 -2103 0
2102 -8470 2103 0
2102 8470 -2103 0
-2103 8373 2104 0
-2103 1325 2104 0
2103 -2104 0
2103 -8373 -1325 0
2104 -8372 -1302 0
-2104 8372 0
-2104 1302 0
2105 -2106 -2107 0
-2105 2106 0
-2105 2107 0
-2106 2036 2102 0
-2106 -2036 -2102 0
2106 -2036 2102 0
2106 2036 -2102 0
-2107 2108 2113 0
-2107 2108 2116 0
2107 -2108 0
2107 -2113 -2116 0
2108 -2109 -2111 0
-2108 2109 0
-2108 2111 0
-2109 8376 2110 0
-2109 -8376 -2110 0
2109 -8376 2110 0
2109 8376 -2110 0
-2110 -8371 8406 0
-2110 8371 8376 0
-2110 8371 8473 0
2110 -8371 -8406 0
2110 8371 -8376 -8473 0
-2111 8379 2112 0
-2111 -8379 -2112 0
2111 -8379 2112 0
2111 8379 -2112 0
-2112 8474 8475 0
-2112 1655 1713 0
-2112 8475 1713 0
-2112 8474 1655 0
2112 -8474 -1713 0
2112 -8475 -1655 0
-2113 8383 2114 0
-2113 -8383 -2114 0
2113 -8383 2114 0
2113 8383 -2114 0
-2114 8476 2115 0
-2114 1593 2115 0
2114 -2115 0
2114 -8476 -1593 0
2115 -8385 -1544 0
-2115 8385 0
-2115 1544 0
2116 -2109 2111 0
2116 2109 -2111 0
-2116 2109 2111 0
-2116 -2109 -2111 0
-2117 2118 2130 0
2117 -2118 0
2117 -2130 0
2118 -2119 -2129 0
-2118 2119 0
-2118 2129 0
-2119 2120 2125 0
-2119 2120 2128 0
2119 -2120 0
2119 -2125 -2128 0
2120 -2121 -2123 0
-2120 2121 0
-2120 2123 0
-2121 8477 2122 0
-2121 -8477 -2122 0
2121 -8477 2122 0
2121 8477 -2122 0
-2122 8381 8384 0
-2122 1481 1521 0
-2122 8384 1481 0
-2122 8381 1521 0
2122 -8381 -1481 0
2122 -8384 -1521 0
-2123 8465 2124 0
-2123 -8465 -2124 0
2123 -8465 2124 0
2123 8465 -2124 0
-2124 8377 8380 0
-2124 1408 1441 0
-2124 8380 1408 0
-2124 8377 1441 0
2124 -8377 -1408 0
2124 -8380 -1441 0
-2125 8469 2126 0
-2125 -8469 -2126 0
2125 -8469 2126 0
2125 8469 -2126 0
-2126 8375 2127 0
-2126 1369 2127 0
2126 -2127 0
2126 -8375 -1369 0
2127 -8373 -1338 0
-2127 8373 0
-2127 1338 0
2128 -2121 2123 0
2128 2121 -2123 0
-2128 2121 2123 0
-2128 -2121 -2123 0
-2129 -2071 -2074 0
-2129 2071 2074 0
2129 2071 -2074 0
2129 -2071 2074 0
2130 -2131 -2132 0
-2130 2131 0
-2130 2132 0
-2131 -2081 -2084 0
-2131 2081 2084 0
2131 2081 -2084 0
2131 -2081 2084 0
2132 -2119 2129 0
2132 2119 -2129 0
-2132 2119 2129 0
-2132 -2119 -2129 0
-2133 -2085 -2086 0
-2133 2085 2086 0
2133 2085 -2086 0
2133 -2085 2086 0
2134 -2101 2117 0
2134 2101 -2117 0
-2134 2101 2117 0
-2134 -2101 -2117 0
2135 -2088 2089 0
2135 2088 -2089 0
-2135 2088 2089 0
-2135 -2088 -2089 0
-2136 -2090 -2091 0
-2136 2090 2091 0
2136 2090 -2091 0
2136 -2090 2091 0
2137 -2097 2136 0
2137 2097 -2136 0
-2137 2097 2136 0
-2137 -2097 -2136 0
-2138 2139 2170 0
-2138 2139 2171 0
2138 -2139 0
2138 -2170 -2171 0
2139 -2140 -2168 0
-2139 2140 0
-2139 2168 0
-2140 2141 2166 0
-2140 2141 2167 0
2140 -2141 0
2140 -2166 -2167 0
2141 -2142 -2143 0
-2141 2142 0
-2141 2143 0
-2142 -2060 -2061 0
-2142 2060 2061 0
2142 2060 -2061 0
2142 -2060 2061 0
-2143 2147 2165 0
-2143 2144 2165 0
-2143 2144 2147 0
2143 -2144 -2165 0
2143 -2144 -2147 0
2143 -2147 -2165 0
2144 -2145 -2146 0
-2144 2145 0
-2144 2146 0
-2145 -2113 -2116 0
-2145 2113 2116 0
2145 2113 -2116 0
2145 -2113 2116 0
-2146 -2125 -2128 0
-2146 2125 2128 0
2146 2125 -2128 0
2146 -2125 2128 0
-2147 2150 2153 0
-2147 2148 2153 0
2147 -2153 0
2147 -2148 -2150 0
2148 -8470 2149 0
-2148 8470 0
-2148 -2149 0
2149 -8370 -1325 0
-2149 8370 0
-2149 1325 0
-2150 8470 2151 0
-2150 -8470 -2151 0
2150 -8470 2151 0
2150 8470 -2151 0
-2151 8372 2152 0
-2151 1325 2152 0
2151 -2152 0
2151 -8372 -1325 0
2152 -8370 -1302 0
-2152 8370 0
-2152 1302 0
2153 -2154 -2155 0
-2153 2154 0
-2153 2155 0
-2154 2148 2150 0
-2154 -2148 -2150 0
2154 -2148 2150 0
2154 2148 -2150 0
-2155 2156 2161 0
-2155 2156 2164 0
2155 -2156 0
2155 -2161 -2164 0
2156 -2157 -2159 0
-2156 2157 0
-2156 2159 0
-2157 8376 2158 0
-2157 -8376 -2158 0
2157 -8376 2158 0
2157 8376 -2158 0
-2158 -8371 8473 0
-2158 8371 8376 0
-2158 8371 8474 0
2158 -8371 -8473 0
2158 8371 -8376 -8474 0
-2159 8379 2160 0
-2159 -8379 -2160 0
2159 -8379 2160 0
2159 8379 -2160 0
-2160 8475 8476 0
-2160 1655 1713 0
-2160 8476 1713 0
-2160 8475 1655 0
2160 -8475 -1713 0
2160 -8476 -1655 0
-2161 8383 2162 0
-2161 -8383 -2162 0
2161 -8383 2162 0
2161 8383 -2162 0
-2162 8385 2163 0
-2162 1593 2163 0
2162 -2163 0
2162 -8385 -1593 0
2163 -8384 -1544 0
-2163 8384 0
-2163 1544 0
2164 -2157 2159 0
2164 2157 -2159 0
-2164 2157 2159 0
-2164 -2157 -2159 0
2165 -2106 2107 0
2165 2106 -2107 0
-2165 2106 2107 0
-2165 -2106 -2107 0
-2166 -2133 -2134 0
-2166 2133 2134 0
2166 2133 -2134 0
2166 -2133 2134 0
2167 -2142 2143 0
2167 2142 -2143 0
-2167 2142 2143 0
-2167 -2142 -2143 0
-2168 2135 2169 0
-2168 -2135 -2169 0
2168 -2135 2169 0
2168 2135 -2169 0
-2169 2098 2099 0
-2169 -2098 -2099 0
2169 -2098 2099 0
2169 2098 -2099 0
2170 -2140 2168 0
2170 2140 -2168 0
-2170 2140 2168 0
-2170 -2140 -2168 0
-2171 2172 2209 0
-2171 2172 2210 0
2171 -2172 0
2171 -2209 -2210 0
2172 -2173 -2174 0
-2172 2173 0
-2172 2174 0
-2173 -2166 -2167 0
-2173 2166 2167 0
2173 2166 -2167 0
2173 -2166 2167 0
-2174 2175 2206 0
-2174 2175 2208 0
2174 -2175 0
2174 -2206 -2208 0
2175 -2176 -2177 0
-2175 2176 0
-2175 2177 0
-2176 -2131 -2132 0
-2176 2131 2132 0
2176 2131 -2132 0
2176 -2131 2132 0
-2177 2178 2203 0
2177 -2178 0
2177 -2203 0
2178 -2179 -2189 0
-2178 2179 0
-2178 2189 0
-2179 2180 2185 0
-2179 2180 2188 0
2179 -2180 0
2179 -2185 -2188 0
2180 -2181 -2183 0
-2180 2181 0
-2180 2183 0
-2181 8477 2182 0
-2181 -8477 -2182 0
2181 -8477 2182 0
2181 8477 -2182 0
-2182 8380 8381 0
-2182 1481 1521 0
-2182 8381 1481 0
-2182 8380 1521 0
2182 -8380 -1481 0
2182 -8381 -1521 0
-2183 8465 2184 0
-2183 -8465 -2184 0
2183 -8465 2184 0
2183 8465 -2184 0
-2184 8375 8377 0
-2184 1408 1441 0
-2184 8377 1408 0
-2184 8375 1441 0
2184 -8375 -1408 0
2184 -8377 -1441 0
-2185 8469 2186 0
-2185 -8469 -2186 0
2185 -8469 2186 0
2185 8469 -2186 0
-2186 8373 2187 0
-2186 1369 2187 0
2186 -2187 0
2186 -8373 -1369 0
2187 -8372 -1338 0
-2187 8372 0
-2187 1338 0
2188 -2181 2183 0
2188 2181 -2183 0
-2188 2181 2183 0
-2188 -2181 -2183 0
-2189 2190 2200 0
-2189 2149 2200 0
2189 -2200 0
2189 -2149 -2190 0
-2190 2191 2196 0
2190 -2191 0
2190 -2196 0
2191 -2192 -2194 0
-2191 2192 0
-2191 2194 0
-2192 8376 2193 0
-2192 -8376 -2193 0
2192 -8376 2193 0
2192 8376 -2193 0
-2193 -8371 8474 0
-2193 8371 8376 0
-2193 8371 8475 0
2193 -8371 -8474 0
2193 8371 -8376 -8475 0
-2194 8379 2195 0
-2194 -8379 -2195 0
2194 -8379 2195 0
2194 8379 -2195 0
-2195 8385 8476 0
-2195 1655 1713 0
-2195 8476 1655 0
-2195 8385 1713 0
2195 -8385 -1655 0
2195 -8476 -1713 0
2196 -2197 -2199 0
-2196 2197 0
-2196 2199 0
-2197 8383 2198 0
-2197 -8383 -2198 0
2197 -8383 2198 0
2197 8383 -2198 0
-2198 8381 8384 0
-2198 1544 1593 0
-2198 8384 1544 0
-2198 8381 1593 0
2198 -8381 -1544 0
2198 -8384 -1593 0
2199 -2192 2194 0
2199 2192 -2194 0
-2199 2192 2194 0
-2199 -2192 -2194 0
2200 -2201 -2202 0
-2200 2201 0
-2200 2202 0
-2201 -2161 -2164 0
-2201 2161 2164 0
2201 2161 -2164 0
2201 -2161 2164 0
-2202 2149 2190 0
-2202 -2149 -2190 0
2202 -2149 2190 0
2202 2149 -2190 0
2203 -2204 -2205 0
-2203 2204 0
-2203 2205 0
2204 -2154 2155 0
2204 2154 -2155 0
-2204 2154 2155 0
-2204 -2154 -2155 0
2205 -2179 2189 0
2205 2179 -2189 0
-2205 2179 2189 0
-2205 -2179 -2189 0
-2206 2165 2207 0
-2206 -2165 -2207 0
2206 -2165 2207 0
2206 2165 -2207 0
-2207 2144 2147 0
-2207 -2144 -2147 0
2207 -2144 2147 0
2207 2144 -2147 0
2208 -2176 2177 0
2208 2176 -2177 0
-2208 2176 2177 0
-2208 -2176 -2177 0
2209 -2173 2174 0
2209 2173 -2174 0
-2209 2173 2174 0
-2209 -2173 -2174 0
-2210 2211 2234 0
-2210 2211 2235 0
2210 -2211 0
2210 -2234 -2235 0
2211 -2212 -2233 0
-2211 2212 0
-2211 2233 0
-2212 2214 2232 0
-2212 2213 2232 0
-2212 2213 2214 0
2212 -2213 -2232 0
2212 -2213 -2214 0
2212 -2214 -2232 0
2213 -2145 2146 0
2213 2145 -2146 0
-2213 2145 2146 0
-2213 -2145 -2146 0
-2214 2215 2229 0
-2214 2225 2229 0
2214 -2229 0
2214 -2215 -2225 0
-2215 2216 2221 0
-2215 2216 2224 0
2215 -2216 0
2215 -2221 -2224 0
2216 -2217 -2219 0
-2216 2217 0
-2216 2219 0
-2217 8477 2218 0
-2217 -8477 -2218 0
2217 -8477 2218 0
2217 8477 -2218 0
-2218 8377 8380 0
-2218 1481 1521 0
-2218 8380 1481 0
-2218 8377 1521 0
2218 -8377 -1481 0
2218 -8380 -1521 0
-2219 8465 2220 0
-2219 -8465 -2220 0
2219 -8465 2220 0
2219 8465 -2220 0
-2220 8373 8375 0
-2220 1408 1441 0
-2220 8375 1408 0
-2220 8373 1441 0
2220 -8373 -1408 0
2220 -8375 -1441 0
-2221 8469 2222 0
-2221 -8469 -2222 0
2221 -8469 2222 0
2221 8469 -2222 0
-2222 8372 2223 0
-2222 1369 2223 0
2222 -2223 0
2222 -8372 -1369 0
2223 -8370 -1338 0
-2223 8370 0
-2223 1338 0
2224 -2217 2219 0
2224 2217 -2219 0
-2224 2217 2219 0
-2224 -2217 -2219 0
2225 -2226 -2228 0
-2225 2226 0
-2225 2228 0
2226 -8469 2227 0
-2226 8469 0
-2226 -2227 0
2227 -8370 -1369 0
-2227 8370 0
-2227 1369 0
-2228 -2197 -2199 0
-2228 2197 2199 0
2228 2197 -2199 0
2228 -2197 2199 0
2229 -2230 -2231 0
-2229 2230 0
-2229 2231 0
-2230 -2185 -2188 0
-2230 2185 2188 0
2230 2185 -2188 0
2230 -2185 2188 0
-2231 -2215 -2225 0
-2231 2215 2225 0
2231 2215 -2225 0
2231 -2215 2225 0
2232 2204 -2205 0
2232 -2204 2205 0
-2232 -2204 -2205 0
-2232 2204 2205 0
-2233 -2206 -2208 0
-2233 2206 2208 0
2233 2206 -2208 0
2233 -2206 2208 0
2234 -2212 2233 0
2234 2212 -2233 0
-2234 2212 2233 0
-2234 -2212 -2233 0
-2235 2236 2264 0
-2235 2236 2265 0
2235 -2236 0
2235 -2264 -2265 0
2236 -2237 -2262 0
-2236 2237 0
-2236 2262 0
-2237 2239 2261 0
-2237 2238 2261 0
-2237 2238 2239 0
2237 -2238 -2261 0
2237 -2238 -2239 0
2237 -2239 -2261 0
2238 -2201 2202 0
2238 2201 -2202 0
-2238 2201 2202 0
-2238 -2201 -2202 0
-2239 2240 2259 0
-2239 2240 2260 0
2239 -2240 0
2239 -2259 -2260 0
2240 -2241 -2251 0
-2240 2241 0
-2240 2251 0
-2241 2242 2247 0
-2241 2242 2250 0
2241 -2242 0
2241 -2247 -2250 0
2242 -2243 -2245 0
-2242 2243 0
-2242 2245 0
-2243 8376 2244 0
-2243 -8376 -2244 0
2243 -8376 2244 0
2243 8376 -2244 0
-2244 -8371 8475 0
-2244 8371 8376 0
-2244 8371 8476 0
2244 -8371 -8475 0
2244 8371 -8376 -8476 0
-2245 8379 2246 0
-2245 -8379 -2246 0
2245 -8379 2246 0
2245 8379 -2246 0
-2246 8384 8385 0
-2246 1655 1713 0
-2246 8385 1655 0
-2246 8384 1713 0
2246 -8384 -1655 0
2246 -8385 -1713 0
-2247 8383 2248 0
-2247 -8383 -2248 0
2247 -8383 2248 0
2247 8383 -2248 0
-2248 8381 2249 0
-2248 1593 2249 0
2248 -2249 0
2248 -8381 -1593 0
2249 -8380 -1544 0
-2249 8380 0
-2249 1544 0
2250 -2243 2245 0
2250 2243 -2245 0
-2250 2243 2245 0
-2250 -2243 -2245 0
-2251 2252 2257 0
2251 -2252 0
2251 -2257 0
2252 -2253 -2255 0
-2252 2253 0
-2252 2255 0
-2253 8477 2254 0
-2253 -8477 -2254 0
2253 -8477 2254 0
2253 8477 -2254 0
-2254 8375 8377 0
-2254 1481 1521 0
-2254 8377 1481 0
-2254 8375 1521 0
2254 -8375 -1481 0
2254 -8377 -1521 0
-2255 8465 2256 0
-2255 -8465 -2256 0
2255 -8465 2256 0
2255 8465 -2256 0
-2256 8372 8373 0
-2256 1408 1441 0
-2256 8373 1408 0
-2256 8372 1441 0
2256 -8372 -1408 0
2256 -8373 -1441 0
2257 -2227 -2258 0
-2257 2227 0
-2257 2258 0
2258 -2253 2255 0
2258 2253 -2255 0
-2258 2253 2255 0
-2258 -2253 -2255 0
-2259 -2221 -2224 0
-2259 2221 2224 0
2259 2221 -2224 0
2259 -2221 2224 0
2260 -2241 2251 0
2260 2241 -2251 0
-2260 2241 2251 0
-2260 -2241 -2251 0
2261 -2230 2231 0
2261 2230 -2231 0
-2261 2230 2231 0
-2261 -2230 -2231 0
-2262 -2263 -2232 0
-2262 2263 2232 0
2262 2263 -2232 0
2262 -2263 2232 0
-2263 2213 2214 0
-2263 -2213 -2214 0
2263 -2213 2214 0
2263 2213 -2214 0
2264 -2237 2262 0
2264 2237 -2262 0
-2264 2237 2262 0
-2264 -2237 -2262 0
-2265 2266 2297 0
-2265 2266 2298 0
2265 -2266 0
2265 -2297 -2298 0
2266 -2267 -2295 0
-2266 2267 0
-2266 2295 0
-2267 2268 2293 0
-2267 2268 2294 0
2267 -2268 0
2267 -2293 -2294 0
2268 -2269 -2270 0
-2268 2269 0
-2268 2270 0
-2269 2226 2228 0
-2269 -2226 -2228 0
2269 -2226 2228 0
2269 2226 -2228 0
-2270 2271 2291 0
-2270 2271 2292 0
2270 -2271 0
2270 -2291 -2292 0
2271 -2272 -2282 0
-2271 2272 0
-2271 2282 0
-2272 2273 2278 0
-2272 2273 2281 0
2272 -2273 0
2272 -2278 -2281 0
2273 -2274 -2276 0
-2273 2274 0
-2273 2276 0
-2274 8376 2275 0
-2274 -8376 -2275 0
2274 -8376 2275 0
2274 8376 -2275 0
-2275 -8371 8476 0
-2275 8371 8385 0
-2275 8371 8376 0
2275 -8371 -8476 0
2275 8371 -8376 -8385 0
-2276 8379 2277 0
-2276 -8379 -2277 0
2276 -8379 2277 0
2276 8379 -2277 0
-2277 8381 8384 0
-2277 1655 1713 0
-2277 8384 1655 0
-2277 8381 1713 0
2277 -8381 -1655 0
2277 -8384 -1713 0
-2278 8383 2279 0
-2278 -8383 -2279 0
2278 -8383 2279 0
2278 8383 -2279 0
-2279 8380 2280 0
-2279 1593 2280 0
2279 -2280 0
2279 -8380 -1593 0
2280 -8377 -1544 0
-2280 8377 0
-2280 1544 0
2281 -2274 2276 0
2281 2274 -2276 0
-2281 2274 2276 0
-2281 -2274 -2276 0
-2282 2283 2288 0
2282 -2283 0
2282 -2288 0
2283 -2284 -2286 0
-2283 2284 0
-2283 2286 0
-2284 8477 2285 0
-2284 -8477 -2285 0
2284 -8477 2285 0
2284 8477 -2285 0
-2285 8373 8375 0
-2285 1481 1521 0
-2285 8375 1481 0
-2285 8373 1521 0
2285 -8373 -1481 0
2285 -8375 -1521 0
-2286 8465 2287 0
-2286 -8465 -2287 0
2286 -8465 2287 0
2286 8465 -2287 0
-2287 8370 8372 0
-2287 1408 1441 0
-2287 8372 1408 0
-2287 8370 1441 0
2287 -8370 -1408 0
2287 -8372 -1441 0
2288 -8465 2289 -2290 0
-2288 8465 0
-2288 -2289 0
-2288 2290 0
2289 -8370 -1441 0
-2289 8370 0
-2289 1441 0
2290 -2284 2286 0
2290 2284 -2286 0
-2290 2284 2286 0
-2290 -2284 -2286 0
-2291 -2247 -2250 0
-2291 2247 2250 0
2291 2247 -2250 0
2291 -2247 2250 0
2292 -2272 2282 0
2292 2272 -2282 0
-2292 2272 2282 0
-2292 -2272 -2282 0
-2293 -2259 -2260 0
-2293 2259 2260 0
2293 2259 -2260 0
2293 -2259 2260 0
2294 -2269 2270 0
2294 2269 -2270 0
-2294 2269 2270 0
-2294 -2269 -2270 0
-2295 2261 2296 0
-2295 -2261 -2296 0
2295 -2261 2296 0
2295 2261 -2296 0
-2296 2238 2239 0
-2296 -2238 -2239 0
2296 -2238 2239 0
2296 2238 -2239 0
2297 -2267 2295 0
2297 2267 -2295 0
-2297 2267 2295 0
-2297 -2267 -2295 0
-2298 2299 2321 0
-2298 2299 2322 0
2298 -2299 0
2298 -2321 -2322 0
2299 -2300 -2320 0
-2299 2300 0
-2299 2320 0
-2300 2301 2302 0
-2300 2302 2319 0
-2300 2301 2319 0
2300 -2302 -2319 0
2300 -2301 -2302 0
2300 -2301 -2319 0
2301 2227 -2258 0
2301 -2227 2258 0
-2301 -2227 -2258 0
-2301 2227 2258 0
-2302 2303 2315 0
2302 -2303 0
2302 -2315 0
2303 -2304 -2314 0
-2303 2304 0
-2303 2314 0
-2304 2305 2310 0
-2304 2305 2313 0
2304 -2305 0
2304 -2310 -2313 0
2305 -2306 -2308 0
-2305 2306 0
-2305 2308 0
-2306 8376 2307 0
-2306 -8376 -2307 0
2306 -8376 2307 0
2306 8376 -2307 0
-2307 -8371 8385 0
-2307 8371 8384 0
-2307 8371 8376 0
2307 -8371 -8385 0
2307 8371 -8376 -8384 0
-2308 8379 2309 0
-2308 -8379 -2309 0
2308 -8379 2309 0
2308 8379 -2309 0
-2309 8380 8381 0
-2309 1655 1713 0
-2309 8381 1655 0
-2309 8380 1713 0
2309 -8380 -1655 0
2309 -8381 -1713 0
-2310 8383 2311 0
-2310 -8383 -2311 0
2310 -8383 2311 0
2310 8383 -2311 0
-2311 8377 2312 0
-2311 1593 2312 0
2311 -2312 0
2311 -8377 -1593 0
2312 -8375 -1544 0
-2312 8375 0
-2312 1544 0
2313 -2306 2308 0
2313 2306 -2308 0
-2313 2306 2308 0
-2313 -2306 -2308 0
-2314 -2278 -2281 0
-2314 2278 2281 0
2314 2278 -2281 0
2314 -2278 2281 0
2315 -2316 -2318 0
-2315 2316 0
-2315 2318 0
2316 2317 -2290 0
2316 -2317 2290 0
-2316 -2317 -2290 0
-2316 2317 2290 0
2317 -8465 2289 0
-2317 8465 0
-2317 -2289 0
2318 -2304 2314 0
2318 2304 -2314 0
-2318 2304 2314 0
-2318 -2304 -2314 0
-2319 -2291 -2292 0
-2319 2291 2292 0
2319 2291 -2292 0
2319 -2291 2292 0
-2320 -2293 -2294 0
-2320 2293 2294 0
2320 2293 -2294 0
2320 -2293 2294 0
2321 -2300 2320 0
2321 2300 -2320 0
-2321 2300 2320 0
-2321 -2300 -2320 0
-2322 2323 2344 0
-2322 2323 2345 0
2322 -2323 0
2322 -2344 -2345 0
2323 -2324 -2342 0
-2323 2324 0
-2323 2342 0
2324 -2325 -2341 0
-2324 2325 0
-2324 2341 0
-2325 2326 2328 0
-2325 2289 2328 0
2325 -2328 0
2325 -2289 -2326 0
-2326 8477 2327 0
-2326 -8477 -2327 0
2326 -8477 2327 0
2326 8477 -2327 0
-2327 8372 8373 0
-2327 1481 1521 0
-2327 8373 1481 0
-2327 8372 1521 0
2327 -8372 -1481 0
2327 -8373 -1521 0
2328 -2329 -2330 0
-2328 2329 0
-2328 2330 0
-2329 2289 2326 0
-2329 -2289 -2326 0
2329 -2289 2326 0
2329 2289 -2326 0
-2330 2331 2336 0
2330 -2331 0
2330 -2336 0
2331 -2332 -2334 0
-2331 2332 0
-2331 2334 0
-2332 8376 2333 0
-2332 -8376 -2333 0
2332 -8376 2333 0
2332 8376 -2333 0
-2333 -8371 8384 0
-2333 8371 8381 0
-2333 8371 8376 0
2333 -8371 -8384 0
2333 8371 -8376 -8381 0
-2334 8379 2335 0
-2334 -8379 -2335 0
2334 -8379 2335 0
2334 8379 -2335 0
-2335 8377 8380 0
-2335 1655 1713 0
-2335 8380 1655 0
-2335 8377 1713 0
2335 -8377 -1655 0
2335 -8380 -1713 0
2336 -2337 -2340 0
-2336 2337 0
-2336 2340 0
-2337 8383 2338 0
-2337 -8383 -2338 0
2337 -8383 2338 0
2337 8383 -2338 0
-2338 8375 2339 0
-2338 1593 2339 0
2338 -2339 0
2338 -8375 -1593 0
2339 -8373 -1544 0
-2339 8373 0
-2339 1544 0
2340 -2332 2334 0
2340 2332 -2334 0
-2340 2332 2334 0
-2340 -2332 -2334 0
2341 2316 -2318 0
2341 -2316 2318 0
-2341 -2316 -2318 0
-2341 2316 2318 0
2342 -2319 2343 0
2342 2319 -2343 0
-2342 2319 2343 0
-2342 -2319 -2343 0
-2343 2301 2302 0
-2343 -2301 -2302 0
2343 -2301 2302 0
2343 2301 -2302 0
2344 2324 -2342 0
2344 -2324 2342 0
-2344 -2324 -2342 0
-2344 2324 2342 0
-2345 2346 2362 0
-2345 2346 2363 0
2345 -2346 0
2345 -2362 -2363 0
2346 -2347 -2361 0
-2346 2347 0
-2346 2361 0
-2347 2348 2358 0
2347 -2348 0
2347 -2358 0
2348 -2349 -2350 0
-2348 2349 0
-2348 2350 0
-2349 -2310 -2313 0
-2349 2310 2313 0
2349 2310 -2313 0
2349 -2310 2313 0
-2350 2353 2355 0
-2350 2351 2355 0
2350 -2355 0
2350 -2351 -2353 0
2351 -8477 2352 0
-2351 8477 0
-2351 -2352 0
2352 -8370 -1521 0
-2352 8370 0
-2352 1521 0
-2353 8477 2354 0
-2353 -8477 -2354 0
2353 -8477 2354 0
2353 8477 -2354 0
-2354 8370 8372 0
-2354 1481 1521 0
-2354 8372 1481 0
-2354 8370 1521 0
2354 -8370 -1481 0
2354 -8372 -1521 0
2355 -2356 -2357 0
-2355 2356 0
-2355 2357 0
-2356 2351 2353 0
-2356 -2351 -2353 0
2356 -2351 2353 0
2356 2351 -2353 0
-2357 -2337 -2340 0
-2357 2337 2340 0
2357 2337 -2340 0
2357 -2337 2340 0
2358 -2359 -2360 0
-2358 2359 0
-2358 2360 0
2359 -2329 2330 0
2359 2329 -2330 0
-2359 2329 2330 0
-2359 -2329 -2330 0
2360 -2349 2350 0
2360 2349 -2350 0
-2360 2349 2350 0
-2360 -2349 -2350 0
-2361 -2325 -2341 0
-2361 2325 2341 0
2361 2325 -2341 0
2361 -2325 2341 0
2362 -2347 2361 0
2362 2347 -2361 0
-2362 2347 2361 0
-2362 -2347 -2361 0
-2363 2364 2378 0
-2363 2364 2379 0
2363 -2364 0
2363 -2378 -2379 0
2364 -2365 -2377 0
-2364 2365 0
-2364 2377 0
2365 -2366 -2376 0
-2365 2366 0
-2365 2376 0
-2366 2367 2372 0
-2366 2367 2375 0
2366 -2367 0
2366 -2372 -2375 0
2367 -2368 -2370 0
-2367 2368 0
-2367 2370 0
-2368 8376 2369 0
-2368 -8376 -2369 0
2368 -8376 2369 0
2368 8376 -2369 0
-2369 -8371 8381 0
-2369 8371 8380 0
-2369 8371 8376 0
2369 -8371 -8381 0
2369 8371 -8376 -8380 0
-2370 8379 2371 0
-2370 -8379 -2371 0
2370 -8379 2371 0
2370 8379 -2371 0
-2371 8375 8377 0
-2371 1655 1713 0
-2371 8377 1655 0
-2371 8375 1713 0
2371 -8375 -1655 0
2371 -8377 -1713 0
-2372 8383 2373 0
-2372 -8383 -2373 0
2372 -8383 2373 0
2372 8383 -2373 0
-2373 8373 2374 0
-2373 1593 2374 0
2373 -2374 0
2373 -8373 -1593 0
2374 -8372 -1544 0
-2374 8372 0
-2374 1544 0
2375 -2368 2370 0
2375 2368 -2370 0
-2375 2368 2370 0
-2375 -2368 -2370 0
2376 -2356 2357 0
2376 2356 -2357 0
-2376 2356 2357 0
-2376 -2356 -2357 0
2377 2359 -2360 0
2377 -2359 2360 0
-2377 -2359 -2360 0
-2377 2359 2360 0
2378 2365 -2377 0
2378 -2365 2377 0
-2378 -2365 -2377 0
-2378 2365 2377 0
-2379 2380 2395 0
-2379 2380 2396 0
2379 -2380 0
2379 -2395 -2396 0
2380 -2381 -2394 0
-2380 2381 0
-2380 2394 0
-2381 2382 2391 0
-2381 2352 2391 0
2381 -2391 0
2381 -2352 -2382 0
-2382 2383 2388 0
-2382 2383 2390 0
2382 -2383 0
2382 -2388 -2390 0
2383 -2384 -2386 0
-2383 2384 0
-2383 2386 0
-2384 8376 2385 0
-2384 -8376 -2385 0
2384 -8376 2385 0
2384 8376 -2385 0
-2385 -8371 8380 0
-2385 8371 8377 0
-2385 8371 8376 0
2385 -8371 -8380 0
2385 8371 -8376 -8377 0
-2386 8379 2387 0
-2386 -8379 -2387 0
2386 -8379 2387 0
2386 8379 -2387 0
-2387 8373 8375 0
-2387 1655 1713 0
-2387 8375 1655 0
-2387 8373 1713 0
2387 -8373 -1655 0
2387 -8375 -1713 0
-2388 8383 2389 0
-2388 -8383 -2389 0
2388 -8383 2389 0
2388 8383 -2389 0
-2389 8370 8372 0
-2389 1544 1593 0
-2389 8372 1544 0
-2389 8370 1593 0
2389 -8370 -1544 0
2389 -8372 -1593 0
2390 -2384 2386 0
2390 2384 -2386 0
-2390 2384 2386 0
-2390 -2384 -2386 0
2391 -2392 -2393 0
-2391 2392 0
-2391 2393 0
-2392 -2372 -2375 0
-2392 2372 2375 0
2392 2372 -2375 0
2392 -2372 2375 0
-2393 2352 2382 0
-2393 -2352 -2382 0
2393 -2352 2382 0
2393 2352 -2382 0
-2394 -2366 -2376 0
-2394 2366 2376 0
2394 2366 -2376 0
2394 -2366 2376 0
2395 -2381 2394 0
2395 2381 -2394 0
-2395 2381 2394 0
-2395 -2381 -2394 0
-2396 2397 2403 0
-2396 2397 2434 0
2396 -2397 0
2396 -2403 -2434 0
2397 -2398 -2402 0
-2397 2398 0
-2397 2402 0
2398 -2399 -2401 0
-2398 2399 0
-2398 2401 0
2399 -8383 2400 0
-2399 8383 0
-2399 -2400 0
2400 -8370 -1593 0
-2400 8370 0
-2400 1593 0
-2401 -2388 -2390 0
-2401 2388 2390 0
2401 2388 -2390 0
2401 -2388 2390 0
2402 -2392 2393 0
2402 2392 -2393 0
-2402 2392 2393 0
-2402 -2392 -2393 0
-2403 2404 2414 0
-2403 2404 2433 0
2403 -2404 0
2403 -2414 -2433 0
2404 -2405 -2413 0
-2404 2405 0
-2404 2413 0
-2405 2406 2411 0
2405 -2406 0
2405 -2411 0
2406 -2407 -2409 0
-2406 2407 0
-2406 2409 0
-2407 8376 2408 0
-2407 -8376 -2408 0
2407 -8376 2408 0
2407 8376 -2408 0
-2408 -8371 8377 0
-2408 8371 8376 0
-2408 8371 8375 0
2408 -8371 -8377 0
2408 8371 -8375 -8376 0
-2409 8379 2410 0
-2409 -8379 -2410 0
2409 -8379 2410 0
2409 8379 -2410 0
-2410 8372 8373 0
-2410 1655 1713 0
-2410 8373 1655 0
-2410 8372 1713 0
2410 -8372 -1655 0
2410 -8373 -1713 0
2411 -2400 -2412 0
-2411 2400 0
-2411 2412 0
2412 -2407 2409 0
2412 2407 -2409 0
-2412 2407 2409 0
-2412 -2407 -2409 0
-2413 2399 2401 0
-2413 -2399 -2401 0
2413 -2399 2401 0
2413 2399 -2401 0
-2414 2424 2425 0
-2414 2415 2424 0
-2414 2415 2425 0
2414 -2415 -2424 0
2414 -2424 -2425 0
2414 -2415 -2425 0
-2415 2416 2421 0
2415 -2416 0
2415 -2421 0
2416 -2417 -2419 0
-2416 2417 0
-2416 2419 0
-2417 8376 2418 0
-2417 -8376 -2418 0
2417 -8376 2418 0
2417 8376 -2418 0
-2418 -8371 8375 0
-2418 8371 8373 0
-2418 8371 8376 0
2418 -8371 -8375 0
2418 8371 -8373 -8376 0
-2419 8379 2420 0
-2419 -8379 -2420 0
2419 -8379 2420 0
2419 8379 -2420 0
-2420 8370 8372 0
-2420 1655 1713 0
-2420 8372 1655 0
-2420 8370 1713 0
2420 -8370 -1655 0
2420 -8372 -1713 0
2421 -8379 2422 -2423 0
-2421 8379 0
-2421 -2422 0
-2421 2423 0
2422 -8370 -1713 0
-2422 8370 0
-2422 1713 0
2423 -2417 2419 0
2423 2417 -2419 0
-2423 2417 2419 0
-2423 -2417 -2419 0
2424 2400 -2412 0
2424 -2400 2412 0
-2424 -2400 -2412 0
-2424 2400 2412 0
2425 -2426 -2431 0
-2425 2426 0
-2425 2431 0
-2426 2427 2429 0
-2426 2422 2429 0
-2426 2422 2427 0
2426 -2422 -2429 0
2426 -2422 -2427 0
2426 -2427 -2429 0
-2427 8376 2428 0
-2427 -8376 -2428 0
2427 -8376 2428 0
2427 8376 -2428 0
-2428 -8371 8373 0
-2428 8371 8372 0
-2428 8371 8376 0
2428 -8371 -8373 0
2428 8371 -8372 -8376 0
2429 8370 -8376 2430 0
-2429 -8370 0
-2429 8376 0
-2429 -2430 0
2430 -8371 -8372 0
-2430 8371 0
-2430 8372 0
2431 2432 -2423 0
2431 -2432 2423 0
-2431 -2432 -2423 0
-2431 2432 2423 0
2432 -8379 2422 0
-2432 8379 0
-2432 -2422 0
2433 -2405 2413 0
2433 2405 -2413 0
-2433 2405 2413 0
-2433 -2405 -2413 0
2434 2398 -2402 0
2434 -2398 2402 0
-2434 -2398 -2402 0
-2434 2398 2402 0
-2435 -2436 -2448 0
-2435 2436 2448 0
2435 2436 -2448 0
2435 -2436 2448 0
-2436 2437 2439 0
-2436 -2437 -2439 0
2436 -2437 2439 0
2436 2437 -2439 0
2437 -8369 -2438 0
-2437 8369 0
-2437 2438 0
2438 -8368 -8409 0
-2438 8368 0
-2438 8409 0
-2439 -8368 2440 0
-2439 2440 2442 0
-2439 -8368 2442 0
2439 8368 -2442 0
2439 -2440 -2442 0
2439 8368 -2440 0
-2440 2438 2441 0
-2440 8369 8404 0
-2440 8404 2441 0
-2440 8369 2438 0
2440 -8404 -2438 0
2440 -8369 -2441 0
2441 8368 -8409 0
2441 -8368 8409 0
-2441 -8368 -8409 0
-2441 8368 8409 0
-2442 2443 2445 0
2442 -2443 0
2442 -2445 0
-2443 8404 2444 0
-2443 2441 2444 0
2443 -2444 0
2443 -8404 -2441 0
2444 -8367 -2438 0
-2444 8367 0
-2444 2438 0
2445 8368 -2446 0
2445 -8368 2446 0
-2445 -8368 -2446 0
-2445 8368 2446 0
2446 -8369 -2447 0
-2446 8369 0
-2446 2447 0
-2447 -8366 -8368 0
-2447 8368 8407 0
-2447 8366 -8407 0
2447 8366 -8368 8407 0
2447 -8366 8368 -8407 0
2448 -2449 -2460 0
2448 2451 -2460 0
-2448 2460 0
-2448 2449 -2451 0
2449 -2450 2442 0
2449 2450 -2442 0
-2449 2450 2442 0
-2449 -2450 -2442 0
-2450 8368 8369 0
-2450 -8369 8409 0
-2450 -8368 -8404 -8409 0
2450 8368 -8369 -8409 0
2450 -8368 8404 -8409 0
2450 -8368 8369 8409 0
2451 2452 -2453 0
-2451 -2452 0
-2451 2453 0
-2452 -2443 -2445 0
-2452 2443 2445 0
2452 2443 -2445 0
2452 -2443 2445 0
-2453 -8407 2454 0
-2453 2454 2458 0
-2453 -8407 2458 0
2453 8407 -2458 0
2453 -2454 -2458 0
2453 8407 -2454 0
-2454 8368 2455 0
-2454 -8368 -2455 0
2454 -8368 2455 0
2454 8368 -2455 0
-2455 8369 2457 0
-2455 2456 2457 0
2455 -2457 0
2455 -8369 -2456 0
2456 8366 -8407 0
2456 -8366 8407 0
-2456 -8366 -8407 0
-2456 8366 8407 0
2457 -8404 -2447 0
-2457 8404 0
-2457 2447 0
-2458 8367 2459 0
-2458 2441 2459 0
2458 -2459 0
2458 -8367 -2441 0
2459 -8413 -2438 0
-2459 8413 0
-2459 2438 0
-2460 2461 2462 0
2460 -2461 0
2460 -2462 0
2461 2449 -2451 0
2461 -2449 2451 0
-2461 -2449 -2451 0
-2461 2449 2451 0
2462 2463 -2492 0
2462 2463 -2493 0
-2462 -2463 0
-2462 2492 2493 0
2463 2464 -2465 0
-2463 -2464 0
-2463 2465 0
2464 -2452 2453 0
2464 2452 -2453 0
-2464 2452 2453 0
-2464 -2452 -2453 0
-2465 2466 -2489 0
-2465 2466 2491 0
2465 -2466 0
2465 2489 -2491 0
2466 -2467 -2478 0
-2466 2467 0
-2466 2478 0
-2467 2468 2473 0
-2467 2473 2476 0
-2467 2468 2476 0
2467 -2473 -2476 0
2467 -2468 -2473 0
2467 -2468 -2476 0
2468 8407 -2469 0
2468 -8407 2469 0
-2468 -8407 -2469 0
-2468 8407 2469 0
2469 -8369 -2470 0
-2469 8369 0
-2469 2470 0
-2470 8407 2472 0
-2470 -8407 -2471 0
2470 -8407 2471 0
2470 8407 -2472 0
-2471 8399 8437 0
2471 -8399 0
2471 -8437 0
2472 -8399 -8437 0
-2472 8399 0
-2472 8437 0
-2473 8368 2474 0
-2473 -8368 -2474 0
2473 -8368 2474 0
2473 8368 -2474 0
-2474 8404 2475 0
-2474 2456 2475 0
2474 -2475 0
2474 -8404 -2456 0
2475 -8367 -2447 0
-2475 8367 0
-2475 2447 0
-2476 8413 2477 0
-2476 2441 2477 0
2476 -2477 0
2476 -8413 -2441 0
2477 -8434 -2438 0
-2477 8434 0
-2477 2438 0
-2478 2479 2487 0
2478 -2479 0
2478 -2487 0
-2479 -8399 2480 0
-2479 2480 2484 0
-2479 -8399 2484 0
2479 8399 -2484 0
2479 -2480 -2484 0
2479 8399 -2480 0
-2480 8407 2481 0
-2480 -8407 -2481 0
2480 -8407 2481 0
2480 8407 -2481 0
-2481 8369 2483 0
-2481 2482 2483 0
2481 -2483 0
2481 -8369 -2482 0
2482 -2471 2472 0
-2482 2471 0
-2482 -2472 0
2483 -8404 -2470 0
-2483 8404 0
-2483 2470 0
-2484 8368 2485 0
-2484 -8368 -2485 0
2484 -8368 2485 0
2484 8368 -2485 0
-2485 8367 2486 0
-2485 2456 2486 0
2485 -2486 0
2485 -8367 -2456 0
2486 -8413 -2447 0
-2486 8413 0
-2486 2447 0
2487 -2476 2488 0
2487 2476 -2488 0
-2487 2476 2488 0
-2487 -2476 -2488 0
-2488 2468 2473 0
-2488 -2468 -2473 0
2488 -2468 2473 0
2488 2468 -2473 0
2489 -2458 2490 0
2489 2458 -2490 0
-2489 2458 2490 0
-2489 -2458 -2490 0
-2490 8407 2454 0
-2490 -8407 -2454 0
2490 -8407 2454 0
2490 8407 -2454 0
2491 -2467 2478 0
2491 2467 -2478 0
-2491 2467 2478 0
-2491 -2467 -2478 0
-2492 2464 2465 0
-2492 -2464 -2465 0
2492 -2464 2465 0
2492 2464 -2465 0
2493 -2514 -2515 0
2493 2494 -2515 0
-2493 2515 0
-2493 -2494 2514 0
2494 2495 -2496 0
-2494 -2495 0
-2494 2496 0
-2495 -2479 -2487 0
-2495 2479 2487 0
2495 2479 -2487 0
2495 -2479 2487 0
-2496 2497 2511 0
-2496 2497 2513 0
2496 -2497 0
2496 -2511 -2513 0
2497 -2498 -2500 0
-2497 2498 0
-2497 2500 0
-2498 8434 2499 0
-2498 2441 2499 0
2498 -2499 0
2498 -8434 -2441 0
2499 -8441 -2438 0
-2499 8441 0
-2499 2438 0
-2500 2501 2509 0
-2500 2501 2504 0
-2500 2504 2509 0
2500 -2504 -2509 0
2500 -2501 -2509 0
2500 -2501 -2504 0
-2501 8368 2502 0
-2501 -8368 -2502 0
2501 -8368 2502 0
2501 8368 -2502 0
-2502 8413 2503 0
-2502 2456 2503 0
2502 -2503 0
2502 -8413 -2456 0
2503 -8434 -2447 0
-2503 8434 0
-2503 2447 0
2504 8399 -2505 0
2504 -8399 2505 0
-2504 -8399 -2505 0
-2504 8399 2505 0
2505 -8369 -2506 0
-2505 8369 0
-2505 2506 0
-2506 8399 2508 0
-2506 -8399 -2507 0
2506 -8399 2507 0
2506 8399 -2508 0
-2507 8439 8443 0
2507 -8439 0
2507 -8443 0
2508 -8439 -8443 0
-2508 8439 0
-2508 8443 0
-2509 8407 2510 0
-2509 -8407 -2510 0
2509 -8407 2510 0
2509 8407 -2510 0
-2510 8367 8404 0
-2510 2470 2482 0
-2510 8404 2470 0
-2510 8367 2482 0
2510 -8367 -2470 0
2510 -8404 -2482 0
-2511 8441 2512 0
-2511 2441 2512 0
2511 -2512 0
2511 -8441 -2441 0
2512 -8429 -2438 0
-2512 8429 0
-2512 2438 0
2513 -2498 2500 0
2513 2498 -2500 0
-2513 2498 2500 0
-2513 -2498 -2500 0
2514 2489 -2491 0
2514 -2489 2491 0
-2514 -2489 -2491 0
-2514 2489 2491 0
-2515 2516 2517 0
2515 -2516 0
2515 -2517 0
2516 2494 -2514 0
2516 -2494 2514 0
-2516 -2494 -2514 0
-2516 2494 2514 0
2517 2518 -2555 0
2517 2518 -2556 0
-2517 -2518 0
-2517 2555 2556 0
2518 2519 -2520 0
-2518 -2519 0
-2518 2520 0
2519 -2495 2496 0
2519 2495 -2496 0
-2519 2495 2496 0
-2519 -2495 -2496 0
-2520 2521 2553 0
-2520 2521 -2554 0
2520 -2521 0
2520 -2553 2554 0
2521 2522 -2524 0
-2521 -2522 0
-2521 2524 0
2522 -2484 2523 0
2522 2484 -2523 0
-2522 2484 2523 0
-2522 -2484 -2523 0
-2523 8399 2480 0
-2523 -8399 -2480 0
2523 -8399 2480 0
2523 8399 -2480 0
-2524 2525 2549 0
2524 -2525 0
2524 -2549 0
2525 -2526 -2533 0
-2525 2526 0
-2525 2533 0
-2526 -8439 2527 0
-2526 2527 2530 0
-2526 -8439 2530 0
2526 8439 -2530 0
2526 -2527 -2530 0
2526 8439 -2527 0
-2527 8399 2528 0
-2527 -8399 -2528 0
2527 -8399 2528 0
2527 8399 -2528 0
-2528 8369 8404 0
-2528 2506 2529 0
-2528 8404 2529 0
-2528 8369 2506 0
2528 -8369 -2529 0
2528 -8404 -2506 0
2529 -2507 2508 0
-2529 2507 0
-2529 -2508 0
-2530 8407 2531 0
-2530 -8407 -2531 0
2530 -8407 2531 0
2530 8407 -2531 0
-2531 8367 2532 0
-2531 2482 2532 0
2531 -2532 0
2531 -8367 -2482 0
2532 -8413 -2470 0
-2532 8413 0
-2532 2470 0
-2533 2534 2540 0
-2533 2534 2541 0
2533 -2534 0
2533 -2540 -2541 0
2534 -2535 -2537 0
-2534 2535 0
-2534 2537 0
-2535 8429 2536 0
-2535 2441 2536 0
2535 -2536 0
2535 -8429 -2441 0
2536 -8411 -2438 0
-2536 8411 0
-2536 2438 0
-2537 8368 2538 0
-2537 -8368 -2538 0
2537 -8368 2538 0
2537 8368 -2538 0
-2538 8434 2539 0
-2538 2456 2539 0
2538 -2539 0
2538 -8434 -2456 0
2539 -8441 -2447 0
-2539 8441 0
-2539 2447 0
2540 -2535 2537 0
2540 2535 -2537 0
-2540 2535 2537 0
-2540 -2535 -2537 0
-2541 2542 2547 0
-2541 2542 2544 0
-2541 2544 2547 0
2541 -2544 -2547 0
2541 -2542 -2547 0
2541 -2542 -2544 0
-2542 8407 2543 0
-2542 -8407 -2543 0
2542 -8407 2543 0
2542 8407 -2543 0
-2543 8413 8434 0
-2543 2470 2482 0
-2543 8434 2482 0
-2543 8413 2470 0
2543 -8413 -2482 0
2543 -8434 -2470 0
2544 8439 -2545 0
2544 -8439 2545 0
-2544 -8439 -2545 0
-2544 8439 2545 0
2545 -8369 -2546 0
-2545 8369 0
-2545 2546 0
-2546 -8416 -8439 0
-2546 8439 8450 0
-2546 8416 -8450 0
2546 8416 -8439 8450 0
2546 -8416 8439 -8450 0
-2547 8399 2548 0
-2547 -8399 -2548 0
2547 -8399 2548 0
2547 8399 -2548 0
-2548 8367 8404 0
-2548 2506 2529 0
-2548 8404 2506 0
-2548 8367 2529 0
2548 -8367 -2506 0
2548 -8404 -2529 0
2549 -2550 -2552 0
-2549 2550 0
-2549 2552 0
2550 -2501 2551 0
2550 2501 -2551 0
-2550 2501 2551 0
-2550 -2501 -2551 0
-2551 2504 2509 0
-2551 -2504 -2509 0
2551 -2504 2509 0
2551 2504 -2509 0
2552 -2526 2533 0
2552 2526 -2533 0
-2552 2526 2533 0
-2552 -2526 -2533 0
-2553 -2511 -2513 0
-2553 2511 2513 0
2553 2511 -2513 0
2553 -2511 2513 0
-2554 2522 2524 0
-2554 -2522 -2524 0
2554 -2522 2524 0
2554 2522 -2524 0
-2555 2519 2520 0
-2555 -2519 -2520 0
2555 -2519 2520 0
2555 2519 -2520 0
2556 2557 -2582 0
2556 2557 -2583 0
-2556 -2557 0
-2556 2582 2583 0
2557 -2558 2581 0
-2557 2558 0
-2557 -2581 0
-2558 2559 2580 0
-2558 -2511 2580 0
-2558 -2511 2559 0
2558 2511 -2580 0
2558 2511 -2559 0
2558 -2559 -2580 0
-2559 2560 2576 0
-2559 2566 2576 0
2559 -2576 0
2559 -2560 -2566 0
-2560 2561 2563 0
2560 -2561 0
2560 -2563 0
-2561 8411 2562 0
-2561 2441 2562 0
2561 -2562 0
2561 -8411 -2441 0
2562 -8418 -2438 0
-2562 8418 0
-2562 2438 0
-2563 8368 2564 0
-2563 -8368 -2564 0
2563 -8368 2564 0
2563 8368 -2564 0
-2564 8441 2565 0
-2564 2456 2565 0
2564 -2565 0
2564 -8441 -2456 0
2565 -8429 -2447 0
-2565 8429 0
-2565 2447 0
2566 -2567 -2574 0
-2566 2567 0
-2566 2574 0
-2567 -8416 2568 0
-2567 2568 2572 0
-2567 -8416 2572 0
2567 8416 -2572 0
2567 -2568 -2572 0
2567 8416 -2568 0
-2568 8439 2569 0
-2568 -8439 -2569 0
2568 -8439 2569 0
2568 8439 -2569 0
-2569 8369 2571 0
-2569 2570 2571 0
2569 -2571 0
2569 -8369 -2570 0
2570 8416 -8450 0
2570 -8416 8450 0
-2570 -8416 -8450 0
-2570 8416 8450 0
2571 -8404 -2546 0
-2571 8404 0
-2571 2546 0
-2572 8399 2573 0
-2572 -8399 -2573 0
2572 -8399 2573 0
2572 8399 -2573 0
-2573 8367 8413 0
-2573 2506 2529 0
-2573 8413 2529 0
-2573 8367 2506 0
2573 -8367 -2529 0
2573 -8413 -2506 0
2574 -2542 2575 0
2574 2542 -2575 0
-2574 2542 2575 0
-2574 -2542 -2575 0
-2575 2544 2547 0
-2575 -2544 -2547 0
2575 -2544 2547 0
2575 2544 -2547 0
2576 2577 -2579 0
-2576 -2577 0
-2576 2579 0
2577 -2530 2578 0
2577 2530 -2578 0
-2577 2530 2578 0
-2577 -2530 -2578 0
-2578 8439 2527 0
-2578 -8439 -2527 0
2578 -8439 2527 0
2578 8439 -2527 0
-2579 -2560 -2566 0
-2579 2560 2566 0
2579 2560 -2566 0
2579 -2560 2566 0
2580 2550 -2552 0
2580 -2550 2552 0
-2580 -2550 -2552 0
-2580 2550 2552 0
2581 -2553 2554 0
2581 2553 -2554 0
-2581 2553 2554 0
-2581 -2553 -2554 0
-2582 -2558 -2581 0
-2582 2558 2581 0
2582 2558 -2581 0
2582 -2558 2581 0
2583 2584 -2639 0
2583 2584 -2640 0
-2583 -2584 0
-2583 2639 2640 0
2584 2585 -2587 0
-2584 -2585 0
-2584 2587 0
2585 2580 -2586 0
2585 -2580 2586 0
-2585 -2580 -2586 0
-2585 2580 2586 0
2586 -2511 2559 0
2586 2511 -2559 0
-2586 2511 2559 0
-2586 -2511 -2559 0
-2587 2588 2636 0
2587 -2588 0
2587 -2636 0
2588 -2589 -2590 0
-2588 2589 0
-2588 2590 0
-2589 2540 2541 0
-2589 -2540 -2541 0
2589 -2540 2541 0
2589 2540 -2541 0
-2590 2591 -2634 0
-2590 2591 2635 0
2590 -2591 0
2590 2634 -2635 0
2591 -2592 -2603 0
-2591 2592 0
-2591 2603 0
-2592 2593 2600 0
-2592 2593 2602 0
2592 -2593 0
2592 -2600 -2602 0
2593 -2594 -2597 0
-2593 2594 0
-2593 2597 0
-2594 8407 2595 0
-2594 -8407 -2595 0
2594 -8407 2595 0
2594 8407 -2595 0
-2595 8434 2596 0
-2595 2482 2596 0
2595 -2596 0
2595 -8434 -2482 0
2596 -8441 -2470 0
-2596 8441 0
-2596 2470 0
-2597 8368 2598 0
-2597 -8368 -2598 0
2597 -8368 2598 0
2597 8368 -2598 0
-2598 8429 2599 0
-2598 2456 2599 0
2598 -2599 0
2598 -8429 -2456 0
2599 -8411 -2447 0
-2599 8411 0
-2599 2447 0
-2600 8418 2601 0
-2600 2441 2601 0
2600 -2601 0
2600 -8418 -2441 0
2601 -8456 -2438 0
-2601 8456 0
-2601 2438 0
2602 -2594 2597 0
2602 2594 -2597 0
-2602 2594 2597 0
-2602 -2594 -2597 0
-2603 2604 -2631 0
-2603 2604 2633 0
2603 -2604 0
2603 2631 -2633 0
2604 -2605 -2621 0
-2604 2605 0
-2604 2621 0
-2605 2613 2616 0
-2605 2606 2616 0
2605 -2616 0
2605 -2606 -2613 0
2606 8416 -2607 0
2606 -8416 2607 0
-2606 -8416 -2607 0
-2606 8416 2607 0
2607 -8369 -2608 0
-2607 8369 0
-2607 2608 0
-2608 2609 2611 0
2608 -2609 0
2608 -2611 0
2609 -8416 2610 0
-2609 8416 0
-2609 -2610 0
-2610 8431 8454 0
2610 -8431 0
2610 -8454 0
2611 8416 -2612 0
-2611 -8416 0
-2611 2612 0
2612 -8431 -8454 0
-2612 8431 0
-2612 8454 0
-2613 8439 2614 0
-2613 -8439 -2614 0
2613 -8439 2614 0
2613 8439 -2614 0
-2614 8404 2615 0
-2614 2570 2615 0
2614 -2615 0
2614 -8404 -2570 0
2615 -8367 -2546 0
-2615 8367 0
-2615 2546 0
2616 -2617 -2620 0
-2616 2617 0
-2616 2620 0
-2617 8399 2618 0
-2617 -8399 -2618 0
2617 -8399 2618 0
2617 8399 -2618 0
-2618 8413 2619 0
-2618 2529 2619 0
2618 -2619 0
2618 -8413 -2529 0
2619 -8434 -2506 0
-2619 8434 0
-2619 2506 0
-2620 2606 2613 0
-2620 -2606 -2613 0
2620 -2606 2613 0
2620 2606 -2613 0
-2621 2622 2628 0
-2621 2622 2630 0
2621 -2622 0
2621 -2628 -2630 0
2622 -2623 -2625 0
-2622 2623 0
-2622 2625 0
-2623 8407 2624 0
-2623 -8407 -2624 0
2623 -8407 2624 0
2623 8407 -2624 0
-2624 8429 8441 0
-2624 2470 2482 0
-2624 8441 2470 0
-2624 8429 2482 0
2624 -8429 -2470 0
2624 -8441 -2482 0
-2625 8368 2626 0
-2625 -8368 -2626 0
2625 -8368 2626 0
2625 8368 -2626 0
-2626 8411 2627 0
-2626 2456 2627 0
2626 -2627 0
2626 -8411 -2456 0
2627 -8418 -2447 0
-2627 8418 0
-2627 2447 0
-2628 8456 2629 0
-2628 2441 2629 0
2628 -2629 0
2628 -8456 -2441 0
2629 -8427 -2438 0
-2629 8427 0
-2629 2438 0
2630 -2623 2625 0
2630 2623 -2625 0
-2630 2623 2625 0
-2630 -2623 -2625 0
2631 -2572 2632 0
2631 2572 -2632 0
-2631 2572 2632 0
-2631 -2572 -2632 0
-2632 8416 2568 0
-2632 -8416 -2568 0
2632 -8416 2568 0
2632 8416 -2568 0
2633 -2605 2621 0
2633 2605 -2621 0
-2633 2605 2621 0
-2633 -2605 -2621 0
2634 -2561 2563 0
2634 2561 -2563 0
-2634 2561 2563 0
-2634 -2561 -2563 0
2635 -2592 2603 0
2635 2592 -2603 0
-2635 2592 2603 0
-2635 -2592 -2603 0
2636 2637 -2638 0
-2636 -2637 0
-2636 2638 0
-2637 2577 2579 0
-2637 -2577 -2579 0
2637 -2577 2579 0
2637 2577 -2579 0
2638 -2589 2590 0
2638 2589 -2590 0
-2638 2589 2590 0
-2638 -2589 -2590 0
-2639 2585 2587 0
-2639 -2585 -2587 0
2639 -2585 2587 0
2639 2585 -2587 0
2640 -2641 3645 0
-2640 2641 0
-2640 -3645 0
-2641 2642 2674 0
2641 -2642 0
2641 -2674 0
2642 -2643 2673 0
2642 2643 -2673 0
-2642 2643 2673 0
-2642 -2643 -2673 0
-2643 2644 2671 0
-2643 2644 -2672 0
2643 -2644 0
2643 -2671 2672 0
2644 -2645 -2646 0
-2644 2645 0
-2644 2646 0
-2645 -2567 -2574 0
-2645 2567 2574 0
2645 2567 -2574 0
2645 -2567 2574 0
-2646 2647 2668 0
-2646 2665 2668 0
2646 -2668 0
2646 -2647 -2665 0
-2647 2648 2655 0
2647 -2648 0
2647 -2655 0
-2648 -8454 2649 0
-2648 2649 2652 0
-2648 -8454 2652 0
2648 8454 -2652 0
2648 -2649 -2652 0
2648 8454 -2649 0
-2649 8416 2650 0
-2649 -8416 -2650 0
2649 -8416 2650 0
2649 8416 -2650 0
-2650 8369 8404 0
-2650 2608 2651 0
-2650 8404 2651 0
-2650 8369 2608 0
2650 -8369 -2651 0
2650 -8404 -2608 0
2651 -2610 2612 0
-2651 2610 0
-2651 -2612 0
-2652 8439 2653 0
-2652 -8439 -2653 0
2652 -8439 2653 0
2652 8439 -2653 0
-2653 8367 2654 0
-2653 2570 2654 0
2653 -2654 0
2653 -8367 -2570 0
2654 -8413 -2546 0
-2654 8413 0
-2654 2546 0
-2655 2656 2661 0
-2655 2656 2664 0
2655 -2656 0
2655 -2661 -2664 0
2656 -2657 -2659 0
-2656 2657 0
-2656 2659 0
-2657 8399 2658 0
-2657 -8399 -2658 0
2657 -8399 2658 0
2657 8399 -2658 0
-2658 8434 8441 0
-2658 2506 2529 0
-2658 8441 2529 0
-2658 8434 2506 0
2658 -8434 -2529 0
2658 -8441 -2506 0
-2659 8407 2660 0
-2659 -8407 -2660 0
2659 -8407 2660 0
2659 8407 -2660 0
-2660 8411 8429 0
-2660 2470 2482 0
-2660 8429 2470 0
-2660 8411 2482 0
2660 -8411 -2470 0
2660 -8429 -2482 0
-2661 8368 2662 0
-2661 -8368 -2662 0
2661 -8368 2662 0
2661 8368 -2662 0
-2662 8418 2663 0
-2662 2456 2663 0
2662 -2663 0
2662 -8418 -2456 0
2663 -8456 -2447 0
-2663 8456 0
-2663 2447 0
2664 -2657 2659 0
2664 2657 -2659 0
-2664 2657 2659 0
-2664 -2657 -2659 0
2665 -2666 -2667 0
-2665 2666 0
-2665 2667 0
2666 -2617 2620 0
2666 2617 -2620 0
-2666 2617 2620 0
-2666 -2617 -2620 0
-2667 -2628 -2630 0
-2667 2628 2630 0
2667 2628 -2630 0
2667 -2628 2630 0
2668 -2669 -2670 0
-2668 2669 0
-2668 2670 0
-2669 -2600 -2602 0
-2669 2600 2602 0
2669 2600 -2602 0
2669 -2600 2602 0
-2670 -2647 -2665 0
-2670 2647 2665 0
2670 2647 -2665 0
2670 -2647 2665 0
2671 -2645 2646 0
2671 2645 -2646 0
-2671 2645 2646 0
-2671 -2645 -2646 0
2672 2634 -2635 0
2672 -2634 2635 0
-2672 -2634 -2635 0
-2672 2634 2635 0
-2673 -2637 -2638 0
-2673 2637 2638 0
2673 2637 -2638 0
2673 -2637 2638 0
2674 2675 -2719 0
2674 2675 -2720 0
-2674 -2675 0
-2674 2719 2720 0
2675 2676 -2677 0
-2675 -2676 0
-2675 2677 0
2676 2671 -2672 0
2676 -2671 2672 0
-2676 -2671 -2672 0
-2676 2671 2672 0
-2677 2678 2716 0
2677 -2678 0
2677 -2716 0
2678 2679 -2680 0
-2678 -2679 0
-2678 2680 0
2679 2631 -2633 0
2679 -2631 2633 0
-2679 -2631 -2633 0
-2679 2631 2633 0
-2680 2681 -2714 0
-2680 2681 2715 0
2680 -2681 0
2680 2714 -2715 0
2681 -2682 -2708 0
-2681 2682 0
-2681 2708 0
-2682 2683 2697 0
-2682 2683 2707 0
2682 -2683 0
2682 -2697 -2707 0
2683 -2684 -2686 0
-2683 2684 0
-2683 2686 0
-2684 8427 2685 0
-2684 2441 2685 0
2684 -2685 0
2684 -8427 -2441 0
2685 -8462 -2438 0
-2685 8462 0
-2685 2438 0
-2686 2687 2692 0
-2686 2692 2694 0
-2686 2687 2694 0
2686 -2692 -2694 0
2686 -2687 -2692 0
2686 -2687 -2694 0
2687 8454 -2688 0
2687 -8454 2688 0
-2687 -8454 -2688 0
-2687 8454 2688 0
2688 -8369 -2689 0
-2688 8369 0
-2688 2689 0
-2689 8454 2691 0
-2689 -8454 -2690 0
2689 -8454 2690 0
2689 8454 -2691 0
-2690 8394 8460 0
2690 -8394 0
2690 -8460 0
2691 -8394 -8460 0
-2691 8394 0
-2691 8460 0
-2692 8416 2693 0
-2692 -8416 -2693 0
2692 -8416 2693 0
2692 8416 -2693 0
-2693 8367 8404 0
-2693 2608 2651 0
-2693 8404 2608 0
-2693 8367 2651 0
2693 -8367 -2608 0
2693 -8404 -2651 0
-2694 8439 2695 0
-2694 -8439 -2695 0
2694 -8439 2695 0
2694 8439 -2695 0
-2695 8413 2696 0
-2695 2570 2696 0
2695 -2696 0
2695 -8413 -2570 0
2696 -8434 -2546 0
-2696 8434 0
-2696 2546 0
-2697 2698 2703 0
-2697 2698 2706 0
2697 -2698 0
2697 -2703 -2706 0
2698 -2699 -2701 0
-2698 2699 0
-2698 2701 0
-2699 8399 2700 0
-2699 -8399 -2700 0
2699 -8399 2700 0
2699 8399 -2700 0
-2700 8429 8441 0
-2700 2506 2529 0
-2700 8441 2506 0
-2700 8429 2529 0
2700 -8429 -2506 0
2700 -8441 -2529 0
-2701 8407 2702 0
-2701 -8407 -2702 0
2701 -8407 2702 0
2701 8407 -2702 0
-2702 8411 8418 0
-2702 2470 2482 0
-2702 8418 2482 0
-2702 8411 2470 0
2702 -8411 -2482 0
2702 -8418 -2470 0
-2703 8368 2704 0
-2703 -8368 -2704 0
2703 -8368 2704 0
2703 8368 -2704 0
-2704 8456 2705 0
-2704 2456 2705 0
2704 -2705 0
2704 -8456 -2456 0
2705 -8427 -2447 0
-2705 8427 0
-2705 2447 0
2706 -2699 2701 0
2706 2699 -2701 0
-2706 2699 2701 0
-2706 -2699 -2701 0
2707 -2684 2686 0
2707 2684 -2686 0
-2707 2684 2686 0
-2707 -2684 -2686 0
-2708 2709 -2711 0
-2708 -2711 2713 0
-2708 2709 2713 0
2708 -2709 -2713 0
2708 2711 -2713 0
2708 -2709 2711 0
-2709 8462 2710 0
-2709 2441 2710 0
2709 -2710 0
2709 -8462 -2441 0
2710 -8452 -2438 0
-2710 8452 0
-2710 2438 0
2711 -2652 2712 0
2711 2652 -2712 0
-2711 2652 2712 0
-2711 -2652 -2712 0
-2712 8454 2649 0
-2712 -8454 -2649 0
2712 -8454 2649 0
2712 8454 -2649 0
-2713 -2661 -2664 0
-2713 2661 2664 0
2713 2661 -2664 0
2713 -2661 2664 0
2714 -2648 2655 0
2714 2648 -2655 0
-2714 2648 2655 0
-2714 -2648 -2655 0
2715 -2682 2708 0
2715 2682 -2708 0
-2715 2682 2708 0
-2715 -2682 -2708 0
2716 -2717 2718 0
-2716 2717 0
-2716 -2718 0
2717 -2669 2670 0
2717 2669 -2670 0
-2717 2669 2670 0
-2717 -2669 -2670 0
-2718 2679 2680 0
-2718 -2679 -2680 0
2718 -2679 2680 0
2718 2679 -2680 0
-2719 2676 2677 0
-2719 -2676 -2677 0
2719 -2676 2677 0
2719 2676 -2677 0
2720 2721 -2774 0
2720 -2773 -2774 0
-2720 2774 0
-2720 -2721 2773 0
-2721 2722 -2771 0
-2721 2722 2772 0
2721 -2722 0
2721 2771 -2772 0
2722 -2723 -2724 0
-2722 2723 0
-2722 2724 0
-2723 2666 2667 0
-2723 -2666 -2667 0
2723 -2666 2667 0
2723 2666 -2667 0
-2724 2725 2769 0
-2724 2725 2770 0
2724 -2725 0
2724 -2769 -2770 0
2725 -2726 -2765 0
-2725 2726 0
-2725 2765 0
-2726 2727 2744 0
-2726 2727 2745 0
2726 -2727 0
2726 -2744 -2745 0
2727 -2728 -2735 0
-2727 2728 0
-2727 2735 0
-2728 -8460 2729 0
-2728 2729 2732 0
-2728 -8460 2732 0
2728 8460 -2732 0
2728 -2729 -2732 0
2728 8460 -2729 0
-2729 8454 2730 0
-2729 -8454 -2730 0
2729 -8454 2730 0
2729 8454 -2730 0
-2730 8369 8404 0
-2730 2689 2731 0
-2730 8404 2731 0
-2730 8369 2689 0
2730 -8369 -2731 0
2730 -8404 -2689 0
2731 -2690 2691 0
-2731 2690 0
-2731 -2691 0
-2732 8416 2733 0
-2732 -8416 -2733 0
2732 -8416 2733 0
2732 8416 -2733 0
-2733 8367 2734 0
-2733 2651 2734 0
2733 -2734 0
2733 -8367 -2651 0
2734 -8413 -2608 0
-2734 8413 0
-2734 2608 0
-2735 2736 2741 0
-2735 2736 2743 0
2735 -2736 0
2735 -2741 -2743 0
2736 -2737 -2739 0
-2736 2737 0
-2736 2739 0
-2737 8439 2738 0
-2737 -8439 -2738 0
2737 -8439 2738 0
2737 8439 -2738 0
-2738 8434 8441 0
-2738 2546 2570 0
-2738 8441 2570 0
-2738 8434 2546 0
2738 -8434 -2570 0
2738 -8441 -2546 0
-2739 8399 2740 0
-2739 -8399 -2740 0
2739 -8399 2740 0
2739 8399 -2740 0
-2740 8411 8429 0
-2740 2506 2529 0
-2740 8429 2506 0
-2740 8411 2529 0
2740 -8411 -2506 0
2740 -8429 -2529 0
-2741 8407 2742 0
-2741 -8407 -2742 0
2741 -8407 2742 0
2741 8407 -2742 0
-2742 8418 8456 0
-2742 2470 2482 0
-2742 8456 2482 0
-2742 8418 2470 0
2742 -8418 -2482 0
2742 -8456 -2470 0
2743 -2737 2739 0
2743 2737 -2739 0
-2743 2737 2739 0
-2743 -2737 -2739 0
2744 -2728 2735 0
2744 2728 -2735 0
-2744 2728 2735 0
-2744 -2728 -2735 0
-2745 2746 2752 0
-2745 2746 2753 0
2745 -2746 0
2745 -2752 -2753 0
2746 -2747 -2749 0
-2746 2747 0
-2746 2749 0
-2747 8452 2748 0
-2747 2441 2748 0
2747 -2748 0
2747 -8452 -2441 0
2748 -8389 -2438 0
-2748 8389 0
-2748 2438 0
-2749 8368 2750 0
-2749 -8368 -2750 0
2749 -8368 2750 0
2749 8368 -2750 0
-2750 8427 2751 0
-2750 2456 2751 0
2750 -2751 0
2750 -8427 -2456 0
2751 -8462 -2447 0
-2751 8462 0
-2751 2447 0
2752 -2747 2749 0
2752 2747 -2749 0
-2752 2747 2749 0
-2752 -2747 -2749 0
-2753 2758 2760 0
-2753 8460 2754 2760 0
-2753 -8460 -2754 2760 0
2753 -2760 0
2753 8460 -2754 -2758 0
2753 -8460 2754 -2758 0
2754 -8369 -2755 0
-2754 8369 0
-2754 2755 0
-2755 8460 2757 0
-2755 -8460 -2756 0
2755 -8460 2756 0
2755 8460 -2757 0
-2756 8391 8425 0
2756 -8391 0
2756 -8425 0
2757 -8391 -8425 0
-2757 8391 0
-2757 8425 0
-2758 8454 2759 0
-2758 -8454 -2759 0
2758 -8454 2759 0
2758 8454 -2759 0
-2759 8367 8404 0
-2759 2689 2731 0
-2759 8404 2689 0
-2759 8367 2731 0
2759 -8367 -2689 0
2759 -8404 -2731 0
2760 -2761 -2763 0
-2760 2761 0
-2760 2763 0
-2761 8416 2762 0
-2761 -8416 -2762 0
2761 -8416 2762 0
2761 8416 -2762 0
-2762 8413 8434 0
-2762 2608 2651 0
-2762 8434 2651 0
-2762 8413 2608 0
2762 -8413 -2651 0
2762 -8434 -2608 0
-2763 2764 2758 0
-2763 -2764 -2758 0
2763 -2764 2758 0
2763 2764 -2758 0
2764 8460 -2754 0
2764 -8460 2754 0
-2764 -8460 -2754 0
-2764 8460 2754 0
-2765 2766 2768 0
-2765 -2709 2766 0
-2765 -2709 2768 0
2765 2709 -2766 0
2765 -2766 -2768 0
2765 2709 -2768 0
2766 -2694 2767 0
2766 2694 -2767 0
-2766 2694 2767 0
-2766 -2694 -2767 0
-2767 2687 2692 0
-2767 -2687 -2692 0
2767 -2687 2692 0
2767 2687 -2692 0
-2768 -2703 -2706 0
-2768 2703 2706 0
2768 2703 -2706 0
2768 -2703 2706 0
-2769 -2697 -2707 0
-2769 2697 2707 0
2769 2697 -2707 0
2769 -2697 2707 0
2770 -2726 2765 0
2770 2726 -2765 0
-2770 2726 2765 0
-2770 -2726 -2765 0
2771 2714 -2715 0
2771 -2714 2715 0
-2771 -2714 -2715 0
-2771 2714 2715 0
2772 -2723 2724 0
2772 2723 -2724 0
-2772 2723 2724 0
-2772 -2723 -2724 0
-2773 2717 2718 0
-2773 -2717 -2718 0
2773 -2717 2718 0
2773 2717 -2718 0
-2774 2775 2776 0
2774 -2775 0
2774 -2776 0
2775 -2721 2773 0
2775 2721 -2773 0
-2775 2721 2773 0
-2775 -2721 -2773 0
2776 2777 -2823 0
2776 2777 -2824 0
-2776 -2777 0
-2776 2823 2824 0
2777 -2778 2822 0
-2777 2778 0
-2777 -2822 0
-2778 2779 2820 0
-2778 2779 -2821 0
2778 -2779 0
2778 -2820 2821 0
2779 2780 -2782 0
-2779 -2780 0
-2779 2782 0
2780 -2713 2781 0
2780 2713 -2781 0
-2780 2713 2781 0
-2780 -2713 -2781 0
-2781 -2709 -2711 0
-2781 2709 2711 0
2781 2709 -2711 0
2781 -2709 2711 0
-2782 2783 2818 0
-2782 2783 2819 0
2782 -2783 0
2782 -2818 -2819 0
2783 -2784 -2811 0
-2783 2784 0
-2783 2811 0
-2784 2785 2801 0
2784 -2785 0
2784 -2801 0
2785 -2786 -2792 0
-2785 2786 0
-2785 2792 0
-2786 2787 2789 0
2786 -2787 0
2786 -2789 0
-2787 8389 2788 0
-2787 2441 2788 0
2787 -2788 0
2787 -8389 -2441 0
2788 -8458 -2438 0
-2788 8458 0
-2788 2438 0
-2789 8368 2790 0
-2789 -8368 -2790 0
2789 -8368 2790 0
2789 8368 -2790 0
-2790 8462 2791 0
-2790 2456 2791 0
2790 -2791 0
2790 -8462 -2456 0
2791 -8452 -2447 0
-2791 8452 0
-2791 2447 0
-2792 2793 2798 0
-2792 2793 2800 0
2792 -2793 0
2792 -2798 -2800 0
2793 -2794 -2796 0
-2793 2794 0
-2793 2796 0
-2794 8439 2795 0
-2794 -8439 -2795 0
2794 -8439 2795 0
2794 8439 -2795 0
-2795 8429 8441 0
-2795 2546 2570 0
-2795 8441 2546 0
-2795 8429 2570 0
2795 -8429 -2546 0
2795 -8441 -2570 0
-2796 8399 2797 0
-2796 -8399 -2797 0
2796 -8399 2797 0
2796 8399 -2797 0
-2797 8411 8418 0
-2797 2506 2529 0
-2797 8418 2529 0
-2797 8411 2506 0
2797 -8411 -2529 0
2797 -8418 -2506 0
-2798 8407 2799 0
-2798 -8407 -2799 0
2798 -8407 2799 0
2798 8407 -2799 0
-2799 8427 8456 0
-2799 2470 2482 0
-2799 8456 2470 0
-2799 8427 2482 0
2799 -8427 -2470 0
2799 -8456 -2482 0
2800 -2794 2796 0
2800 2794 -2796 0
-2800 2794 2796 0
-2800 -2794 -2796 0
2801 -2802 -2810 0
-2801 2802 0
-2801 2810 0
2802 2803 -2809 0
-2802 -2803 0
-2802 2809 0
2803 -2804 -2805 0
2803 -2804 2806 0
-2803 2804 0
-2803 2805 -2806 0
-2804 8391 8445 0
2804 -8391 0
2804 -8445 0
2805 -8391 -8445 0
-2805 8391 0
-2805 8445 0
-2806 8460 2807 0
-2806 -8460 -2807 0
2806 -8460 2807 0
2806 8460 -2807 0
-2807 8369 8404 0
-2807 2755 2808 0
-2807 8404 2808 0
-2807 8369 2755 0
2807 -8369 -2808 0
2807 -8404 -2755 0
2808 -2756 2757 0
-2808 2756 0
-2808 -2757 0
2809 -2761 2763 0
2809 2761 -2763 0
-2809 2761 2763 0
-2809 -2761 -2763 0
2810 -2786 2792 0
2810 2786 -2792 0
-2810 2786 2792 0
-2810 -2786 -2792 0
-2811 2812 2816 0
-2811 2812 -2817 0
2811 -2812 0
2811 -2816 2817 0
2812 2813 -2815 0
-2812 -2813 0
-2812 2815 0
2813 -2732 2814 0
2813 2732 -2814 0
-2813 2732 2814 0
-2813 -2732 -2814 0
-2814 8460 2729 0
-2814 -8460 -2729 0
2814 -8460 2729 0
2814 8460 -2729 0
-2815 -2741 -2743 0
-2815 2741 2743 0
2815 2741 -2743 0
2815 -2741 2743 0
-2816 2752 2753 0
-2816 -2752 -2753 0
2816 -2752 2753 0
2816 2752 -2753 0
-2817 2813 2815 0
-2817 -2813 -2815 0
2817 -2813 2815 0
2817 2813 -2815 0
-2818 2744 2745 0
-2818 -2744 -2745 0
2818 -2744 2745 0
2818 2744 -2745 0
2819 -2784 2811 0
2819 2784 -2811 0
-2819 2784 2811 0
-2819 -2784 -2811 0
-2820 -2769 -2770 0
-2820 2769 2770 0
2820 2769 -2770 0
2820 -2769 2770 0
-2821 2780 2782 0
-2821 -2780 -2782 0
2821 -2780 2782 0
2821 2780 -2782 0
2822 2771 -2772 0
2822 -2771 2772 0
-2822 -2771 -2772 0
-2822 2771 2772 0
-2823 -2778 -2822 0
-2823 2778 2822 0
2823 2778 -2822 0
2823 -2778 2822 0
2824 2825 -2883 0
2824 2825 -2884 0
-2824 -2825 0
-2824 2883 2884 0
2825 2826 -2827 0
-2825 -2826 0
-2825 2827 0
2826 -2820 2821 0
2826 2820 -2821 0
-2826 2820 2821 0
-2826 -2820 -2821 0
-2827 2828 2881 0
-2827 2828 -2882 0
2827 -2828 0
2827 -2881 2882 0
2828 2829 -2831 0
-2828 -2829 0
-2828 2831 0
2829 -2709 2830 0
2829 2709 -2830 0
-2829 2709 2830 0
-2829 -2709 -2830 0
-2830 2766 2768 0
-2830 -2766 -2768 0
2830 -2766 2768 0
2830 2766 -2768 0
-2831 2832 2878 0
2831 -2832 0
2831 -2878 0
2832 2833 -2839 0
-2832 -2833 0
-2832 2839 0
2833 2834 -2837 0
2833 2834 -2838 0
-2833 -2834 0
-2833 2837 2838 0
2834 2835 -2836 0
-2834 -2835 0
-2834 2836 0
2835 -2787 2789 0
2835 2787 -2789 0
-2835 2787 2789 0
-2835 -2787 -2789 0
-2836 -2798 -2800 0
-2836 2798 2800 0
2836 2798 -2800 0
2836 -2798 2800 0
2837 2803 -2809 0
2837 -2803 2809 0
-2837 -2803 -2809 0
-2837 2803 2809 0
-2838 2835 2836 0
-2838 -2835 -2836 0
2838 -2835 2836 0
2838 2835 -2836 0
-2839 2840 2862 0
-2839 2840 2863 0
2839 -2840 0
2839 -2862 -2863 0
2840 -2841 -2851 0
-2840 2841 0
-2840 2851 0
-2841 2842 2847 0
-2841 2842 2850 0
2841 -2842 0
2841 -2847 -2850 0
2842 -2843 -2845 0
-2842 2843 0
-2842 2845 0
-2843 8454 2844 0
-2843 -8454 -2844 0
2843 -8454 2844 0
2843 8454 -2844 0
-2844 8367 8413 0
-2844 2689 2731 0
-2844 8413 2731 0
-2844 8367 2689 0
2844 -8367 -2731 0
2844 -8413 -2689 0
-2845 8416 2846 0
-2845 -8416 -2846 0
2845 -8416 2846 0
2845 8416 -2846 0
-2846 8434 8441 0
-2846 2608 2651 0
-2846 8441 2651 0
-2846 8434 2608 0
2846 -8434 -2651 0
2846 -8441 -2608 0
-2847 8439 2848 0
-2847 -8439 -2848 0
2847 -8439 2848 0
2847 8439 -2848 0
-2848 8429 2849 0
-2848 2570 2849 0
2848 -2849 0
2848 -8429 -2570 0
2849 -8411 -2546 0
-2849 8411 0
-2849 2546 0
2850 -2843 2845 0
2850 2843 -2845 0
-2850 2843 2845 0
-2850 -2843 -2845 0
-2851 2852 2857 0
2851 -2852 0
2851 -2857 0
2852 -2853 -2855 0
-2852 2853 0
-2852 2855 0
-2853 8399 2854 0
-2853 -8399 -2854 0
2853 -8399 2854 0
2853 8399 -2854 0
-2854 8418 8456 0
-2854 2506 2529 0
-2854 8456 2529 0
-2854 8418 2506 0
2854 -8418 -2529 0
2854 -8456 -2506 0
-2855 8407 2856 0
-2855 -8407 -2856 0
2855 -8407 2856 0
2855 8407 -2856 0
-2856 8427 8462 0
-2856 2470 2482 0
-2856 8462 2482 0
-2856 8427 2470 0
2856 -8427 -2482 0
2856 -8462 -2470 0
2857 -2858 -2861 0
-2857 2858 0
-2857 2861 0
-2858 8368 2859 0
-2858 -8368 -2859 0
2858 -8368 2859 0
2858 8368 -2859 0
-2859 8452 2860 0
-2859 2456 2860 0
2859 -2860 0
2859 -8452 -2456 0
2860 -8389 -2447 0
-2860 8389 0
-2860 2447 0
2861 -2853 2855 0
2861 2853 -2855 0
-2861 2853 2855 0
-2861 -2853 -2855 0
2862 -2841 2851 0
2862 2841 -2851 0
-2862 2841 2851 0
-2862 -2841 -2851 0
-2863 2864 2875 0
-2863 2864 2877 0
2863 -2864 0
2863 -2875 -2877 0
2864 -2865 -2867 0
-2864 2865 0
-2864 2867 0
-2865 8458 2866 0
-2865 2441 2866 0
2865 -2866 0
2865 -8458 -2441 0
2866 -8448 -2438 0
-2866 8448 0
-2866 2438 0
-2867 2868 2873 0
-2867 8445 2868 0
-2867 8445 2873 0
2867 -8445 -2868 0
2867 -2868 -2873 0
2867 -8445 -2873 0
2868 8391 -2869 0
2868 -8391 2869 0
-2868 -8391 -2869 0
-2868 8391 2869 0
2869 -8369 -2870 0
-2869 8369 0
-2869 2870 0
-2870 8391 2872 0
-2870 -8391 -2871 0
2870 -8391 2871 0
2870 8391 -2872 0
-2871 8365 8445 0
2871 -8365 0
2871 -8445 0
2872 -8365 -8445 0
-2872 8365 0
-2872 8445 0
-2873 8460 2874 0
-2873 -8460 -2874 0
2873 -8460 2874 0
2873 8460 -2874 0
-2874 8367 8404 0
-2874 2755 2808 0
-2874 8404 2755 0
-2874 8367 2808 0
2874 -8367 -2755 0
2874 -8404 -2808 0
-2875 2876 2806 0
-2875 -2876 -2806 0
2875 -2876 2806 0
2875 2876 -2806 0
2876 8391 -8445 0
2876 -8391 8445 0
-2876 -8391 -8445 0
-2876 8391 8445 0
2877 -2865 2867 0
2877 2865 -2867 0
-2877 2865 2867 0
-2877 -2865 -2867 0
2878 -2879 2880 0
-2878 2879 0
-2878 -2880 0
2879 2802 -2810 0
2879 -2802 2810 0
-2879 -2802 -2810 0
-2879 2802 2810 0
-2880 2833 2839 0
-2880 -2833 -2839 0
2880 -2833 2839 0
2880 2833 -2839 0
-2881 -2818 -2819 0
-2881 2818 2819 0
2881 2818 -2819 0
2881 -2818 2819 0
-2882 2829 2831 0
-2882 -2829 -2831 0
2882 -2829 2831 0
2882 2829 -2831 0
-2883 2826 2827 0
-2883 -2826 -2827 0
2883 -2826 2827 0
2883 2826 -2827 0
2884 -2885 2942 0
2884 -2885 2943 0
-2884 2885 0
-2884 -2942 -2943 0
-2885 2886 2887 0
2885 -2886 0
2885 -2887 0
2886 -2881 2882 0
2886 2881 -2882 0
-2886 2881 2882 0
-2886 -2881 -2882 0
2887 2888 -2939 0
-2887 -2888 0
-2887 2939 0
2888 2889 -2890 0
-2888 -2889 0
-2888 2890 0
2889 -2816 2817 0
2889 2816 -2817 0
-2889 2816 2817 0
-2889 -2816 -2817 0
-2890 2891 2937 0
-2890 2891 2938 0
2890 -2891 0
2890 -2937 -2938 0
2891 -2892 -2898 0
-2891 2892 0
-2891 2898 0
-2892 2893 2896 0
-2892 2893 2897 0
2892 -2893 0
2892 -2896 -2897 0
2893 -2894 -2895 0
-2893 2894 0
-2893 2895 0
-2894 -2847 -2850 0
-2894 2847 2850 0
2894 2847 -2850 0
2894 -2847 2850 0
-2895 -2858 -2861 0
-2895 2858 2861 0
2895 2858 -2861 0
2895 -2858 2861 0
2896 -2894 2895 0
2896 2894 -2895 0
-2896 2894 2895 0
-2896 -2894 -2895 0
-2897 -2875 -2877 0
-2897 2875 2877 0
2897 2875 -2877 0
2897 -2875 2877 0
-2898 2899 2920 0
-2898 2899 2921 0
2898 -2899 0
2898 -2920 -2921 0
2899 -2900 -2910 0
-2899 2900 0
-2899 2910 0
-2900 2901 2906 0
-2900 2901 2909 0
2900 -2901 0
2900 -2906 -2909 0
2901 -2902 -2904 0
-2901 2902 0
-2901 2904 0
-2902 8454 2903 0
-2902 -8454 -2903 0
2902 -8454 2903 0
2902 8454 -2903 0
-2903 8413 8434 0
-2903 2689 2731 0
-2903 8434 2731 0
-2903 8413 2689 0
2903 -8413 -2731 0
2903 -8434 -2689 0
-2904 8416 2905 0
-2904 -8416 -2905 0
2904 -8416 2905 0
2904 8416 -2905 0
-2905 8429 8441 0
-2905 2608 2651 0
-2905 8441 2608 0
-2905 8429 2651 0
2905 -8429 -2608 0
2905 -8441 -2651 0
-2906 8439 2907 0
-2906 -8439 -2907 0
2906 -8439 2907 0
2906 8439 -2907 0
-2907 8411 2908 0
-2907 2570 2908 0
2907 -2908 0
2907 -8411 -2570 0
2908 -8418 -2546 0
-2908 8418 0
-2908 2546 0
2909 -2902 2904 0
2909 2902 -2904 0
-2909 2902 2904 0
-2909 -2902 -2904 0
-2910 2911 2916 0
-2910 2911 2919 0
2910 -2911 0
2910 -2916 -2919 0
2911 -2912 -2914 0
-2911 2912 0
-2911 2914 0
-2912 8399 2913 0
-2912 -8399 -2913 0
2912 -8399 2913 0
2912 8399 -2913 0
-2913 8427 8456 0
-2913 2506 2529 0
-2913 8456 2506 0
-2913 8427 2529 0
2913 -8427 -2506 0
2913 -8456 -2529 0
-2914 8407 2915 0
-2914 -8407 -2915 0
2914 -8407 2915 0
2914 8407 -2915 0
-2915 8452 8462 0
-2915 2470 2482 0
-2915 8462 2470 0
-2915 8452 2482 0
2915 -8452 -2470 0
2915 -8462 -2482 0
-2916 8368 2917 0
-2916 -8368 -2917 0
2916 -8368 2917 0
2916 8368 -2917 0
-2917 8389 2918 0
-2917 2456 2918 0
2917 -2918 0
2917 -8389 -2456 0
2918 -8458 -2447 0
-2918 8458 0
-2918 2447 0
2919 -2912 2914 0
2919 2912 -2914 0
-2919 2912 2914 0
-2919 -2912 -2914 0
2920 -2900 2910 0
2920 2900 -2910 0
-2920 2900 2910 0
-2920 -2900 -2910 0
-2921 2922 2934 0
-2921 2922 2936 0
2921 -2922 0
2921 -2934 -2936 0
2922 -2923 -2925 0
-2922 2923 0
-2922 2925 0
-2923 8448 2924 0
-2923 2441 2924 0
2923 -2924 0
2923 -8448 -2441 0
2924 -8397 -2438 0
-2924 8397 0
-2924 2438 0
-2925 2926 2929 0
-2925 8445 2929 0
2925 -2929 0
2925 -8445 -2926 0
-2926 8391 2927 0
-2926 -8391 -2927 0
2926 -8391 2927 0
2926 8391 -2927 0
-2927 8369 8404 0
-2927 2870 2928 0
-2927 8404 2928 0
-2927 8369 2870 0
2927 -8369 -2928 0
2927 -8404 -2870 0
2928 -2871 2872 0
-2928 2871 0
-2928 -2872 0
2929 -2930 -2933 0
-2929 2930 0
-2929 2933 0
-2930 8460 2931 0
-2930 -8460 -2931 0
2930 -8460 2931 0
2930 8460 -2931 0
-2931 8367 2932 0
-2931 2808 2932 0
2931 -2932 0
2931 -8367 -2808 0
2932 -8413 -2755 0
-2932 8413 0
-2932 2755 0
-2933 8445 2926 0
-2933 -8445 -2926 0
2933 -8445 2926 0
2933 8445 -2926 0
-2934 -2873 -2935 0
-2934 2873 2935 0
2934 2873 -2935 0
2934 -2873 2935 0
2935 8445 -2868 0
2935 -8445 2868 0
-2935 -8445 -2868 0
-2935 8445 2868 0
2936 -2923 2925 0
2936 2923 -2925 0
-2936 2923 2925 0
-2936 -2923 -2925 0
-2937 2862 2863 0
-2937 -2862 -2863 0
2937 -2862 2863 0
2937 2862 -2863 0
2938 -2892 2898 0
2938 2892 -2898 0
-2938 2892 2898 0
-2938 -2892 -2898 0
-2939 2940 2941 0
2939 -2940 0
2939 -2941 0
-2940 2879 2880 0
-2940 -2879 -2880 0
2940 -2879 2880 0
2940 2879 -2880 0
-2941 2889 2890 0
-2941 -2889 -2890 0
2941 -2889 2890 0
2941 2889 -2890 0
2942 2886 -2887 0
2942 -2886 2887 0
-2942 -2886 -2887 0
-2942 2886 2887 0
-2943 2944 3001 0
-2943 3000 3001 0
2943 -3001 0
2943 -2944 -3000 0
-2944 2945 2998 0
-2944 2945 2999 0
2944 -2945 0
2944 -2998 -2999 0
2945 -2946 -2947 0
-2945 2946 0
-2945 2947 0
-2946 2837 2838 0
-2946 -2837 -2838 0
2946 -2837 2838 0
2946 2837 -2838 0
-2947 2948 2996 0
-2947 2948 2997 0
2947 -2948 0
2947 -2996 -2997 0
2948 -2949 -2990 0
-2948 2949 0
-2948 2990 0
-2949 2950 2971 0
-2949 2950 2972 0
2949 -2950 0
2949 -2971 -2972 0
2950 -2951 -2961 0
-2950 2951 0
-2950 2961 0
-2951 2952 2957 0
-2951 2952 2960 0
2951 -2952 0
2951 -2957 -2960 0
2952 -2953 -2955 0
-2952 2953 0
-2952 2955 0
-2953 8454 2954 0
-2953 -8454 -2954 0
2953 -8454 2954 0
2953 8454 -2954 0
-2954 8434 8441 0
-2954 2689 2731 0
-2954 8441 2731 0
-2954 8434 2689 0
2954 -8434 -2731 0
2954 -8441 -2689 0
-2955 8416 2956 0
-2955 -8416 -2956 0
2955 -8416 2956 0
2955 8416 -2956 0
-2956 8411 8429 0
-2956 2608 2651 0
-2956 8429 2608 0
-2956 8411 2651 0
2956 -8411 -2608 0
2956 -8429 -2651 0
-2957 8439 2958 0
-2957 -8439 -2958 0
2957 -8439 2958 0
2957 8439 -2958 0
-2958 8418 2959 0
-2958 2570 2959 0
2958 -2959 0
2958 -8418 -2570 0
2959 -8456 -2546 0
-2959 8456 0
-2959 2546 0
2960 -2953 2955 0
2960 2953 -2955 0
-2960 2953 2955 0
-2960 -2953 -2955 0
-2961 2962 2967 0
-2961 2962 2970 0
2961 -2962 0
2961 -2967 -2970 0
2962 -2963 -2965 0
-2962 2963 0
-2962 2965 0
-2963 8399 2964 0
-2963 -8399 -2964 0
2963 -8399 2964 0
2963 8399 -2964 0
-2964 8427 8462 0
-2964 2506 2529 0
-2964 8462 2529 0
-2964 8427 2506 0
2964 -8427 -2529 0
2964 -8462 -2506 0
-2965 8407 2966 0
-2965 -8407 -2966 0
2965 -8407 2966 0
2965 8407 -2966 0
-2966 8389 8452 0
-2966 2470 2482 0
-2966 8452 2470 0
-2966 8389 2482 0
2966 -8389 -2470 0
2966 -8452 -2482 0
-2967 8368 2968 0
-2967 -8368 -2968 0
2967 -8368 2968 0
2967 8368 -2968 0
-2968 8458 2969 0
-2968 2456 2969 0
2968 -2969 0
2968 -8458 -2456 0
2969 -8448 -2447 0
-2969 8448 0
-2969 2447 0
2970 -2963 2965 0
2970 2963 -2965 0
-2970 2963 2965 0
-2970 -2963 -2965 0
2971 -2951 2961 0
2971 2951 -2961 0
-2971 2951 2961 0
-2971 -2951 -2961 0
-2972 2973 2987 0
2972 -2973 0
2972 -2987 0
2973 -2974 -2976 0
-2973 2974 0
-2973 2976 0
-2974 8397 2975 0
-2974 2441 2975 0
2974 -2975 0
2974 -8397 -2441 0
2975 -8364 -2438 0
-2975 8364 0
-2975 2438 0
-2976 -2977 2981 0
-2976 2979 2981 0
-2976 8445 2981 0
2976 -2981 0
2976 -8445 2977 -2979 0
2977 -8369 -2978 0
-2977 8369 0
-2977 2978 0
2978 8401 -8445 0
-2978 -8401 0
-2978 8445 0
-2979 8391 2980 0
-2979 -8391 -2980 0
2979 -8391 2980 0
2979 8391 -2980 0
-2980 8367 8404 0
-2980 2870 2928 0
-2980 8404 2870 0
-2980 8367 2928 0
2980 -8367 -2870 0
2980 -8404 -2928 0
2981 -2982 -2985 0
-2981 2982 0
-2981 2985 0
-2982 8460 2983 0
-2982 -8460 -2983 0
2982 -8460 2983 0
2982 8460 -2983 0
-2983 8413 2984 0
-2983 2808 2984 0
2983 -2984 0
2983 -8413 -2808 0
2984 -8434 -2755 0
-2984 8434 0
-2984 2755 0
-2985 2986 2979 0
-2985 -2986 -2979 0
2985 -2986 2979 0
2985 2986 -2979 0
2986 -8401 -8445 0
2986 8369 -8445 0
-2986 8445 0
-2986 -8369 8401 0
2987 -2988 -2989 0
-2987 2988 0
-2987 2989 0
2988 -2930 2933 0
2988 2930 -2933 0
-2988 2930 2933 0
-2988 -2930 -2933 0
2989 -2974 2976 0
2989 2974 -2976 0
-2989 2974 2976 0
-2989 -2974 -2976 0
-2990 2991 2994 0
-2990 2991 2995 0
2990 -2991 0
2990 -2994 -2995 0
2991 -2992 -2993 0
-2991 2992 0
-2991 2993 0
-2992 -2906 -2909 0
-2992 2906 2909 0
2992 2906 -2909 0
2992 -2906 2909 0
-2993 -2916 -2919 0
-2993 2916 2919 0
2993 2916 -2919 0
2993 -2916 2919 0
2994 -2992 2993 0
2994 2992 -2993 0
-2994 2992 2993 0
-2994 -2992 -2993 0
-2995 -2934 -2936 0
-2995 2934 2936 0
2995 2934 -2936 0
2995 -2934 2936 0
-2996 2920 2921 0
-2996 -2920 -2921 0
2996 -2920 2921 0
2996 2920 -2921 0
2997 -2949 2990 0
2997 2949 -2990 0
-2997 2949 2990 0
-2997 -2949 -2990 0
-2998 -2937 -2938 0
-2998 2937 2938 0
2998 2937 -2938 0
2998 -2937 2938 0
2999 -2946 2947 0
2999 2946 -2947 0
-2999 2946 2947 0
-2999 -2946 -2947 0
3000 -2940 2941 0
3000 2940 -2941 0
-3000 2940 2941 0
-3000 -2940 -2941 0
3001 -3002 -3003 0
-3001 3002 0
-3001 3003 0
-3002 -2944 -3000 0
-3002 2944 3000 0
3002 2944 -3000 0
3002 -2944 3000 0
-3003 3004 3062 0
-3003 3004 3063 0
3003 -3004 0
3003 -3062 -3063 0
3004 -3005 -3061 0
-3004 3005 0
-3004 3061 0
-3005 3006 3059 0
-3005 3006 3060 0
3005 -3006 0
3005 -3059 -3060 0
3006 -3007 -3008 0
-3006 3007 0
-3006 3008 0
-3007 2896 2897 0
-3007 -2896 -2897 0
3007 -2896 2897 0
3007 2896 -2897 0
-3008 3009 3057 0
-3008 3009 3058 0
3008 -3009 0
3008 -3057 -3058 0
3009 -3010 -3050 0
-3009 3010 0
-3009 3050 0
-3010 3011 3032 0
-3010 3011 3033 0
3010 -3011 0
3010 -3032 -3033 0
3011 -3012 -3022 0
-3011 3012 0
-3011 3022 0
-3012 3013 3018 0
-3012 3013 3021 0
3012 -3013 0
3012 -3018 -3021 0
3013 -3014 -3016 0
-3013 3014 0
-3013 3016 0
-3014 8454 3015 0
-3014 -8454 -3015 0
3014 -8454 3015 0
3014 8454 -3015 0
-3015 8429 8441 0
-3015 2689 2731 0
-3015 8441 2689 0
-3015 8429 2731 0
3015 -8429 -2689 0
3015 -8441 -2731 0
-3016 8416 3017 0
-3016 -8416 -3017 0
3016 -8416 3017 0
3016 8416 -3017 0
-3017 8411 8418 0
-3017 2608 2651 0
-3017 8418 2651 0
-3017 8411 2608 0
3017 -8411 -2651 0
3017 -8418 -2608 0
-3018 8439 3019 0
-3018 -8439 -3019 0
3018 -8439 3019 0
3018 8439 -3019 0
-3019 8456 3020 0
-3019 2570 3020 0
3019 -3020 0
3019 -8456 -2570 0
3020 -8427 -2546 0
-3020 8427 0
-3020 2546 0
3021 -3014 3016 0
3021 3014 -3016 0
-3021 3014 3016 0
-3021 -3014 -3016 0
-3022 3023 3028 0
-3022 3023 3031 0
3022 -3023 0
3022 -3028 -3031 0
3023 -3024 -3026 0
-3023 3024 0
-3023 3026 0
-3024 8399 3025 0
-3024 -8399 -3025 0
3024 -8399 3025 0
3024 8399 -3025 0
-3025 8452 8462 0
-3025 2506 2529 0
-3025 8462 2506 0
-3025 8452 2529 0
3025 -8452 -2506 0
3025 -8462 -2529 0
-3026 8407 3027 0
-3026 -8407 -3027 0
3026 -8407 3027 0
3026 8407 -3027 0
-3027 8389 8458 0
-3027 2470 2482 0
-3027 8458 2482 0
-3027 8389 2470 0
3027 -8389 -2482 0
3027 -8458 -2470 0
-3028 8368 3029 0
-3028 -8368 -3029 0
3028 -8368 3029 0
3028 8368 -3029 0
-3029 8448 3030 0
-3029 2456 3030 0
3029 -3030 0
3029 -8448 -2456 0
3030 -8397 -2447 0
-3030 8397 0
-3030 2447 0
3031 -3024 3026 0
3031 3024 -3026 0
-3031 3024 3026 0
-3031 -3024 -3026 0
3032 -3012 3022 0
3032 3012 -3022 0
-3032 3012 3022 0
-3032 -3012 -3022 0
-3033 3034 3047 0
3033 -3034 0
3033 -3047 0
3034 -3035 -3037 0
-3034 3035 0
-3034 3037 0
-3035 8364 3036 0
-3035 2441 3036 0
3035 -3036 0
3035 -8364 -2441 0
3036 -8387 -2438 0
-3036 8387 0
-3036 2438 0
-3037 3038 3043 0
-3037 3038 3046 0
3037 -3038 0
3037 -3043 -3046 0
3038 -3039 -3041 0
-3038 3039 0
-3038 3041 0
-3039 8445 3040 0
-3039 -8445 -3040 0
3039 -8445 3040 0
3039 8445 -3040 0
-3040 8401 8445 0
-3040 8369 -8401 0
-3040 8401 8404 0
3040 -8369 -8401 0
3040 8401 -8404 -8445 0
-3041 8391 3042 0
-3041 -8391 -3042 0
3041 -8391 3042 0
3041 8391 -3042 0
-3042 8367 8413 0
-3042 2870 2928 0
-3042 8413 2928 0
-3042 8367 2870 0
3042 -8367 -2928 0
3042 -8413 -2870 0
-3043 8460 3044 0
-3043 -8460 -3044 0
3043 -8460 3044 0
3043 8460 -3044 0
-3044 8434 3045 0
-3044 2808 3045 0
3044 -3045 0
3044 -8434 -2808 0
3045 -8441 -2755 0
-3045 8441 0
-3045 2755 0
3046 -3039 3041 0
3046 3039 -3041 0
-3046 3039 3041 0
-3046 -3039 -3041 0
3047 -3048 -3049 0
-3047 3048 0
-3047 3049 0
3048 -2982 2985 0
3048 2982 -2985 0
-3048 2982 2985 0
-3048 -2982 -2985 0
3049 -3035 3037 0
3049 3035 -3037 0
-3049 3035 3037 0
-3049 -3035 -3037 0
-3050 3051 3054 0
3050 -3051 0
3050 -3054 0
3051 -3052 -3053 0
-3051 3052 0
-3051 3053 0
-3052 -2957 -2960 0
-3052 2957 2960 0
3052 2957 -2960 0
3052 -2957 2960 0
-3053 -2967 -2970 0
-3053 2967 2970 0
3053 2967 -2970 0
3053 -2967 2970 0
3054 -3055 -3056 0
-3054 3055 0
-3054 3056 0
3055 -3052 3053 0
3055 3052 -3053 0
-3055 3052 3053 0
-3055 -3052 -3053 0
3056 2988 -2989 0
3056 -2988 2989 0
-3056 -2988 -2989 0
-3056 2988 2989 0
-3057 2971 2972 0
-3057 -2971 -2972 0
3057 -2971 2972 0
3057 2971 -2972 0
3058 -3010 3050 0
3058 3010 -3050 0
-3058 3010 3050 0
-3058 -3010 -3050 0
-3059 -2996 -2997 0
-3059 2996 2997 0
3059 2996 -2997 0
3059 -2996 2997 0
3060 -3007 3008 0
3060 3007 -3008 0
-3060 3007 3008 0
-3060 -3007 -3008 0
-3061 -2998 -2999 0
-3061 2998 2999 0
3061 2998 -2999 0
3061 -2998 2999 0
3062 -3005 3061 0
3062 3005 -3061 0
-3062 3005 3061 0
-3062 -3005 -3061 0
-3063 3064 3119 0
-3063 3064 3120 0
3063 -3064 0
3063 -3119 -3120 0
3064 -3065 -3118 0
-3064 3065 0
-3064 3118 0
-3065 3066 3116 0
-3065 3066 3117 0
3065 -3066 0
3065 -3116 -3117 0
3066 -3067 -3068 0
-3066 3067 0
-3066 3068 0
-3067 2994 2995 0
-3067 -2994 -2995 0
3067 -2994 2995 0
3067 2994 -2995 0
-3068 3069 3114 0
-3068 3069 3115 0
3068 -3069 0
3068 -3114 -3115 0
3069 -3070 -3107 0
-3069 3070 0
-3069 3107 0
-3070 3071 3092 0
-3070 3071 3093 0
3070 -3071 0
3070 -3092 -3093 0
3071 -3072 -3082 0
-3071 3072 0
-3071 3082 0
-3072 3073 3078 0
-3072 3073 3081 0
3072 -3073 0
3072 -3078 -3081 0
3073 -3074 -3076 0
-3073 3074 0
-3073 3076 0
-3074 8454 3075 0
-3074 -8454 -3075 0
3074 -8454 3075 0
3074 8454 -3075 0
-3075 8411 8429 0
-3075 2689 2731 0
-3075 8429 2689 0
-3075 8411 2731 0
3075 -8411 -2689 0
3075 -8429 -2731 0
-3076 8416 3077 0
-3076 -8416 -3077 0
3076 -8416 3077 0
3076 8416 -3077 0
-3077 8418 8456 0
-3077 2608 2651 0
-3077 8456 2651 0
-3077 8418 2608 0
3077 -8418 -2651 0
3077 -8456 -2608 0
-3078 8439 3079 0
-3078 -8439 -3079 0
3078 -8439 3079 0
3078 8439 -3079 0
-3079 8427 3080 0
-3079 2570 3080 0
3079 -3080 0
3079 -8427 -2570 0
3080 -8462 -2546 0
-3080 8462 0
-3080 2546 0
3081 -3074 3076 0
3081 3074 -3076 0
-3081 3074 3076 0
-3081 -3074 -3076 0
-3082 3083 3088 0
-3082 3083 3091 0
3082 -3083 0
3082 -3088 -3091 0
3083 -3084 -3086 0
-3083 3084 0
-3083 3086 0
-3084 8399 3085 0
-3084 -8399 -3085 0
3084 -8399 3085 0
3084 8399 -3085 0
-3085 8389 8452 0
-3085 2506 2529 0
-3085 8452 2506 0
-3085 8389 2529 0
3085 -8389 -2506 0
3085 -8452 -2529 0
-3086 8407 3087 0
-3086 -8407 -3087 0
3086 -8407 3087 0
3086 8407 -3087 0
-3087 8448 8458 0
-3087 2470 2482 0
-3087 8458 2470 0
-3087 8448 2482 0
3087 -8448 -2470 0
3087 -8458 -2482 0
-3088 8368 3089 0
-3088 -8368 -3089 0
3088 -8368 3089 0
3088 8368 -3089 0
-3089 8397 3090 0
-3089 2456 3090 0
3089 -3090 0
3089 -8397 -2456 0
3090 -8364 -2447 0
-3090 8364 0
-3090 2447 0
3091 -3084 3086 0
3091 3084 -3086 0
-3091 3084 3086 0
-3091 -3084 -3086 0
3092 -3072 3082 0
3092 3072 -3082 0
-3092 3072 3082 0
-3092 -3072 -3082 0
-3093 2441 3103 0
-3093 3094 3103 0
-3093 8387 3103 0
3093 -3103 0
3093 -8387 -2441 -3094 0
-3094 3095 3100 0
-3094 3095 3102 0
3094 -3095 0
3094 -3100 -3102 0
3095 -3096 -3098 0
-3095 3096 0
-3095 3098 0
-3096 8445 3097 0
-3096 -8445 -3097 0
3096 -8445 3097 0
3096 8445 -3097 0
-3097 8401 8445 0
-3097 -8401 8404 0
-3097 8367 8401 0
3097 -8401 -8404 0
3097 -8367 8401 -8445 0
-3098 8391 3099 0
-3098 -8391 -3099 0
3098 -8391 3099 0
3098 8391 -3099 0
-3099 8413 8434 0
-3099 2870 2928 0
-3099 8434 2928 0
-3099 8413 2870 0
3099 -8413 -2928 0
3099 -8434 -2870 0
-3100 8460 3101 0
-3100 -8460 -3101 0
3100 -8460 3101 0
3100 8460 -3101 0
-3101 8429 8441 0
-3101 2755 2808 0
-3101 8441 2755 0
-3101 8429 2808 0
3101 -8429 -2755 0
3101 -8441 -2808 0
3102 -3096 3098 0
3102 3096 -3098 0
-3102 3096 3098 0
-3102 -3096 -3098 0
3103 -3104 -3105 0
-3103 3104 0
-3103 3105 0
-3104 -3043 -3046 0
-3104 3043 3046 0
3104 3043 -3046 0
3104 -3043 3046 0
-3105 3106 3094 0
-3105 -3106 -3094 0
3105 -3106 3094 0
3105 3106 -3094 0
3106 -8387 -2441 0
-3106 8387 0
-3106 2441 0
-3107 3108 3111 0
3107 -3108 0
3107 -3111 0
3108 -3109 -3110 0
-3108 3109 0
-3108 3110 0
-3109 -3018 -3021 0
-3109 3018 3021 0
3109 3018 -3021 0
3109 -3018 3021 0
-3110 -3028 -3031 0
-3110 3028 3031 0
3110 3028 -3031 0
3110 -3028 3031 0
3111 -3112 -3113 0
-3111 3112 0
-3111 3113 0
3112 -3109 3110 0
3112 3109 -3110 0
-3112 3109 3110 0
-3112 -3109 -3110 0
3113 3048 -3049 0
3113 -3048 3049 0
-3113 -3048 -3049 0
-3113 3048 3049 0
-3114 3032 3033 0
-3114 -3032 -3033 0
3114 -3032 3033 0
3114 3032 -3033 0
3115 -3070 3107 0
3115 3070 -3107 0
-3115 3070 3107 0
-3115 -3070 -3107 0
-3116 -3057 -3058 0
-3116 3057 3058 0
3116 3057 -3058 0
3116 -3057 3058 0
3117 -3067 3068 0
3117 3067 -3068 0
-3117 3067 3068 0
-3117 -3067 -3068 0
-3118 -3059 -3060 0
-3118 3059 3060 0
3118 3059 -3060 0
3118 -3059 3060 0
3119 -3065 3118 0
3119 3065 -3118 0
-3119 3065 3118 0
-3119 -3065 -3118 0
-3120 3121 3165 0
-3120 3121 3166 0
3120 -3121 0
3120 -3165 -3166 0
3121 -3122 -3164 0
-3121 3122 0
-3121 3164 0
-3122 3123 3124 0
-3122 3124 3163 0
-3122 3123 3163 0
3122 -3124 -3163 0
3122 -3123 -3124 0
3122 -3123 -3163 0
3123 3055 -3056 0
3123 -3055 3056 0
-3123 -3055 -3056 0
-3123 3055 3056 0
-3124 3125 3161 0
-3124 3125 3162 0
3124 -3125 0
3124 -3161 -3162 0
3125 -3126 -3154 0
-3125 3126 0
-3125 3154 0
-3126 3127 3148 0
3126 -3127 0
3126 -3148 0
3127 -3128 -3138 0
-3127 3128 0
-3127 3138 0
-3128 3129 3134 0
-3128 3129 3137 0
3128 -3129 0
3128 -3134 -3137 0
3129 -3130 -3132 0
-3129 3130 0
-3129 3132 0
-3130 8454 3131 0
-3130 -8454 -3131 0
3130 -8454 3131 0
3130 8454 -3131 0
-3131 8411 8418 0
-3131 2689 2731 0
-3131 8418 2731 0
-3131 8411 2689 0
3131 -8411 -2731 0
3131 -8418 -2689 0
-3132 8416 3133 0
-3132 -8416 -3133 0
3132 -8416 3133 0
3132 8416 -3133 0
-3133 8427 8456 0
-3133 2608 2651 0
-3133 8456 2608 0
-3133 8427 2651 0
3133 -8427 -2608 0
3133 -8456 -2651 0
-3134 8439 3135 0
-3134 -8439 -3135 0
3134 -8439 3135 0
3134 8439 -3135 0
-3135 8462 3136 0
-3135 2570 3136 0
3135 -3136 0
3135 -8462 -2570 0
3136 -8452 -2546 0
-3136 8452 0
-3136 2546 0
3137 -3130 3132 0
3137 3130 -3132 0
-3137 3130 3132 0
-3137 -3130 -3132 0
-3138 3139 3144 0
-3138 3139 3147 0
3138 -3139 0
3138 -3144 -3147 0
3139 -3140 -3142 0
-3139 3140 0
-3139 3142 0
-3140 8399 3141 0
-3140 -8399 -3141 0
3140 -8399 3141 0
3140 8399 -3141 0
-3141 8389 8458 0
-3141 2506 2529 0
-3141 8458 2529 0
-3141 8389 2506 0
3141 -8389 -2529 0
3141 -8458 -2506 0
-3142 8407 3143 0
-3142 -8407 -3143 0
3142 -8407 3143 0
3142 8407 -3143 0
-3143 8397 8448 0
-3143 2470 2482 0
-3143 8448 2470 0
-3143 8397 2482 0
3143 -8397 -2470 0
3143 -8448 -2482 0
-3144 8368 3145 0
-3144 -8368 -3145 0
3144 -8368 3145 0
3144 8368 -3145 0
-3145 8364 3146 0
-3145 2456 3146 0
3145 -3146 0
3145 -8364 -2456 0
3146 -8387 -2447 0
-3146 8387 0
-3146 2447 0
3147 -3140 3142 0
3147 3140 -3142 0
-3147 3140 3142 0
-3147 -3140 -3142 0
3148 -3149 -3153 0
-3148 3149 0
-3148 3153 0
3149 -3150 -3152 0
-3149 3150 0
-3149 3152 0
3150 -8368 3151 0
-3150 8368 0
-3150 -3151 0
3151 -8387 -2456 0
-3151 8387 0
-3151 2456 0
-3152 -3100 -3102 0
-3152 3100 3102 0
3152 3100 -3102 0
3152 -3100 3102 0
3153 -3128 3138 0
3153 3128 -3138 0
-3153 3128 3138 0
-3153 -3128 -3138 0
-3154 3155 3158 0
3154 -3155 0
3154 -3158 0
3155 -3156 -3157 0
-3155 3156 0
-3155 3157 0
-3156 -3078 -3081 0
-3156 3078 3081 0
3156 3078 -3081 0
3156 -3078 3081 0
-3157 -3088 -3091 0
-3157 3088 3091 0
3157 3088 -3091 0
3157 -3088 3091 0
3158 -3159 -3160 0
-3158 3159 0
-3158 3160 0
3159 -3156 3157 0
3159 3156 -3157 0
-3159 3156 3157 0
-3159 -3156 -3157 0
3160 -3104 3105 0
3160 3104 -3105 0
-3160 3104 3105 0
-3160 -3104 -3105 0
-3161 3092 3093 0
-3161 -3092 -3093 0
3161 -3092 3093 0
3161 3092 -3093 0
3162 -3126 3154 0
3162 3126 -3154 0
-3162 3126 3154 0
-3162 -3126 -3154 0
-3163 -3114 -3115 0
-3163 3114 3115 0
3163 3114 -3115 0
3163 -3114 3115 0
-3164 -3116 -3117 0
-3164 3116 3117 0
3164 3116 -3117 0
3164 -3116 3117 0
3165 -3122 3164 0
3165 3122 -3164 0
-3165 3122 3164 0
-3165 -3122 -3164 0
-3166 3167 3214 0
-3166 3212 3214 0
3166 -3214 0
3166 -3167 -3212 0
-3167 3168 3169 0
-3167 3169 3211 0
-3167 3168 3211 0
3167 -3169 -3211 0
3167 -3168 -3169 0
3167 -3168 -3211 0
3168 3112 -3113 0
3168 -3112 3113 0
-3168 -3112 -3113 0
-3168 3112 3113 0
-3169 3170 3208 0
3169 -3170 0
3169 -3208 0
3170 -3171 -3202 0
-3170 3171 0
-3170 3202 0
-3171 3172 3192 0
-3171 3172 3201 0
3171 -3172 0
3171 -3192 -3201 0
3172 -3173 -3182 0
-3172 3173 0
-3172 3182 0
-3173 3174 3179 0
-3173 3174 3181 0
3173 -3174 0
3173 -3179 -3181 0
3174 -3175 -3177 0
-3174 3175 0
-3174 3177 0
-3175 8445 3176 0
-3175 -8445 -3176 0
3175 -8445 3176 0
3175 8445 -3176 0
-3176 8401 8445 0
-3176 8367 -8401 0
-3176 8401 8413 0
3176 -8367 -8401 0
3176 8401 -8413 -8445 0
-3177 8391 3178 0
-3177 -8391 -3178 0
3177 -8391 3178 0
3177 8391 -3178 0
-3178 8434 8441 0
-3178 2870 2928 0
-3178 8441 2928 0
-3178 8434 2870 0
3178 -8434 -2928 0
3178 -8441 -2870 0
-3179 8460 3180 0
-3179 -8460 -3180 0
3179 -8460 3180 0
3179 8460 -3180 0
-3180 8411 8429 0
-3180 2755 2808 0
-3180 8429 2755 0
-3180 8411 2808 0
3180 -8411 -2755 0
3180 -8429 -2808 0
3181 -3175 3177 0
3181 3175 -3177 0
-3181 3175 3177 0
-3181 -3175 -3177 0
-3182 3183 3188 0
-3182 3183 3191 0
3182 -3183 0
3182 -3188 -3191 0
3183 -3184 -3186 0
-3183 3184 0
-3183 3186 0
-3184 8454 3185 0
-3184 -8454 -3185 0
3184 -8454 3185 0
3184 8454 -3185 0
-3185 8418 8456 0
-3185 2689 2731 0
-3185 8456 2731 0
-3185 8418 2689 0
3185 -8418 -2731 0
3185 -8456 -2689 0
-3186 8416 3187 0
-3186 -8416 -3187 0
3186 -8416 3187 0
3186 8416 -3187 0
-3187 8427 8462 0
-3187 2608 2651 0
-3187 8462 2651 0
-3187 8427 2608 0
3187 -8427 -2651 0
3187 -8462 -2608 0
-3188 8439 3189 0
-3188 -8439 -3189 0
3188 -8439 3189 0
3188 8439 -3189 0
-3189 8452 3190 0
-3189 2570 3190 0
3189 -3190 0
3189 -8452 -2570 0
3190 -8389 -2546 0
-3190 8389 0
-3190 2546 0
3191 -3184 3186 0
3191 3184 -3186 0
-3191 3184 3186 0
-3191 -3184 -3186 0
-3192 3193 3199 0
3192 -3193 0
3192 -3199 0
3193 -3194 -3196 0
-3193 3194 0
-3193 3196 0
-3194 8399 3195 0
-3194 -8399 -3195 0
3194 -8399 3195 0
3194 8399 -3195 0
-3195 8448 8458 0
-3195 2506 2529 0
-3195 8458 2506 0
-3195 8448 2529 0
3195 -8448 -2506 0
3195 -8458 -2529 0
-3196 8407 3197 0
-3196 -8407 -3197 0
3196 -8407 3197 0
3196 8407 -3197 0
-3197 8397 3198 0
-3197 2482 3198 0
3197 -3198 0
3197 -8397 -2482 0
3198 -8364 -2470 0
-3198 8364 0
-3198 2470 0
3199 -3151 -3200 0
-3199 3151 0
-3199 3200 0
3200 -3194 3196 0
3200 3194 -3196 0
-3200 3194 3196 0
-3200 -3194 -3196 0
3201 -3173 3182 0
3201 3173 -3182 0
-3201 3173 3182 0
-3201 -3173 -3182 0
-3202 3203 3206 0
-3202 3203 3207 0
3202 -3203 0
3202 -3206 -3207 0
3203 -3204 -3205 0
-3203 3204 0
-3203 3205 0
-3204 -3134 -3137 0
-3204 3134 3137 0
3204 3134 -3137 0
3204 -3134 3137 0
-3205 -3144 -3147 0
-3205 3144 3147 0
3205 3144 -3147 0
3205 -3144 3147 0
-3206 3150 3152 0
-3206 -3150 -3152 0
3206 -3150 3152 0
3206 3150 -3152 0
3207 -3204 3205 0
3207 3204 -3205 0
-3207 3204 3205 0
-3207 -3204 -3205 0
3208 -3209 -3210 0
-3208 3209 0
-3208 3210 0
3209 3149 -3153 0
3209 -3149 3153 0
-3209 -3149 -3153 0
-3209 3149 3153 0
3210 -3171 3202 0
3210 3171 -3202 0
-3210 3171 3202 0
-3210 -3171 -3202 0
-3211 -3161 -3162 0
-3211 3161 3162 0
3211 3161 -3162 0
3211 -3161 3162 0
3212 -3163 3213 0
3212 3163 -3213 0
-3212 3163 3213 0
-3212 -3163 -3213 0
-3213 3123 3124 0
-3213 -3123 -3124 0
3213 -3123 3124 0
3213 3123 -3124 0
3214 -3215 -3216 0
-3214 3215 0
-3214 3216 0
-3215 -3167 -3212 0
-3215 3167 3212 0
3215 3167 -3212 0
3215 -3167 3212 0
-3216 3217 3267 0
-3216 3265 3267 0
3216 -3267 0
3216 -3217 -3265 0
-3217 3219 3264 0
-3217 3218 3264 0
-3217 3218 3219 0
3217 -3218 -3264 0
3217 -3218 -3219 0
3217 -3219 -3264 0
3218 3159 -3160 0
3218 -3159 3160 0
-3218 -3159 -3160 0
-3218 3159 3160 0
-3219 3220 3262 0
-3219 3220 3263 0
3219 -3220 0
3219 -3262 -3263 0
3220 -3221 -3255 0
-3220 3221 0
-3220 3255 0
-3221 3222 3243 0
-3221 3222 3254 0
3221 -3222 0
3221 -3243 -3254 0
3222 -3223 -3233 0
-3222 3223 0
-3222 3233 0
-3223 3224 3229 0
-3223 3224 3232 0
3223 -3224 0
3223 -3229 -3232 0
3224 -3225 -3227 0
-3224 3225 0
-3224 3227 0
-3225 8445 3226 0
-3225 -8445 -3226 0
3225 -8445 3226 0
3225 8445 -3226 0
-3226 8401 8434 0
-3226 -8401 8413 0
-3226 8401 8445 0
3226 -8401 -8413 0
3226 8401 -8434 -8445 0
-3227 8391 3228 0
-3227 -8391 -3228 0
3227 -8391 3228 0
3227 8391 -3228 0
-3228 8429 8441 0
-3228 2870 2928 0
-3228 8441 2870 0
-3228 8429 2928 0
3228 -8429 -2870 0
3228 -8441 -2928 0
-3229 8460 3230 0
-3229 -8460 -3230 0
3229 -8460 3230 0
3229 8460 -3230 0
-3230 8411 3231 0
-3230 2808 3231 0
3230 -3231 0
3230 -8411 -2808 0
3231 -8418 -2755 0
-3231 8418 0
-3231 2755 0
3232 -3225 3227 0
3232 3225 -3227 0
-3232 3225 3227 0
-3232 -3225 -3227 0
-3233 3234 3239 0
-3233 3234 3242 0
3233 -3234 0
3233 -3239 -3242 0
3234 -3235 -3237 0
-3234 3235 0
-3234 3237 0
-3235 8454 3236 0
-3235 -8454 -3236 0
3235 -8454 3236 0
3235 8454 -3236 0
-3236 8427 8456 0
-3236 2689 2731 0
-3236 8456 2689 0
-3236 8427 2731 0
3236 -8427 -2689 0
3236 -8456 -2731 0
-3237 8416 3238 0
-3237 -8416 -3238 0
3237 -8416 3238 0
3237 8416 -3238 0
-3238 8452 8462 0
-3238 2608 2651 0
-3238 8462 2608 0
-3238 8452 2651 0
3238 -8452 -2608 0
3238 -8462 -2651 0
-3239 8439 3240 0
-3239 -8439 -3240 0
3239 -8439 3240 0
3239 8439 -3240 0
-3240 8389 3241 0
-3240 2570 3241 0
3240 -3241 0
3240 -8389 -2570 0
3241 -8458 -2546 0
-3241 8458 0
-3241 2546 0
3242 -3235 3237 0
3242 3235 -3237 0
-3242 3235 3237 0
-3242 -3235 -3237 0
-3243 3244 3251 0
3243 -3244 0
3243 -3251 0
3244 -3245 -3248 0
-3244 3245 0
-3244 3248 0
-3245 8399 3246 0
-3245 -8399 -3246 0
3245 -8399 3246 0
3245 8399 -3246 0
-3246 8448 3247 0
-3246 2529 3247 0
3246 -3247 0
3246 -8448 -2529 0
3247 -8397 -2506 0
-3247 8397 0
-3247 2506 0
-3248 8407 3249 0
-3248 -8407 -3249 0
3248 -8407 3249 0
3248 8407 -3249 0
-3249 8364 3250 0
-3249 2482 3250 0
3249 -3250 0
3249 -8364 -2482 0
3250 -8387 -2470 0
-3250 8387 0
-3250 2470 0
3251 -8407 3252 -3253 0
-3251 8407 0
-3251 -3252 0
-3251 3253 0
3252 -8387 -2482 0
-3252 8387 0
-3252 2482 0
3253 -3245 3248 0
3253 3245 -3248 0
-3253 3245 3248 0
-3253 -3245 -3248 0
3254 -3223 3233 0
3254 3223 -3233 0
-3254 3223 3233 0
-3254 -3223 -3233 0
-3255 3256 3259 0
3255 -3256 0
3255 -3259 0
3256 -3257 -3258 0
-3256 3257 0
-3256 3258 0
-3257 -3179 -3181 0
-3257 3179 3181 0
3257 3179 -3181 0
3257 -3179 3181 0
-3258 -3188 -3191 0
-3258 3188 3191 0
3258 3188 -3191 0
3258 -3188 3191 0
3259 -3260 -3261 0
-3259 3260 0
-3259 3261 0
3260 3151 -3200 0
3260 -3151 3200 0
-3260 -3151 -3200 0
-3260 3151 3200 0
3261 -3257 3258 0
3261 3257 -3258 0
-3261 3257 3258 0
-3261 -3257 -3258 0
-3262 -3192 -3201 0
-3262 3192 3201 0
3262 3192 -3201 0
3262 -3192 3201 0
3263 -3221 3255 0
3263 3221 -3255 0
-3263 3221 3255 0
-3263 -3221 -3255 0
3264 3209 -3210 0
3264 -3209 3210 0
-3264 -3209 -3210 0
-3264 3209 3210 0
3265 -3211 3266 0
3265 3211 -3266 0
-3265 3211 3266 0
-3265 -3211 -3266 0
-3266 3168 3169 0
-3266 -3168 -3169 0
3266 -3168 3169 0
3266 3168 -3169 0
3267 -3268 -3269 0
-3267 3268 0
-3267 3269 0
-3268 -3217 -3265 0
-3268 3217 3265 0
3268 3217 -3265 0
3268 -3217 3265 0
-3269 3270 3309 0
-3269 3270 3310 0
3269 -3270 0
3269 -3309 -3310 0
3270 -3271 -3307 0
-3270 3271 0
-3270 3307 0
-3271 3272 3305 0
-3271 3272 3306 0
3271 -3272 0
3271 -3305 -3306 0
3272 -3273 -3274 0
-3272 3273 0
-3272 3274 0
-3273 -3206 -3207 0
-3273 3206 3207 0
3273 3206 -3207 0
3273 -3206 3207 0
-3274 3279 3302 0
-3274 3275 3302 0
3274 -3302 0
3274 -3275 -3279 0
3275 -3276 -3277 0
-3275 3276 0
-3275 3277 0
-3276 -3239 -3242 0
-3276 3239 3242 0
3276 3239 -3242 0
3276 -3239 3242 0
3277 3278 -3253 0
3277 -3278 3253 0
-3277 -3278 -3253 0
-3277 3278 3253 0
3278 -8407 3252 0
-3278 8407 0
-3278 -3252 0
-3279 3280 3300 0
-3279 3280 3301 0
3279 -3280 0
3279 -3300 -3301 0
3280 -3281 -3290 0
-3280 3281 0
-3280 3290 0
-3281 3282 3287 0
-3281 3282 3289 0
3281 -3282 0
3281 -3287 -3289 0
3282 -3283 -3285 0
-3282 3283 0
-3282 3285 0
-3283 8445 3284 0
-3283 -8445 -3284 0
3283 -8445 3284 0
3283 8445 -3284 0
-3284 8401 8441 0
-3284 -8401 8434 0
-3284 8401 8445 0
3284 -8401 -8434 0
3284 8401 -8441 -8445 0
-3285 8391 3286 0
-3285 -8391 -3286 0
3285 -8391 3286 0
3285 8391 -3286 0
-3286 8411 8429 0
-3286 2870 2928 0
-3286 8429 2870 0
-3286 8411 2928 0
3286 -8411 -2870 0
3286 -8429 -2928 0
-3287 8460 3288 0
-3287 -8460 -3288 0
3287 -8460 3288 0
3287 8460 -3288 0
-3288 8418 8456 0
-3288 2755 2808 0
-3288 8456 2808 0
-3288 8418 2755 0
3288 -8418 -2808 0
3288 -8456 -2755 0
3289 -3283 3285 0
3289 3283 -3285 0
-3289 3283 3285 0
-3289 -3283 -3285 0
-3290 3291 3296 0
-3290 3291 3299 0
3290 -3291 0
3290 -3296 -3299 0
3291 -3292 -3294 0
-3291 3292 0
-3291 3294 0
-3292 8454 3293 0
-3292 -8454 -3293 0
3292 -8454 3293 0
3292 8454 -3293 0
-3293 8427 8462 0
-3293 2689 2731 0
-3293 8462 2731 0
-3293 8427 2689 0
3293 -8427 -2731 0
3293 -8462 -2689 0
-3294 8416 3295 0
-3294 -8416 -3295 0
3294 -8416 3295 0
3294 8416 -3295 0
-3295 8389 8452 0
-3295 2608 2651 0
-3295 8452 2608 0
-3295 8389 2651 0
3295 -8389 -2608 0
3295 -8452 -2651 0
-3296 8439 3297 0
-3296 -8439 -3297 0
3296 -8439 3297 0
3296 8439 -3297 0
-3297 8458 3298 0
-3297 2570 3298 0
3297 -3298 0
3297 -8458 -2570 0
3298 -8448 -2546 0
-3298 8448 0
-3298 2546 0
3299 -3292 3294 0
3299 3292 -3294 0
-3299 3292 3294 0
-3299 -3292 -3294 0
-3300 -3229 -3232 0
-3300 3229 3232 0
3300 3229 -3232 0
3300 -3229 3232 0
3301 -3281 3290 0
3301 3281 -3290 0
-3301 3281 3290 0
-3301 -3281 -3290 0
3302 -3303 -3304 0
-3302 3303 0
-3302 3304 0
-3303 -3243 -3254 0
-3303 3243 3254 0
3303 3243 -3254 0
3303 -3243 3254 0
-3304 3275 3279 0
-3304 -3275 -3279 0
3304 -3275 3279 0
3304 3275 -3279 0
-3305 -3262 -3263 0
-3305 3262 3263 0
3305 3262 -3263 0
3305 -3262 3263 0
3306 -3273 3274 0
3306 3273 -3274 0
-3306 3273 3274 0
-3306 -3273 -3274 0
-3307 3264 3308 0
-3307 -3264 -3308 0
3307 -3264 3308 0
3307 3264 -3308 0
-3308 3218 3219 0
-3308 -3218 -3219 0
3308 -3218 3219 0
3308 3218 -3219 0
3309 -3271 3307 0
3309 3271 -3307 0
-3309 3271 3307 0
-3309 -3271 -3307 0
-3310 3311 3351 0
-3310 3311 3352 0
3310 -3311 0
3310 -3351 -3352 0
3311 -3312 -3350 0
-3311 3312 0
-3311 3350 0
-3312 3314 3349 0
-3312 3313 3349 0
-3312 3313 3314 0
3312 -3313 -3349 0
3312 -3313 -3314 0
3312 -3314 -3349 0
3313 3260 -3261 0
3313 -3260 3261 0
-3313 -3260 -3261 0
-3313 3260 3261 0
-3314 3315 3347 0
-3314 3315 3348 0
3314 -3315 0
3314 -3347 -3348 0
3315 -3316 -3330 0
-3315 3316 0
-3315 3330 0
-3316 3317 3319 0
-3316 3252 3319 0
3316 -3319 0
3316 -3252 -3317 0
-3317 8399 3318 0
-3317 -8399 -3318 0
3317 -8399 3318 0
3317 8399 -3318 0
-3318 8364 8397 0
-3318 2506 2529 0
-3318 8397 2506 0
-3318 8364 2529 0
3318 -8364 -2506 0
3318 -8397 -2529 0
3319 -3320 -3321 0
-3319 3320 0
-3319 3321 0
-3320 3252 3317 0
-3320 -3252 -3317 0
3320 -3252 3317 0
3320 3252 -3317 0
-3321 3322 3327 0
-3321 3322 3329 0
3321 -3322 0
3321 -3327 -3329 0
3322 -3323 -3325 0
-3322 3323 0
-3322 3325 0
-3323 8445 3324 0
-3323 -8445 -3324 0
3323 -8445 3324 0
3323 8445 -3324 0
-3324 -8401 8441 0
-3324 8401 8429 0
-3324 8401 8445 0
3324 -8401 -8441 0
3324 8401 -8429 -8445 0
-3325 8391 3326 0
-3325 -8391 -3326 0
3325 -8391 3326 0
3325 8391 -3326 0
-3326 8411 8418 0
-3326 2870 2928 0
-3326 8418 2928 0
-3326 8411 2870 0
3326 -8411 -2928 0
3326 -8418 -2870 0
-3327 8460 3328 0
-3327 -8460 -3328 0
3327 -8460 3328 0
3327 8460 -3328 0
-3328 8427 8456 0
-3328 2755 2808 0
-3328 8456 2755 0
-3328 8427 2808 0
3328 -8427 -2755 0
3328 -8456 -2808 0
3329 -3323 3325 0
3329 3323 -3325 0
-3329 3323 3325 0
-3329 -3323 -3325 0
-3330 3331 3344 0
3330 -3331 0
3330 -3344 0
3331 -3332 -3343 0
-3331 3332 0
-3331 3343 0
-3332 3333 3339 0
-3332 3333 3342 0
3332 -3333 0
3332 -3339 -3342 0
3333 -3334 -3336 0
-3333 3334 0
-3333 3336 0
-3334 8454 3335 0
-3334 -8454 -3335 0
3334 -8454 3335 0
3334 8454 -3335 0
-3335 8452 8462 0
-3335 2689 2731 0
-3335 8462 2689 0
-3335 8452 2731 0
3335 -8452 -2689 0
3335 -8462 -2731 0
-3336 8416 3337 0
-3336 -8416 -3337 0
3336 -8416 3337 0
3336 8416 -3337 0
-3337 8389 3338 0
-3337 2651 3338 0
3337 -3338 0
3337 -8389 -2651 0
3338 -8458 -2608 0
-3338 8458 0
-3338 2608 0
-3339 8439 3340 0
-3339 -8439 -3340 0
3339 -8439 3340 0
3339 8439 -3340 0
-3340 8448 3341 0
-3340 2570 3341 0
3340 -3341 0
3340 -8448 -2570 0
3341 -8397 -2546 0
-3341 8397 0
-3341 2546 0
3342 -3334 3336 0
3342 3334 -3336 0
-3342 3334 3336 0
-3342 -3334 -3336 0
-3343 -3287 -3289 0
-3343 3287 3289 0
3343 3287 -3289 0
3343 -3287 3289 0
3344 -3345 -3346 0
-3344 3345 0
-3344 3346 0
-3345 -3296 -3299 0
-3345 3296 3299 0
3345 3296 -3299 0
3345 -3296 3299 0
3346 -3332 3343 0
3346 3332 -3343 0
-3346 3332 3343 0
-3346 -3332 -3343 0
-3347 -3300 -3301 0
-3347 3300 3301 0
3347 3300 -3301 0
3347 -3300 3301 0
3348 -3316 3330 0
3348 3316 -3330 0
-3348 3316 3330 0
-3348 -3316 -3330 0
3349 -3303 3304 0
3349 3303 -3304 0
-3349 3303 3304 0
-3349 -3303 -3304 0
-3350 -3305 -3306 0
-3350 3305 3306 0
3350 3305 -3306 0
3350 -3305 3306 0
3351 -3312 3350 0
3351 3312 -3350 0
-3351 3312 3350 0
-3351 -3312 -3350 0
-3352 3353 3383 0
-3352 3353 3384 0
3352 -3353 0
3352 -3383 -3384 0
3353 -3354 -3381 0
-3353 3354 0
-3353 3381 0
-3354 3355 3379 0
-3354 3355 3380 0
3354 -3355 0
3354 -3379 -3380 0
3355 -3356 -3357 0
-3355 3356 0
-3355 3357 0
-3356 -3276 -3277 0
-3356 3276 3277 0
3356 3276 -3277 0
3356 -3276 3277 0
-3357 3361 3378 0
-3357 3358 3378 0
-3357 3358 3361 0
3357 -3358 -3378 0
3357 -3358 -3361 0
3357 -3361 -3378 0
3358 -3359 -3360 0
-3358 3359 0
-3358 3360 0
-3359 -3327 -3329 0
-3359 3327 3329 0
3359 3327 -3329 0
3359 -3327 3329 0
-3360 -3339 -3342 0
-3360 3339 3342 0
3360 3339 -3342 0
3360 -3339 3342 0
-3361 3364 3367 0
-3361 3362 3367 0
3361 -3367 0
3361 -3362 -3364 0
3362 -8399 3363 0
-3362 8399 0
-3362 -3363 0
3363 -8387 -2529 0
-3363 8387 0
-3363 2529 0
-3364 8399 3365 0
-3364 -8399 -3365 0
3364 -8399 3365 0
3364 8399 -3365 0
-3365 8364 3366 0
-3365 2529 3366 0
3365 -3366 0
3365 -8364 -2529 0
3366 -8387 -2506 0
-3366 8387 0
-3366 2506 0
3367 -3368 -3369 0
-3367 3368 0
-3367 3369 0
-3368 3362 3364 0
-3368 -3362 -3364 0
3368 -3362 3364 0
3368 3362 -3364 0
-3369 3370 3375 0
-3369 3370 3377 0
3369 -3370 0
3369 -3375 -3377 0
3370 -3371 -3373 0
-3370 3371 0
-3370 3373 0
-3371 8445 3372 0
-3371 -8445 -3372 0
3371 -8445 3372 0
3371 8445 -3372 0
-3372 -8401 8429 0
-3372 8401 8411 0
-3372 8401 8445 0
3372 -8401 -8429 0
3372 8401 -8411 -8445 0
-3373 8391 3374 0
-3373 -8391 -3374 0
3373 -8391 3374 0
3373 8391 -3374 0
-3374 8418 8456 0
-3374 2870 2928 0
-3374 8456 2928 0
-3374 8418 2870 0
3374 -8418 -2928 0
3374 -8456 -2870 0
-3375 8460 3376 0
-3375 -8460 -3376 0
3375 -8460 3376 0
3375 8460 -3376 0
-3376 8427 8462 0
-3376 2755 2808 0
-3376 8462 2808 0
-3376 8427 2755 0
3376 -8427 -2808 0
3376 -8462 -2755 0
3377 -3371 3373 0
3377 3371 -3373 0
-3377 3371 3373 0
-3377 -3371 -3373 0
3378 -3320 3321 0
3378 3320 -3321 0
-3378 3320 3321 0
-3378 -3320 -3321 0
-3379 -3347 -3348 0
-3379 3347 3348 0
3379 3347 -3348 0
3379 -3347 3348 0
3380 -3356 3357 0
3380 3356 -3357 0
-3380 3356 3357 0
-3380 -3356 -3357 0
-3381 3349 3382 0
-3381 -3349 -3382 0
3381 -3349 3382 0
3381 3349 -3382 0
-3382 3313 3314 0
-3382 -3313 -3314 0
3382 -3313 3314 0
3382 3313 -3314 0
3383 -3354 3381 0
3383 3354 -3381 0
-3383 3354 3381 0
-3383 -3354 -3381 0
-3384 3385 3422 0
-3384 3385 3423 0
3384 -3385 0
3384 -3422 -3423 0
3385 -3386 -3387 0
-3385 3386 0
-3385 3387 0
-3386 -3379 -3380 0
-3386 3379 3380 0
3386 3379 -3380 0
3386 -3379 3380 0
-3387 3388 3419 0
-3387 3388 3421 0
3387 -3388 0
3387 -3419 -3421 0
3388 -3389 -3390 0
-3388 3389 0
-3388 3390 0
-3389 -3345 -3346 0
-3389 3345 3346 0
3389 3345 -3346 0
3389 -3345 3346 0
-3390 3391 3416 0
3390 -3391 0
3390 -3416 0
3391 -3392 -3402 0
-3391 3392 0
-3391 3402 0
-3392 3393 3398 0
-3392 3393 3401 0
3392 -3393 0
3392 -3398 -3401 0
3393 -3394 -3396 0
-3393 3394 0
-3393 3396 0
-3394 8454 3395 0
-3394 -8454 -3395 0
3394 -8454 3395 0
3394 8454 -3395 0
-3395 8389 8452 0
-3395 2689 2731 0
-3395 8452 2689 0
-3395 8389 2731 0
3395 -8389 -2689 0
3395 -8452 -2731 0
-3396 8416 3397 0
-3396 -8416 -3397 0
3396 -8416 3397 0
3396 8416 -3397 0
-3397 8448 8458 0
-3397 2608 2651 0
-3397 8458 2608 0
-3397 8448 2651 0
3397 -8448 -2608 0
3397 -8458 -2651 0
-3398 8439 3399 0
-3398 -8439 -3399 0
3398 -8439 3399 0
3398 8439 -3399 0
-3399 8397 3400 0
-3399 2570 3400 0
3399 -3400 0
3399 -8397 -2570 0
3400 -8364 -2546 0
-3400 8364 0
-3400 2546 0
3401 -3394 3396 0
3401 3394 -3396 0
-3401 3394 3396 0
-3401 -3394 -3396 0
-3402 3403 3413 0
-3402 3363 3413 0
3402 -3413 0
3402 -3363 -3403 0
-3403 3404 3409 0
3403 -3404 0
3403 -3409 0
3404 -3405 -3407 0
-3404 3405 0
-3404 3407 0
-3405 8445 3406 0
-3405 -8445 -3406 0
3405 -8445 3406 0
3405 8445 -3406 0
-3406 8401 8418 0
-3406 -8401 8411 0
-3406 8401 8445 0
3406 -8401 -8411 0
3406 8401 -8418 -8445 0
-3407 8391 3408 0
-3407 -8391 -3408 0
3407 -8391 3408 0
3407 8391 -3408 0
-3408 8427 8456 0
-3408 2870 2928 0
-3408 8456 2870 0
-3408 8427 2928 0
3408 -8427 -2870 0
3408 -8456 -2928 0
3409 -3410 -3412 0
-3409 3410 0
-3409 3412 0
-3410 8460 3411 0
-3410 -8460 -3411 0
3410 -8460 3411 0
3410 8460 -3411 0
-3411 8452 8462 0
-3411 2755 2808 0
-3411 8462 2755 0
-3411 8452 2808 0
3411 -8452 -2755 0
3411 -8462 -2808 0
3412 -3405 3407 0
3412 3405 -3407 0
-3412 3405 3407 0
-3412 -3405 -3407 0
3413 -3414 -3415 0
-3413 3414 0
-3413 3415 0
-3414 -3375 -3377 0
-3414 3375 3377 0
3414 3375 -3377 0
3414 -3375 3377 0
-3415 3363 3403 0
-3415 -3363 -3403 0
3415 -3363 3403 0
3415 3363 -3403 0
3416 -3417 -3418 0
-3416 3417 0
-3416 3418 0
3417 -3368 3369 0
3417 3368 -3369 0
-3417 3368 3369 0
-3417 -3368 -3369 0
3418 -3392 3402 0
3418 3392 -3402 0
-3418 3392 3402 0
-3418 -3392 -3402 0
-3419 3378 3420 0
-3419 -3378 -3420 0
3419 -3378 3420 0
3419 3378 -3420 0
-3420 3358 3361 0
-3420 -3358 -3361 0
3420 -3358 3361 0
3420 3358 -3361 0
3421 -3389 3390 0
3421 3389 -3390 0
-3421 3389 3390 0
-3421 -3389 -3390 0
3422 -3386 3387 0
3422 3386 -3387 0
-3422 3386 3387 0
-3422 -3386 -3387 0
-3423 3424 3448 0
-3423 3424 3449 0
3423 -3424 0
3423 -3448 -3449 0
3424 -3425 -3447 0
-3424 3425 0
-3424 3447 0
-3425 3427 3446 0
-3425 3426 3446 0
-3425 3426 3427 0
3425 -3426 -3446 0
3425 -3426 -3427 0
3425 -3427 -3446 0
3426 -3359 3360 0
3426 3359 -3360 0
-3426 3359 3360 0
-3426 -3359 -3360 0
-3427 3428 3443 0
-3427 3439 3443 0
3427 -3443 0
3427 -3428 -3439 0
-3428 3429 3435 0
-3428 3429 3438 0
3428 -3429 0
3428 -3435 -3438 0
3429 -3430 -3432 0
-3429 3430 0
-3429 3432 0
-3430 8454 3431 0
-3430 -8454 -3431 0
3430 -8454 3431 0
3430 8454 -3431 0
-3431 8389 8458 0
-3431 2689 2731 0
-3431 8458 2731 0
-3431 8389 2689 0
3431 -8389 -2731 0
3431 -8458 -2689 0
-3432 8416 3433 0
-3432 -8416 -3433 0
3432 -8416 3433 0
3432 8416 -3433 0
-3433 8448 3434 0
-3433 2651 3434 0
3433 -3434 0
3433 -8448 -2651 0
3434 -8397 -2608 0
-3434 8397 0
-3434 2608 0
-3435 8439 3436 0
-3435 -8439 -3436 0
3435 -8439 3436 0
3435 8439 -3436 0
-3436 8364 3437 0
-3436 2570 3437 0
3436 -3437 0
3436 -8364 -2570 0
3437 -8387 -2546 0
-3437 8387 0
-3437 2546 0
3438 -3430 3432 0
3438 3430 -3432 0
-3438 3430 3432 0
-3438 -3430 -3432 0
3439 -3440 -3442 0
-3439 3440 0
-3439 3442 0
3440 -8439 3441 0
-3440 8439 0
-3440 -3441 0
3441 -8387 -2570 0
-3441 8387 0
-3441 2570 0
-3442 -3410 -3412 0
-3442 3410 3412 0
3442 3410 -3412 0
3442 -3410 3412 0
3443 -3444 -3445 0
-3443 3444 0
-3443 3445 0
-3444 -3398 -3401 0
-3444 3398 3401 0
3444 3398 -3401 0
3444 -3398 3401 0
-3445 -3428 -3439 0
-3445 3428 3439 0
3445 3428 -3439 0
3445 -3428 3439 0
3446 3417 -3418 0
3446 -3417 3418 0
-3446 -3417 -3418 0
-3446 3417 3418 0
-3447 -3419 -3421 0
-3447 3419 3421 0
3447 3419 -3421 0
3447 -3419 3421 0
3448 -3425 3447 0
3448 3425 -3447 0
-3448 3425 3447 0
-3448 -3425 -3447 0
-3449 3450 3477 0
-3449 3450 3478 0
3449 -3450 0
3449 -3477 -3478 0
3450 -3451 -3475 0
-3450 3451 0
-3450 3475 0
-3451 3453 3474 0
-3451 3452 3474 0
-3451 3452 3453 0
3451 -3452 -3474 0
3451 -3452 -3453 0
3451 -3453 -3474 0
3452 -3414 3415 0
3452 3414 -3415 0
-3452 3414 3415 0
-3452 -3414 -3415 0
-3453 3454 3472 0
-3453 3454 3473 0
3453 -3454 0
3453 -3472 -3473 0
3454 -3455 -3464 0
-3454 3455 0
-3454 3464 0
-3455 3456 3461 0
-3455 3456 3463 0
3455 -3456 0
3455 -3461 -3463 0
3456 -3457 -3459 0
-3456 3457 0
-3456 3459 0
-3457 8445 3458 0
-3457 -8445 -3458 0
3457 -8445 3458 0
3457 8445 -3458 0
-3458 8401 8445 0
-3458 -8401 8418 0
-3458 8401 8456 0
3458 -8401 -8418 0
3458 8401 -8445 -8456 0
-3459 8391 3460 0
-3459 -8391 -3460 0
3459 -8391 3460 0
3459 8391 -3460 0
-3460 8427 8462 0
-3460 2870 2928 0
-3460 8462 2928 0
-3460 8427 2870 0
3460 -8427 -2928 0
3460 -8462 -2870 0
-3461 8460 3462 0
-3461 -8460 -3462 0
3461 -8460 3462 0
3461 8460 -3462 0
-3462 8389 8452 0
-3462 2755 2808 0
-3462 8452 2755 0
-3462 8389 2808 0
3462 -8389 -2755 0
3462 -8452 -2808 0
3463 -3457 3459 0
3463 3457 -3459 0
-3463 3457 3459 0
-3463 -3457 -3459 0
-3464 3465 3470 0
3464 -3465 0
3464 -3470 0
3465 -3466 -3468 0
-3465 3466 0
-3465 3468 0
-3466 8454 3467 0
-3466 -8454 -3467 0
3466 -8454 3467 0
3466 8454 -3467 0
-3467 8448 8458 0
-3467 2689 2731 0
-3467 8458 2689 0
-3467 8448 2731 0
3467 -8448 -2689 0
3467 -8458 -2731 0
-3468 8416 3469 0
-3468 -8416 -3469 0
3468 -8416 3469 0
3468 8416 -3469 0
-3469 8364 8397 0
-3469 2608 2651 0
-3469 8397 2608 0
-3469 8364 2651 0
3469 -8364 -2608 0
3469 -8397 -2651 0
3470 -3441 -3471 0
-3470 3441 0
-3470 3471 0
3471 -3466 3468 0
3471 3466 -3468 0
-3471 3466 3468 0
-3471 -3466 -3468 0
-3472 -3435 -3438 0
-3472 3435 3438 0
3472 3435 -3438 0
3472 -3435 3438 0
3473 -3455 3464 0
3473 3455 -3464 0
-3473 3455 3464 0
-3473 -3455 -3464 0
3474 -3444 3445 0
3474 3444 -3445 0
-3474 3444 3445 0
-3474 -3444 -3445 0
-3475 -3476 -3446 0
-3475 3476 3446 0
3475 3476 -3446 0
3475 -3476 3446 0
-3476 3426 3427 0
-3476 -3426 -3427 0
3476 -3426 3427 0
3476 3426 -3427 0
3477 -3451 3475 0
3477 3451 -3475 0
-3477 3451 3475 0
-3477 -3451 -3475 0
-3478 3479 3509 0
-3478 3479 3510 0
3478 -3479 0
3478 -3509 -3510 0
3479 -3480 -3507 0
-3479 3480 0
-3479 3507 0
-3480 3481 3505 0
-3480 3481 3506 0
3480 -3481 0
3480 -3505 -3506 0
3481 -3482 -3483 0
-3481 3482 0
-3481 3483 0
-3482 3440 3442 0
-3482 -3440 -3442 0
3482 -3440 3442 0
3482 3440 -3442 0
-3483 3484 3503 0
-3483 3484 3504 0
3483 -3484 0
3483 -3503 -3504 0
3484 -3485 -3494 0
-3484 3485 0
-3484 3494 0
-3485 3486 3491 0
-3485 3486 3493 0
3485 -3486 0
3485 -3491 -3493 0
3486 -3487 -3489 0
-3486 3487 0
-3486 3489 0
-3487 8445 3488 0
-3487 -8445 -3488 0
3487 -8445 3488 0
3487 8445 -3488 0
-3488 -8401 8456 0
-3488 8401 8445 0
-3488 8401 8427 0
3488 -8401 -8456 0
3488 8401 -8427 -8445 0
-3489 8391 3490 0
-3489 -8391 -3490 0
3489 -8391 3490 0
3489 8391 -3490 0
-3490 8452 8462 0
-3490 2870 2928 0
-3490 8462 2870 0
-3490 8452 2928 0
3490 -8452 -2870 0
3490 -8462 -2928 0
-3491 8460 3492 0
-3491 -8460 -3492 0
3491 -8460 3492 0
3491 8460 -3492 0
-3492 8389 8458 0
-3492 2755 2808 0
-3492 8458 2808 0
-3492 8389 2755 0
3492 -8389 -2808 0
3492 -8458 -2755 0
3493 -3487 3489 0
3493 3487 -3489 0
-3493 3487 3489 0
-3493 -3487 -3489 0
-3494 3495 3500 0
3494 -3495 0
3494 -3500 0
3495 -3496 -3498 0
-3495 3496 0
-3495 3498 0
-3496 8454 3497 0
-3496 -8454 -3497 0
3496 -8454 3497 0
3496 8454 -3497 0
-3497 8397 8448 0
-3497 2689 2731 0
-3497 8448 2689 0
-3497 8397 2731 0
3497 -8397 -2689 0
3497 -8448 -2731 0
-3498 8416 3499 0
-3498 -8416 -3499 0
3498 -8416 3499 0
3498 8416 -3499 0
-3499 8364 8387 0
-3499 2608 2651 0
-3499 8387 2651 0
-3499 8364 2608 0
3499 -8364 -2651 0
3499 -8387 -2608 0
3500 -8416 3501 -3502 0
-3500 8416 0
-3500 -3501 0
-3500 3502 0
3501 -8387 -2651 0
-3501 8387 0
-3501 2651 0
3502 -3496 3498 0
3502 3496 -3498 0
-3502 3496 3498 0
-3502 -3496 -3498 0
-3503 -3461 -3463 0
-3503 3461 3463 0
3503 3461 -3463 0
3503 -3461 3463 0
3504 -3485 3494 0
3504 3485 -3494 0
-3504 3485 3494 0
-3504 -3485 -3494 0
-3505 -3472 -3473 0
-3505 3472 3473 0
3505 3472 -3473 0
3505 -3472 3473 0
3506 -3482 3483 0
3506 3482 -3483 0
-3506 3482 3483 0
-3506 -3482 -3483 0
-3507 3474 3508 0
-3507 -3474 -3508 0
3507 -3474 3508 0
3507 3474 -3508 0
-3508 3452 3453 0
-3508 -3452 -3453 0
3508 -3452 3453 0
3508 3452 -3453 0
3509 -3480 3507 0
3509 3480 -3507 0
-3509 3480 3507 0
-3509 -3480 -3507 0
-3510 3511 3532 0
-3510 3511 3533 0
3510 -3511 0
3510 -3532 -3533 0
3511 -3512 -3531 0
-3511 3512 0
-3511 3531 0
-3512 3513 3514 0
-3512 3514 3530 0
-3512 3513 3530 0
3512 -3514 -3530 0
3512 -3513 -3514 0
3512 -3513 -3530 0
3513 3441 -3471 0
3513 -3441 3471 0
-3513 -3441 -3471 0
-3513 3441 3471 0
-3514 3515 3526 0
3514 -3515 0
3514 -3526 0
3515 -3516 -3525 0
-3515 3516 0
-3515 3525 0
-3516 3517 3522 0
-3516 3517 3524 0
3516 -3517 0
3516 -3522 -3524 0
3517 -3518 -3520 0
-3517 3518 0
-3517 3520 0
-3518 8445 3519 0
-3518 -8445 -3519 0
3518 -8445 3519 0
3518 8445 -3519 0
-3519 8401 8445 0
-3519 -8401 8427 0
-3519 8401 8462 0
3519 -8401 -8427 0
3519 8401 -8445 -8462 0
-3520 8391 3521 0
-3520 -8391 -3521 0
3520 -8391 3521 0
3520 8391 -3521 0
-3521 8389 8452 0
-3521 2870 2928 0
-3521 8452 2870 0
-3521 8389 2928 0
3521 -8389 -2870 0
3521 -8452 -2928 0
-3522 8460 3523 0
-3522 -8460 -3523 0
3522 -8460 3523 0
3522 8460 -3523 0
-3523 8448 8458 0
-3523 2755 2808 0
-3523 8458 2755 0
-3523 8448 2808 0
3523 -8448 -2755 0
3523 -8458 -2808 0
3524 -3518 3520 0
3524 3518 -3520 0
-3524 3518 3520 0
-3524 -3518 -3520 0
-3525 -3491 -3493 0
-3525 3491 3493 0
3525 3491 -3493 0
3525 -3491 3493 0
3526 -3527 -3529 0
-3526 3527 0
-3526 3529 0
3527 3528 -3502 0
3527 -3528 3502 0
-3527 -3528 -3502 0
-3527 3528 3502 0
3528 -8416 3501 0
-3528 8416 0
-3528 -3501 0
3529 -3516 3525 0
3529 3516 -3525 0
-3529 3516 3525 0
-3529 -3516 -3525 0
-3530 -3503 -3504 0
-3530 3503 3504 0
3530 3503 -3504 0
3530 -3503 3504 0
-3531 -3505 -3506 0
-3531 3505 3506 0
3531 3505 -3506 0
3531 -3505 3506 0
3532 -3512 3531 0
3532 3512 -3531 0
-3532 3512 3531 0
-3532 -3512 -3531 0
-3533 3534 3554 0
-3533 3534 3555 0
3533 -3534 0
3533 -3554 -3555 0
3534 -3535 -3552 0
-3534 3535 0
-3534 3552 0
3535 -3536 -3551 0
-3535 3536 0
-3535 3551 0
-3536 3537 3539 0
-3536 3501 3539 0
3536 -3539 0
3536 -3501 -3537 0
-3537 8454 3538 0
-3537 -8454 -3538 0
3537 -8454 3538 0
3537 8454 -3538 0
-3538 8364 8397 0
-3538 2689 2731 0
-3538 8397 2689 0
-3538 8364 2731 0
3538 -8364 -2689 0
3538 -8397 -2731 0
3539 -3540 -3541 0
-3539 3540 0
-3539 3541 0
-3540 3501 3537 0
-3540 -3501 -3537 0
3540 -3501 3537 0
3540 3501 -3537 0
-3541 3542 3547 0
-3541 3542 3550 0
3541 -3542 0
3541 -3547 -3550 0
3542 -3543 -3545 0
-3542 3543 0
-3542 3545 0
-3543 8445 3544 0
-3543 -8445 -3544 0
3543 -8445 3544 0
3543 8445 -3544 0
-3544 -8401 8462 0
-3544 8401 8452 0
-3544 8401 8445 0
3544 -8401 -8462 0
3544 8401 -8445 -8452 0
-3545 8391 3546 0
-3545 -8391 -3546 0
3545 -8391 3546 0
3545 8391 -3546 0
-3546 8389 8458 0
-3546 2870 2928 0
-3546 8458 2928 0
-3546 8389 2870 0
3546 -8389 -2928 0
3546 -8458 -2870 0
-3547 8460 3548 0
-3547 -8460 -3548 0
3547 -8460 3548 0
3547 8460 -3548 0
-3548 8448 3549 0
-3548 2808 3549 0
3548 -3549 0
3548 -8448 -2808 0
3549 -8397 -2755 0
-3549 8397 0
-3549 2755 0
3550 -3543 3545 0
3550 3543 -3545 0
-3550 3543 3545 0
-3550 -3543 -3545 0
3551 3527 -3529 0
3551 -3527 3529 0
-3551 -3527 -3529 0
-3551 3527 3529 0
3552 -3530 3553 0
3552 3530 -3553 0
-3552 3530 3553 0
-3552 -3530 -3553 0
-3553 3513 3514 0
-3553 -3513 -3514 0
3553 -3513 3514 0
3553 3513 -3514 0
3554 3535 -3552 0
3554 -3535 3552 0
-3554 -3535 -3552 0
-3554 3535 3552 0
-3555 3556 3572 0
-3555 3556 3573 0
3555 -3556 0
3555 -3572 -3573 0
3556 -3557 -3571 0
-3556 3557 0
-3556 3571 0
-3557 3558 3568 0
3557 -3558 0
3557 -3568 0
3558 -3559 -3560 0
-3558 3559 0
-3558 3560 0
-3559 -3522 -3524 0
-3559 3522 3524 0
3559 3522 -3524 0
3559 -3522 3524 0
-3560 -3561 3564 0
-3560 3562 3564 0
-3560 8454 3564 0
3560 -3564 0
3560 -8454 3561 -3562 0
3561 -8387 -2731 0
-3561 8387 0
-3561 2731 0
-3562 8454 3563 0
-3562 -8454 -3563 0
3562 -8454 3563 0
3562 8454 -3563 0
-3563 8364 8387 0
-3563 2689 2731 0
-3563 8387 2731 0
-3563 8364 2689 0
3563 -8364 -2731 0
3563 -8387 -2689 0
3564 -3565 -3567 0
-3564 3565 0
-3564 3567 0
-3565 3566 3562 0
-3565 -3566 -3562 0
3565 -3566 3562 0
3565 3566 -3562 0
3566 -8454 3561 0
-3566 8454 0
-3566 -3561 0
-3567 -3547 -3550 0
-3567 3547 3550 0
3567 3547 -3550 0
3567 -3547 3550 0
3568 -3569 -3570 0
-3568 3569 0
-3568 3570 0
3569 -3540 3541 0
3569 3540 -3541 0
-3569 3540 3541 0
-3569 -3540 -3541 0
3570 -3559 3560 0
3570 3559 -3560 0
-3570 3559 3560 0
-3570 -3559 -3560 0
-3571 -3536 -3551 0
-3571 3536 3551 0
3571 3536 -3551 0
3571 -3536 3551 0
3572 -3557 3571 0
3572 3557 -3571 0
-3572 3557 3571 0
-3572 -3557 -3571 0
-3573 3574 3588 0
-3573 3574 3589 0
3573 -3574 0
3573 -3588 -3589 0
3574 -3575 -3587 0
-3574 3575 0
-3574 3587 0
3575 -3576 -3586 0
-3575 3576 0
-3575 3586 0
-3576 3577 3582 0
3576 -3577 0
3576 -3582 0
3577 -3578 -3580 0
-3577 3578 0
-3577 3580 0
-3578 8445 3579 0
-3578 -8445 -3579 0
3578 -8445 3579 0
3578 8445 -3579 0
-3579 8401 8445 0
-3579 -8401 8452 0
-3579 8389 8401 0
3579 -8401 -8452 0
3579 -8389 8401 -8445 0
-3580 8391 3581 0
-3580 -8391 -3581 0
3580 -8391 3581 0
3580 8391 -3581 0
-3581 8448 8458 0
-3581 2870 2928 0
-3581 8458 2870 0
-3581 8448 2928 0
3581 -8448 -2870 0
3581 -8458 -2928 0
3582 -3583 -3585 0
-3582 3583 0
-3582 3585 0
-3583 8460 3584 0
-3583 -8460 -3584 0
3583 -8460 3584 0
3583 8460 -3584 0
-3584 8364 8397 0
-3584 2755 2808 0
-3584 8397 2755 0
-3584 8364 2808 0
3584 -8364 -2755 0
3584 -8397 -2808 0
3585 -3578 3580 0
3585 3578 -3580 0
-3585 3578 3580 0
-3585 -3578 -3580 0
3586 -3565 3567 0
3586 3565 -3567 0
-3586 3565 3567 0
-3586 -3565 -3567 0
3587 3569 -3570 0
3587 -3569 3570 0
-3587 -3569 -3570 0
-3587 3569 3570 0
3588 3575 -3587 0
3588 -3575 3587 0
-3588 -3575 -3587 0
-3588 3575 3587 0
-3589 3590 3605 0
-3589 3590 3606 0
3589 -3590 0
3589 -3605 -3606 0
3590 -3591 -3604 0
-3590 3591 0
-3590 3604 0
-3591 3592 3601 0
-3591 3561 3601 0
3591 -3601 0
3591 -3561 -3592 0
-3592 3593 3598 0
-3592 3593 3600 0
3592 -3593 0
3592 -3598 -3600 0
3593 -3594 -3596 0
-3593 3594 0
-3593 3596 0
-3594 8445 3595 0
-3594 -8445 -3595 0
3594 -8445 3595 0
3594 8445 -3595 0
-3595 8401 8458 0
-3595 8389 -8401 0
-3595 8401 8445 0
3595 -8389 -8401 0
3595 8401 -8445 -8458 0
-3596 8391 3597 0
-3596 -8391 -3597 0
3596 -8391 3597 0
3596 8391 -3597 0
-3597 8397 8448 0
-3597 2870 2928 0
-3597 8448 2870 0
-3597 8397 2928 0
3597 -8397 -2870 0
3597 -8448 -2928 0
-3598 8460 3599 0
-3598 -8460 -3599 0
3598 -8460 3599 0
3598 8460 -3599 0
-3599 8364 8387 0
-3599 2755 2808 0
-3599 8387 2808 0
-3599 8364 2755 0
3599 -8364 -2808 0
3599 -8387 -2755 0
3600 -3594 3596 0
3600 3594 -3596 0
-3600 3594 3596 0
-3600 -3594 -3596 0
3601 -3602 -3603 0
-3601 3602 0
-3601 3603 0
-3602 -3583 -3585 0
-3602 3583 3585 0
3602 3583 -3585 0
3602 -3583 3585 0
-3603 3561 3592 0
-3603 -3561 -3592 0
3603 -3561 3592 0
3603 3561 -3592 0
-3604 -3576 -3586 0
-3604 3576 3586 0
3604 3576 -3586 0
3604 -3576 3586 0
3605 -3591 3604 0
3605 3591 -3604 0
-3605 3591 3604 0
-3605 -3591 -3604 0
-3606 3607 3613 0
-3606 3607 3644 0
3606 -3607 0
3606 -3613 -3644 0
3607 -3608 -3612 0
-3607 3608 0
-3607 3612 0
3608 -3609 -3611 0
-3608 3609 0
-3608 3611 0
3609 -8460 3610 0
-3609 8460 0
-3609 -3610 0
3610 -8387 -2808 0
-3610 8387 0
-3610 2808 0
-3611 -3598 -3600 0
-3611 3598 3600 0
3611 3598 -3600 0
3611 -3598 3600 0
3612 -3602 3603 0
3612 3602 -3603 0
-3612 3602 3603 0
-3612 -3602 -3603 0
-3613 3614 3624 0
-3613 3614 3643 0
3613 -3614 0
3613 -3624 -3643 0
3614 -3615 -3623 0
-3614 3615 0
-3614 3623 0
-3615 3616 3621 0
3615 -3616 0
3615 -3621 0
3616 -3617 -3619 0
-3616 3617 0
-3616 3619 0
-3617 8445 3618 0
-3617 -8445 -3618 0
3617 -8445 3618 0
3617 8445 -3618 0
-3618 -8401 8458 0
-3618 8401 8448 0
-3618 8401 8445 0
3618 -8401 -8458 0
3618 8401 -8445 -8448 0
-3619 8391 3620 0
-3619 -8391 -3620 0
3619 -8391 3620 0
3619 8391 -3620 0
-3620 8364 8397 0
-3620 2870 2928 0
-3620 8397 2870 0
-3620 8364 2928 0
3620 -8364 -2870 0
3620 -8397 -2928 0
3621 -3610 -3622 0
-3621 3610 0
-3621 3622 0
3622 -3617 3619 0
3622 3617 -3619 0
-3622 3617 3619 0
-3622 -3617 -3619 0
-3623 3609 3611 0
-3623 -3609 -3611 0
3623 -3609 3611 0
3623 3609 -3611 0
-3624 3634 3635 0
-3624 3625 3634 0
-3624 3625 3635 0
3624 -3625 -3634 0
3624 -3634 -3635 0
3624 -3625 -3635 0
-3625 3626 3631 0
3625 -3626 0
3625 -3631 0
3626 -3627 -3629 0
-3626 3627 0
-3626 3629 0
-3627 8445 3628 0
-3627 -8445 -3628 0
3627 -8445 3628 0
3627 8445 -3628 0
-3628 8401 8445 0
-3628 -8401 8448 0
-3628 8397 8401 0
3628 -8401 -8448 0
3628 -8397 8401 -8445 0
-3629 8391 3630 0
-3629 -8391 -3630 0
3629 -8391 3630 0
3629 8391 -3630 0
-3630 8364 8387 0
-3630 2870 2928 0
-3630 8387 2928 0
-3630 8364 2870 0
3630 -8364 -2928 0
3630 -8387 -2870 0
3631 -8391 3632 -3633 0
-3631 8391 0
-3631 -3632 0
-3631 3633 0
3632 -8387 -2928 0
-3632 8387 0
-3632 2928 0
3633 -3627 3629 0
3633 3627 -3629 0
-3633 3627 3629 0
-3633 -3627 -3629 0
3634 3610 -3622 0
3634 -3610 3622 0
-3634 -3610 -3622 0
-3634 3610 3622 0
3635 -3636 -3641 0
-3635 3636 0
-3635 3641 0
-3636 3637 3639 0
-3636 3632 3639 0
-3636 3632 3637 0
3636 -3632 -3639 0
3636 -3632 -3637 0
3636 -3637 -3639 0
-3637 8445 3638 0
-3637 -8445 -3638 0
3637 -8445 3638 0
3637 8445 -3638 0
-3638 8401 8445 0
-3638 8397 -8401 0
-3638 8364 8401 0
3638 -8397 -8401 0
3638 -8364 8401 -8445 0
3639 8387 -8445 3640 0
-3639 -8387 0
-3639 8445 0
-3639 -3640 0
3640 -8364 -8401 0
-3640 8364 0
-3640 8401 0
3641 3642 -3633 0
3641 -3642 3633 0
-3641 -3642 -3633 0
-3641 3642 3633 0
3642 -8391 3632 0
-3642 8391 0
-3642 -3632 0
3643 -3615 3623 0
3643 3615 -3623 0
-3643 3615 3623 0
-3643 -3615 -3623 0
3644 3608 -3612 0
3644 -3608 3612 0
-3644 -3608 -3612 0
-3644 3608 3612 0
3645 -2643 2673 0
-3645 2643 0
-3645 -2673 0
3646 -5 1230 0
3646 5 -1230 0
-3646 5 1230 0
-3646 -5 -1230 0
-3647 3648 3655 0
-3647 3655 3656 0
-3647 3648 3656 0
3647 -3648 -3656 0
3647 -3655 -3656 0
3647 -3648 -3655 0
-3648 3649 3652 0
3648 -3649 0
3648 -3652 0
3649 -3650 -3651 0
-3649 3650 0
-3649 3651 0
3650 33 -34 0
3650 -33 34 0
-3650 -33 -34 0
-3650 33 34 0
3651 1258 -1259 0
3651 -1258 1259 0
-3651 -1258 -1259 0
-3651 1258 1259 0
3652 -3653 -3654 0
-3652 3653 0
-3652 3654 0
3653 2461 -2462 0
3653 -2461 2462 0
-3653 -2461 -2462 0
-3653 2461 2462 0
3654 3650 -3651 0
3654 -3650 3651 0
-3654 -3650 -3651 0
-3654 3650 3651 0
-3655 -2435 -3646 0
-3655 2435 3646 0
3655 2435 -3646 0
3655 -2435 3646 0
-3656 3657 3664 0
-3656 3657 3663 0
-3656 3663 3664 0
3656 -3663 -3664 0
3656 -3657 -3664 0
3656 -3657 -3663 0
-3657 3658 3661 0
-3657 3658 3662 0
3657 -3658 0
3657 -3661 -3662 0
3658 -3659 -3660 0
-3658 3659 0
-3658 3660 0
-3659 -66 -67 0
-3659 66 67 0
3659 66 -67 0
3659 -66 67 0
-3660 -1288 -1289 0
-3660 1288 1289 0
3660 1288 -1289 0
3660 -1288 1289 0
-3661 -2492 -2493 0
-3661 2492 2493 0
3661 2492 -2493 0
3661 -2492 2493 0
3662 -3659 3660 0
3662 3659 -3660 0
-3662 3659 3660 0
-3662 -3659 -3660 0
3663 3653 -3654 0
3663 -3653 3654 0
-3663 -3653 -3654 0
-3663 3653 3654 0
-3664 3665 3672 0
-3664 3672 3673 0
-3664 3665 3673 0
3664 -3665 -3673 0
3664 -3672 -3673 0
3664 -3665 -3672 0
-3665 3666 3669 0
3665 -3666 0
3665 -3669 0
3666 -3667 -3668 0
-3666 3667 0
-3666 3668 0
3667 91 -92 0
3667 -91 92 0
-3667 -91 -92 0
-3667 91 92 0
3668 1312 -1313 0
3668 -1312 1313 0
-3668 -1312 -1313 0
-3668 1312 1313 0
3669 -3670 -3671 0
-3669 3670 0
-3669 3671 0
3670 2516 -2517 0
3670 -2516 2517 0
-3670 -2516 -2517 0
-3670 2516 2517 0
3671 3667 -3668 0
3671 -3667 3668 0
-3671 -3667 -3668 0
-3671 3667 3668 0
-3672 -3661 -3662 0
-3672 3661 3662 0
3672 3661 -3662 0
3672 -3661 3662 0
-3673 3674 3681 0
-3673 3674 3680 0
-3673 3680 3681 0
3673 -3680 -3681 0
3673 -3674 -3681 0
3673 -3674 -3680 0
-3674 3675 3678 0
-3674 3675 3679 0
3674 -3675 0
3674 -3678 -3679 0
3675 -3676 -3677 0
-3675 3676 0
-3675 3677 0
-3676 -134 -135 0
-3676 134 135 0
3676 134 -135 0
3676 -134 135 0
-3677 -1355 -1356 0
-3677 1355 1356 0
3677 1355 -1356 0
3677 -1355 1356 0
-3678 -2555 -2556 0
-3678 2555 2556 0
3678 2555 -2556 0
3678 -2555 2556 0
3679 -3676 3677 0
3679 3676 -3677 0
-3679 3676 3677 0
-3679 -3676 -3677 0
3680 3670 -3671 0
3680 -3670 3671 0
-3680 -3670 -3671 0
-3680 3670 3671 0
-3681 3682 3688 0
-3681 -3678 -3679 3682 0
-3681 -3678 -3679 3688 0
-3681 3678 3679 3682 0
-3681 3678 3679 3688 0
3681 -3682 -3688 0
3681 -3678 3679 -3688 0
3681 3678 -3679 -3688 0
3681 3678 -3679 -3682 0
3681 -3678 3679 -3682 0
-3682 3683 3686 0
-3682 3683 3687 0
3682 -3683 0
3682 -3686 -3687 0
3683 -3684 -3685 0
-3683 3684 0
-3683 3685 0
-3684 -162 -163 0
-3684 162 163 0
3684 162 -163 0
3684 -162 163 0
-3685 -1381 -1382 0
-3685 1381 1382 0
3685 1381 -1382 0
3685 -1381 1382 0
-3686 -2582 -2583 0
-3686 2582 2583 0
3686 2582 -2583 0
3686 -2582 2583 0
3687 -3684 3685 0
3687 3684 -3685 0
-3687 3684 3685 0
-3687 -3684 -3685 0
-3688 3689 3695 0
-3688 3695 3696 0
-3688 3689 3696 0
3688 -3689 -3696 0
3688 -3695 -3696 0
3688 -3689 -3695 0
-3689 3690 3693 0
-3689 3690 3694 0
3689 -3690 0
3689 -3693 -3694 0
3690 -3691 -3692 0
-3690 3691 0
-3690 3692 0
-3691 -214 -215 0
-3691 214 215 0
3691 214 -215 0
3691 -214 215 0
-3692 -1431 -1432 0
-3692 1431 1432 0
3692 1431 -1432 0
3692 -1431 1432 0
-3693 -2639 -2640 0
-3693 2639 2640 0
3693 2639 -2640 0
3693 -2639 2640 0
3694 -3691 3692 0
3694 3691 -3692 0
-3694 3691 3692 0
-3694 -3691 -3692 0
-3695 -3686 -3687 0
-3695 3686 3687 0
3695 3686 -3687 0
3695 -3686 3687 0
-3696 3697 3704 0
-3696 3704 3705 0
-3696 3697 3705 0
3696 -3697 -3705 0
3696 -3704 -3705 0
3696 -3697 -3704 0
-3697 3698 3701 0
3697 -3698 0
3697 -3701 0
3698 -3699 -3700 0
-3698 3699 0
-3698 3700 0
3699 249 -250 0
3699 -249 250 0
-3699 -249 -250 0
-3699 249 250 0
3700 1465 -1466 0
3700 -1465 1466 0
-3700 -1465 -1466 0
-3700 1465 1466 0
3701 -3702 -3703 0
-3701 3702 0
-3701 3703 0
3702 2642 -2674 0
3702 -2642 2674 0
-3702 -2642 -2674 0
-3702 2642 2674 0
3703 3699 -3700 0
3703 -3699 3700 0
-3703 -3699 -3700 0
-3703 3699 3700 0
-3704 -3693 -3694 0
-3704 3693 3694 0
3704 3693 -3694 0
3704 -3693 3694 0
-3705 3706 3713 0
-3705 3706 3712 0
-3705 3712 3713 0
3705 -3712 -3713 0
3705 -3706 -3713 0
3705 -3706 -3712 0
-3706 3707 3710 0
-3706 3707 3711 0
3706 -3707 0
3706 -3710 -3711 0
3707 -3708 -3709 0
-3707 3708 0
-3707 3709 0
-3708 -294 -295 0
-3708 294 295 0
3708 294 -295 0
3708 -294 295 0
-3709 -1509 -1510 0
-3709 1509 1510 0
3709 1509 -1510 0
3709 -1509 1510 0
-3710 -2719 -2720 0
-3710 2719 2720 0
3710 2719 -2720 0
3710 -2719 2720 0
3711 -3708 3709 0
3711 3708 -3709 0
-3711 3708 3709 0
-3711 -3708 -3709 0
3712 3702 -3703 0
3712 -3702 3703 0
-3712 -3702 -3703 0
-3712 3702 3703 0
-3713 3714 3721 0
-3713 3721 3722 0
-3713 3714 3722 0
3713 -3714 -3722 0
3713 -3721 -3722 0
3713 -3714 -3721 0
-3714 3715 3718 0
3714 -3715 0
3714 -3718 0
3715 -3716 -3717 0
-3715 3716 0
-3715 3717 0
3716 348 -349 0
3716 -348 349 0
-3716 -348 -349 0
-3716 348 349 0
3717 1561 -1562 0
3717 -1561 1562 0
-3717 -1561 -1562 0
-3717 1561 1562 0
3718 -3719 -3720 0
-3718 3719 0
-3718 3720 0
3719 2775 -2776 0
3719 -2775 2776 0
-3719 -2775 -2776 0
-3719 2775 2776 0
3720 3716 -3717 0
3720 -3716 3717 0
-3720 -3716 -3717 0
-3720 3716 3717 0
-3721 -3710 -3711 0
-3721 3710 3711 0
3721 3710 -3711 0
3721 -3710 3711 0
-3722 3723 3730 0
-3722 3723 3729 0
-3722 3729 3730 0
3722 -3729 -3730 0
3722 -3723 -3730 0
3722 -3723 -3729 0
-3723 3724 3727 0
-3723 3724 3728 0
3723 -3724 0
3723 -3727 -3728 0
3724 -3725 -3726 0
-3724 3725 0
-3724 3726 0
-3725 -397 -398 0
-3725 397 398 0
3725 397 -398 0
3725 -397 398 0
-3726 -1609 -1610 0
-3726 1609 1610 0
3726 1609 -1610 0
3726 -1609 1610 0
-3727 -2823 -2824 0
-3727 2823 2824 0
3727 2823 -2824 0
3727 -2823 2824 0
3728 -3725 3726 0
3728 3725 -3726 0
-3728 3725 3726 0
-3728 -3725 -3726 0
3729 3719 -3720 0
3729 -3719 3720 0
-3729 -3719 -3720 0
-3729 3719 3720 0
-3730 3731 3737 0
-3730 -3727 -3728 3731 0
-3730 -3727 -3728 3737 0
-3730 3727 3728 3731 0
-3730 3727 3728 3737 0
3730 -3731 -3737 0
3730 -3727 3728 -3737 0
3730 3727 -3728 -3737 0
3730 3727 -3728 -3731 0
3730 -3727 3728 -3731 0
-3731 3732 3735 0
-3731 3732 3736 0
3731 -3732 0
3731 -3735 -3736 0
3732 -3733 -3734 0
-3732 3733 0
-3732 3734 0
-3733 -456 -457 0
-3733 456 457 0
3733 456 -457 0
3733 -456 457 0
-3734 -1668 -1669 0
-3734 1668 1669 0
3734 1668 -1669 0
3734 -1668 1669 0
-3735 -2883 -2884 0
-3735 2883 2884 0
3735 2883 -2884 0
3735 -2883 2884 0
3736 -3733 3734 0
3736 3733 -3734 0
-3736 3733 3734 0
-3736 -3733 -3734 0
-3737 3738 3744 0
-3737 3744 3745 0
-3737 3738 3745 0
3737 -3738 -3745 0
3737 -3744 -3745 0
3737 -3738 -3744 0
-3738 3739 3742 0
-3738 3739 3743 0
3738 -3739 0
3738 -3742 -3743 0
3739 -3740 -3741 0
-3739 3740 0
-3739 3741 0
-3740 515 516 0
-3740 -515 -516 0
3740 -515 516 0
3740 515 -516 0
-3741 1727 1728 0
-3741 -1727 -1728 0
3741 -1727 1728 0
3741 1727 -1728 0
-3742 2942 2943 0
-3742 -2942 -2943 0
3742 -2942 2943 0
3742 2942 -2943 0
3743 -3740 3741 0
3743 3740 -3741 0
-3743 3740 3741 0
-3743 -3740 -3741 0
-3744 -3735 -3736 0
-3744 3735 3736 0
3744 3735 -3736 0
3744 -3735 3736 0
-3745 3746 3753 0
-3745 3753 3754 0
-3745 3746 3754 0
3745 -3746 -3754 0
3745 -3753 -3754 0
3745 -3746 -3753 0
-3746 3747 3750 0
3746 -3747 0
3746 -3750 0
3747 -3748 -3749 0
-3747 3748 0
-3747 3749 0
3748 -573 574 0
3748 573 -574 0
-3748 573 574 0
-3748 -573 -574 0
3749 -1784 1785 0
3749 1784 -1785 0
-3749 1784 1785 0
-3749 -1784 -1785 0
3750 -3751 -3752 0
-3750 3751 0
-3750 3752 0
3751 -3002 3003 0
3751 3002 -3003 0
-3751 3002 3003 0
-3751 -3002 -3003 0
3752 3748 -3749 0
3752 -3748 3749 0
-3752 -3748 -3749 0
-3752 3748 3749 0
-3753 -3742 -3743 0
-3753 3742 3743 0
3753 3742 -3743 0
3753 -3742 3743 0
-3754 3755 3763 0
-3754 3755 3762 0
-3754 3762 3763 0
3754 -3762 -3763 0
3754 -3755 -3763 0
3754 -3755 -3762 0
-3755 3756 3759 0
3755 -3756 0
3755 -3759 0
3756 -3757 -3758 0
-3756 3757 0
-3756 3758 0
-3757 633 634 0
-3757 -633 -634 0
3757 -633 634 0
3757 633 -634 0
-3758 1844 1845 0
-3758 -1844 -1845 0
3758 -1844 1845 0
3758 1844 -1845 0
3759 -3760 -3761 0
-3759 3760 0
-3759 3761 0
-3760 3062 3063 0
-3760 -3062 -3063 0
3760 -3062 3063 0
3760 3062 -3063 0
3761 -3757 3758 0
3761 3757 -3758 0
-3761 3757 3758 0
-3761 -3757 -3758 0
3762 3751 -3752 0
3762 -3751 3752 0
-3762 -3751 -3752 0
-3762 3751 3752 0
-3763 3764 3770 0
-3763 -3760 -3761 3764 0
-3763 -3760 -3761 3770 0
-3763 3760 3761 3764 0
-3763 3760 3761 3770 0
3763 -3764 -3770 0
3763 -3760 3761 -3770 0
3763 3760 -3761 -3770 0
3763 3760 -3761 -3764 0
3763 -3760 3761 -3764 0
-3764 3765 3768 0
-3764 3765 3769 0
3764 -3765 0
3764 -3768 -3769 0
3765 -3766 -3767 0
-3765 3766 0
-3765 3767 0
-3766 692 693 0
-3766 -692 -693 0
3766 -692 693 0
3766 692 -693 0
-3767 1902 1903 0
-3767 -1902 -1903 0
3767 -1902 1903 0
3767 1902 -1903 0
-3768 3119 3120 0
-3768 -3119 -3120 0
3768 -3119 3120 0
3768 3119 -3120 0
3769 -3766 3767 0
3769 3766 -3767 0
-3769 3766 3767 0
-3769 -3766 -3767 0
-3770 3771 3777 0
-3770 3777 3778 0
-3770 3771 3778 0
3770 -3771 -3778 0
3770 -3777 -3778 0
3770 -3771 -3777 0
-3771 3772 3775 0
-3771 3772 3776 0
3771 -3772 0
3771 -3775 -3776 0
3772 -3773 -3774 0
-3772 3773 0
-3772 3774 0
-3773 739 740 0
-3773 -739 -740 0
3773 -739 740 0
3773 739 -740 0
-3774 1947 1948 0
-3774 -1947 -1948 0
3774 -1947 1948 0
3774 1947 -1948 0
-3775 3165 3166 0
-3775 -3165 -3166 0
3775 -3165 3166 0
3775 3165 -3166 0
3776 -3773 3774 0
3776 3773 -3774 0
-3776 3773 3774 0
-3776 -3773 -3774 0
-3777 -3768 -3769 0
-3777 3768 3769 0
3777 3768 -3769 0
3777 -3768 3769 0
-3778 3779 3786 0
-3778 3786 3787 0
-3778 3779 3787 0
3778 -3779 -3787 0
3778 -3786 -3787 0
3778 -3779 -3786 0
-3779 3780 3783 0
3779 -3780 0
3779 -3783 0
3780 -3781 -3782 0
-3780 3781 0
-3780 3782 0
3781 -791 792 0
3781 791 -792 0
-3781 791 792 0
-3781 -791 -792 0
3782 -1999 2000 0
3782 1999 -2000 0
-3782 1999 2000 0
-3782 -1999 -2000 0
3783 -3784 -3785 0
-3783 3784 0
-3783 3785 0
3784 -3215 3216 0
3784 3215 -3216 0
-3784 3215 3216 0
-3784 -3215 -3216 0
3785 3781 -3782 0
3785 -3781 3782 0
-3785 -3781 -3782 0
-3785 3781 3782 0
-3786 -3775 -3776 0
-3786 3775 3776 0
3786 3775 -3776 0
3786 -3775 3776 0
-3787 3788 3796 0
-3787 3788 3795 0
-3787 3795 3796 0
3787 -3795 -3796 0
3787 -3788 -3796 0
3787 -3788 -3795 0
-3788 3789 3792 0
3788 -3789 0
3788 -3792 0
3789 -3790 -3791 0
-3789 3790 0
-3789 3791 0
3790 -845 846 0
3790 845 -846 0
-3790 845 846 0
-3790 -845 -846 0
3791 -2052 2053 0
3791 2052 -2053 0
-3791 2052 2053 0
-3791 -2052 -2053 0
3792 -3793 -3794 0
-3792 3793 0
-3792 3794 0
3793 -3268 3269 0
3793 3268 -3269 0
-3793 3268 3269 0
-3793 -3268 -3269 0
3794 3790 -3791 0
3794 -3790 3791 0
-3794 -3790 -3791 0
-3794 3790 3791 0
3795 3784 -3785 0
3795 -3784 3785 0
-3795 -3784 -3785 0
-3795 3784 3785 0
-3796 3797 3804 0
-3796 3797 3803 0
-3796 3803 3804 0
3796 -3803 -3804 0
3796 -3797 -3804 0
3796 -3797 -3803 0
-3797 3798 3801 0
-3797 3798 3802 0
3797 -3798 0
3797 -3801 -3802 0
3798 -3799 -3800 0
-3798 3799 0
-3798 3800 0
-3799 888 889 0
-3799 -888 -889 0
3799 -888 889 0
3799 888 -889 0
-3800 2094 2095 0
-3800 -2094 -2095 0
3800 -2094 2095 0
3800 2094 -2095 0
-3801 3309 3310 0
-3801 -3309 -3310 0
3801 -3309 3310 0
3801 3309 -3310 0
3802 -3799 3800 0
3802 3799 -3800 0
-3802 3799 3800 0
-3802 -3799 -3800 0
3803 3793 -3794 0
3803 -3793 3794 0
-3803 -3793 -3794 0
-3803 3793 3794 0
-3804 3805 3811 0
-3804 3811 3812 0
-3804 3805 3812 0
3804 -3805 -3812 0
3804 -3811 -3812 0
3804 -3805 -3811 0
-3805 3806 3809 0
-3805 3806 3810 0
3805 -3806 0
3805 -3809 -3810 0
3806 -3807 -3808 0
-3806 3807 0
-3806 3808 0
-3807 931 932 0
-3807 -931 -932 0
3807 -931 932 0
3807 931 -932 0
-3808 2137 2138 0
-3808 -2137 -2138 0
3808 -2137 2138 0
3808 2137 -2138 0
-3809 3351 3352 0
-3809 -3351 -3352 0
3809 -3351 3352 0
3809 3351 -3352 0
3810 -3807 3808 0
3810 3807 -3808 0
-3810 3807 3808 0
-3810 -3807 -3808 0
-3811 -3801 -3802 0
-3811 3801 3802 0
3811 3801 -3802 0
3811 -3801 3802 0
-3812 3813 3820 0
-3812 3813 3821 3829 0
-3812 3820 3821 3829 0
3812 -3820 -3829 0
3812 -3813 -3821 0
3812 -3813 -3829 0
3812 -3820 -3821 0
3812 -3813 -3820 0
-3813 3814 3817 0
3813 -3814 0
3813 -3817 0
3814 -3815 -3816 0
-3814 3815 0
-3814 3816 0
-3815 964 965 0
-3815 -964 -965 0
3815 -964 965 0
3815 964 -965 0
-3816 2170 2171 0
-3816 -2170 -2171 0
3816 -2170 2171 0
3816 2170 -2171 0
3817 -3818 -3819 0
-3817 3818 0
-3817 3819 0
-3818 3383 3384 0
-3818 -3383 -3384 0
3818 -3383 3384 0
3818 3383 -3384 0
3819 -3815 3816 0
3819 3815 -3816 0
-3819 3815 3816 0
-3819 -3815 -3816 0
-3820 -3809 -3810 0
-3820 3809 3810 0
3820 3809 -3810 0
3820 -3809 3810 0
3821 -3822 -3828 0
-3821 3822 0
-3821 3828 0
-3822 3823 3826 0
-3822 3823 3827 0
3822 -3823 0
3822 -3826 -3827 0
3823 -3824 -3825 0
-3823 3824 0
-3823 3825 0
-3824 1003 1004 0
-3824 -1003 -1004 0
3824 -1003 1004 0
3824 1003 -1004 0
-3825 2209 2210 0
-3825 -2209 -2210 0
3825 -2209 2210 0
3825 2209 -2210 0
-3826 3422 3423 0
-3826 -3422 -3423 0
3826 -3422 3423 0
3826 3422 -3423 0
3827 -3824 3825 0
3827 3824 -3825 0
-3827 3824 3825 0
-3827 -3824 -3825 0
-3828 -3818 -3819 0
-3828 3818 3819 0
3828 3818 -3819 0
3828 -3818 3819 0
3829 -3830 -3836 -3966 0
3829 -3836 -3837 -3966 0
3829 -3830 -3837 -3966 0
-3829 3830 3836 0
-3829 3836 3837 0
-3829 3966 0
-3829 3830 3837 0
-3830 3831 3834 0
-3830 3831 3835 0
3830 -3831 0
3830 -3834 -3835 0
3831 -3832 -3833 0
-3831 3832 0
-3831 3833 0
-3832 1028 1029 0
-3832 -1028 -1029 0
3832 -1028 1029 0
3832 1028 -1029 0
-3833 2234 2235 0
-3833 -2234 -2235 0
3833 -2234 2235 0
3833 2234 -2235 0
-3834 3448 3449 0
-3834 -3448 -3449 0
3834 -3448 3449 0
3834 3448 -3449 0
3835 -3832 3833 0
3835 3832 -3833 0
-3835 3832 3833 0
-3835 -3832 -3833 0
-3836 -3826 -3827 0
-3836 3826 3827 0
3836 3826 -3827 0
3836 -3826 3827 0
-3837 3838 3844 0
-3837 3838 3845 3853 0
-3837 3844 3845 3853 0
3837 -3844 -3853 0
3837 -3838 -3845 0
3837 -3838 -3853 0
3837 -3844 -3845 0
3837 -3838 -3844 0
-3838 3839 3842 0
-3838 3839 3843 0
3838 -3839 0
3838 -3842 -3843 0
3839 -3840 -3841 0
-3839 3840 0
-3839 3841 0
-3840 1059 1060 0
-3840 -1059 -1060 0
3840 -1059 1060 0
3840 1059 -1060 0
-3841 2264 2265 0
-3841 -2264 -2265 0
3841 -2264 2265 0
3841 2264 -2265 0
-3842 3477 3478 0
-3842 -3477 -3478 0
3842 -3477 3478 0
3842 3477 -3478 0
3843 -3840 3841 0
3843 3840 -3841 0
-3843 3840 3841 0
-3843 -3840 -3841 0
-3844 -3834 -3835 0
-3844 3834 3835 0
3844 3834 -3835 0
3844 -3834 3835 0
3845 -3846 -3852 0
-3845 3846 0
-3845 3852 0
-3846 3847 3850 0
-3846 3847 3851 0
3846 -3847 0
3846 -3850 -3851 0
3847 -3848 -3849 0
-3847 3848 0
-3847 3849 0
-3848 1092 1093 0
-3848 -1092 -1093 0
3848 -1092 1093 0
3848 1092 -1093 0
-3849 2297 2298 0
-3849 -2297 -2298 0
3849 -2297 2298 0
3849 2297 -2298 0
-3850 3509 3510 0
-3850 -3509 -3510 0
3850 -3509 3510 0
3850 3509 -3510 0
3851 -3848 3849 0
3851 3848 -3849 0
-3851 3848 3849 0
-3851 -3848 -3849 0
-3852 -3842 -3843 0
-3852 3842 3843 0
3852 3842 -3843 0
3852 -3842 3843 0
3853 -3846 3852 -3854 0
3853 3846 -3852 -3854 0
-3853 3854 0
-3853 -3846 -3852 0
-3853 3846 3852 0
-3854 3855 3861 0
-3854 -3850 -3851 3855 0
-3854 -3850 -3851 3861 0
-3854 3850 3851 3855 0
-3854 3850 3851 3861 0
3854 -3855 -3861 0
3854 -3850 3851 -3861 0
3854 3850 -3851 -3861 0
3854 3850 -3851 -3855 0
3854 -3850 3851 -3855 0
-3855 3856 3859 0
-3855 3856 3860 0
3855 -3856 0
3855 -3859 -3860 0
3856 -3857 -3858 0
-3856 3857 0
-3856 3858 0
-3857 1116 1117 0
-3857 -1116 -1117 0
3857 -1116 1117 0
3857 1116 -1117 0
-3858 2321 2322 0
-3858 -2321 -2322 0
3858 -2321 2322 0
3858 2321 -2322 0
-3859 3532 3533 0
-3859 -3532 -3533 0
3859 -3532 3533 0
3859 3532 -3533 0
3860 -3857 3858 0
3860 3857 -3858 0
-3860 3857 3858 0
-3860 -3857 -3858 0
-3861 3862 3868 0
-3861 3868 3869 0
-3861 3862 3869 0
3861 -3862 -3869 0
3861 -3868 -3869 0
3861 -3862 -3868 0
-3862 3863 3866 0
-3862 3863 3867 0
3862 -3863 0
3862 -3866 -3867 0
3863 -3864 -3865 0
-3863 3864 0
-3863 3865 0
-3864 1139 1140 0
-3864 -1139 -1140 0
3864 -1139 1140 0
3864 1139 -1140 0
-3865 2344 2345 0
-3865 -2344 -2345 0
3865 -2344 2345 0
3865 2344 -2345 0
-3866 3554 3555 0
-3866 -3554 -3555 0
3866 -3554 3555 0
3866 3554 -3555 0
3867 -3864 3865 0
3867 3864 -3865 0
-3867 3864 3865 0
-3867 -3864 -3865 0
-3868 -3859 -3860 0
-3868 3859 3860 0
3868 3859 -3860 0
3868 -3859 3860 0
-3869 3870 3876 0
-3869 3876 3877 0
-3869 3870 3877 0
3869 -3870 -3877 0
3869 -3876 -3877 0
3869 -3870 -3876 0
-3870 3871 3874 0
-3870 3871 3875 0
3870 -3871 0
3870 -3874 -3875 0
3871 -3872 -3873 0
-3871 3872 0
-3871 3873 0
-3872 1157 1158 0
-3872 -1157 -1158 0
3872 -1157 1158 0
3872 1157 -1158 0
-3873 2362 2363 0
-3873 -2362 -2363 0
3873 -2362 2363 0
3873 2362 -2363 0
-3874 3572 3573 0
-3874 -3572 -3573 0
3874 -3572 3573 0
3874 3572 -3573 0
3875 -3872 3873 0
3875 3872 -3873 0
-3875 3872 3873 0
-3875 -3872 -3873 0
-3876 -3866 -3867 0
-3876 3866 3867 0
3876 3866 -3867 0
3876 -3866 3867 0
-3877 3878 3884 0
-3877 -3874 -3875 3878 0
-3877 -3874 -3875 3884 0
-3877 3874 3875 3878 0
-3877 3874 3875 3884 0
3877 -3878 -3884 0
3877 -3874 3875 -3884 0
3877 3874 -3875 -3884 0
3877 3874 -3875 -3878 0
3877 -3874 3875 -3878 0
-3878 3879 3882 0
-3878 3879 3883 0
3878 -3879 0
3878 -3882 -3883 0
3879 -3880 -3881 0
-3879 3880 0
-3879 3881 0
-3880 1173 1174 0
-3880 -1173 -1174 0
3880 -1173 1174 0
3880 1173 -1174 0
-3881 2378 2379 0
-3881 -2378 -2379 0
3881 -2378 2379 0
3881 2378 -2379 0
-3882 3588 3589 0
-3882 -3588 -3589 0
3882 -3588 3589 0
3882 3588 -3589 0
3883 -3880 3881 0
3883 3880 -3881 0
-3883 3880 3881 0
-3883 -3880 -3881 0
-3884 3885 3891 0
-3884 3891 3892 0
-3884 3885 3892 0
3884 -3885 -3892 0
3884 -3891 -3892 0
3884 -3885 -3891 0
-3885 3886 3889 0
-3885 3886 3890 0
3885 -3886 0
3885 -3889 -3890 0
3886 -3887 -3888 0
-3886 3887 0
-3886 3888 0
-3887 1190 1191 0
-3887 -1190 -1191 0
3887 -1190 1191 0
3887 1190 -1191 0
-3888 2395 2396 0
-3888 -2395 -2396 0
3888 -2395 2396 0
3888 2395 -2396 0
-3889 3605 3606 0
-3889 -3605 -3606 0
3889 -3605 3606 0
3889 3605 -3606 0
3890 -3887 3888 0
3890 3887 -3888 0
-3890 3887 3888 0
-3890 -3887 -3888 0
-3891 -3882 -3883 0
-3891 3882 3883 0
3891 3882 -3883 0
3891 -3882 3883 0
-3892 3893 3900 0
-3892 3893 3901 3910 0
-3892 3900 3901 3910 0
3892 -3900 -3910 0
3892 -3893 -3901 0
3892 -3893 -3910 0
3892 -3900 -3901 0
3892 -3893 -3900 0
-3893 3894 3897 0
3893 -3894 0
3893 -3897 0
3894 -3895 -3896 0
-3894 3895 0
-3894 3896 0
-3895 -1198 -1229 0
-3895 1198 1229 0
3895 1198 -1229 0
3895 -1198 1229 0
-3896 -2403 -2434 0
-3896 2403 2434 0
3896 2403 -2434 0
3896 -2403 2434 0
3897 -3898 -3899 0
-3897 3898 0
-3897 3899 0
-3898 -3613 -3644 0
-3898 3613 3644 0
3898 3613 -3644 0
3898 -3613 3644 0
3899 -3895 3896 0
3899 3895 -3896 0
-3899 3895 3896 0
-3899 -3895 -3896 0
-3900 -3889 -3890 0
-3900 3889 3890 0
3900 3889 -3890 0
3900 -3889 3890 0
3901 -3902 -3909 0
-3901 3902 0
-3901 3909 0
-3902 3903 3906 0
3902 -3903 0
3902 -3906 0
3903 -3904 -3905 0
-3903 3904 0
-3903 3905 0
-3904 -1209 -1228 0
-3904 1209 1228 0
3904 1209 -1228 0
3904 -1209 1228 0
-3905 -2414 -2433 0
-3905 2414 2433 0
3905 2414 -2433 0
3905 -2414 2433 0
3906 -3907 -3908 0
-3906 3907 0
-3906 3908 0
-3907 -3624 -3643 0
-3907 3624 3643 0
3907 3624 -3643 0
3907 -3624 3643 0
3908 -3904 3905 0
3908 3904 -3905 0
-3908 3904 3905 0
-3908 -3904 -3905 0
-3909 -3898 -3899 0
-3909 3898 3899 0
3909 3898 -3899 0
3909 -3898 3899 0
3910 -3911 -3920 -3965 0
3910 -3920 -3921 -3965 0
3910 -3911 -3921 -3965 0
-3910 3911 3920 0
-3910 3920 3921 0
-3910 3965 0
-3910 3911 3921 0
-3911 3912 3917 0
-3911 3912 3919 0
3911 -3912 0
3911 -3917 -3919 0
3912 -3913 -3915 0
-3912 3913 0
-3912 3915 0
-3913 1220 3914 0
-3913 -1220 -3914 0
3913 -1220 3914 0
3913 1220 -3914 0
-3914 -1210 -1219 0
-3914 1210 1219 0
3914 1210 -1219 0
3914 -1210 1219 0
-3915 2425 3916 0
-3915 -2425 -3916 0
3915 -2425 3916 0
3915 2425 -3916 0
-3916 -2415 -2424 0
-3916 2415 2424 0
3916 2415 -2424 0
3916 -2415 2424 0
-3917 3635 3918 0
-3917 -3635 -3918 0
3917 -3635 3918 0
3917 3635 -3918 0
-3918 -3625 -3634 0
-3918 3625 3634 0
3918 3625 -3634 0
3918 -3625 3634 0
3919 -3913 3915 0
3919 3913 -3915 0
-3919 3913 3915 0
-3919 -3913 -3915 0
-3920 -3907 -3908 0
-3920 3907 3908 0
3920 3907 -3908 0
3920 -3907 3908 0
-3921 3922 3928 0
-3921 3922 3929 3940 0
-3921 3928 3929 3940 0
3921 -3928 -3940 0
3921 -3922 -3929 0
3921 -3922 -3940 0
3921 -3928 -3929 0
3921 -3922 -3928 0
-3922 3923 3926 0
-3922 3923 3927 0
3922 -3923 0
3922 -3926 -3927 0
3923 -3924 -3925 0
-3923 3924 0
-3923 3925 0
-3924 -1221 -1226 0
-3924 1221 1226 0
3924 1221 -1226 0
3924 -1221 1226 0
-3925 -2426 -2431 0
-3925 2426 2431 0
3925 2426 -2431 0
3925 -2426 2431 0
-3926 -3636 -3641 0
-3926 3636 3641 0
3926 3636 -3641 0
3926 -3636 3641 0
3927 -3924 3925 0
3927 3924 -3925 0
-3927 3924 3925 0
-3927 -3924 -3925 0
-3928 -3917 -3919 0
-3928 3917 3919 0
3928 3917 -3919 0
3928 -3917 3919 0
3929 -3930 -3939 0
-3929 3930 0
-3929 3939 0
-3930 3931 3936 0
-3930 3931 3938 0
3930 -3931 0
3930 -3936 -3938 0
3931 -3932 -3934 0
-3931 3932 0
-3931 3934 0
-3932 1224 3933 0
-3932 -1224 -3933 0
3932 -1224 3933 0
3932 1224 -3933 0
-3933 1217 1222 0
-3933 -1217 -1222 0
3933 -1217 1222 0
3933 1217 -1222 0
-3934 2429 3935 0
-3934 -2429 -3935 0
3934 -2429 3935 0
3934 2429 -3935 0
-3935 2422 2427 0
-3935 -2422 -2427 0
3935 -2422 2427 0
3935 2422 -2427 0
-3936 3639 3937 0
-3936 -3639 -3937 0
3936 -3639 3937 0
3936 3639 -3937 0
-3937 3632 3637 0
-3937 -3632 -3637 0
3937 -3632 3637 0
3937 3632 -3637 0
3938 -3932 3934 0
3938 3932 -3934 0
-3938 3932 3934 0
-3938 -3932 -3934 0
-3939 -3926 -3927 0
-3939 3926 3927 0
3939 3926 -3927 0
3939 -3926 3927 0
3940 -3941 -3958 -3964 0
3940 -3941 -3959 -3964 0
3940 -3958 -3959 -3964 0
-3940 3941 3958 0
-3940 3958 3959 0
-3940 3964 0
-3940 3941 3959 0
-3941 3942 3953 0
-3941 3942 3957 0
3941 -3942 0
3941 -3953 -3957 0
3942 -3943 -3948 0
-3942 3943 0
-3942 3948 0
-3943 3944 3945 0
-3943 -3944 -3945 0
3943 -3944 3945 0
3943 3944 -3945 0
3944 -8451 8463 0
3944 -8451 8461 0
-3944 8451 0
-3944 -8461 -8463 0
-3945 8451 3946 0
-3945 -8451 -3946 0
3945 -8451 3946 0
3945 8451 -3946 0
-3946 8463 1225 0
-3946 3947 1225 0
3946 -1225 0
3946 -8463 -3947 0
3947 -8451 8461 0
-3947 8451 0
-3947 -8461 0
-3948 3949 3950 0
-3948 -3949 -3950 0
3948 -3949 3950 0
3948 3949 -3950 0
3949 8371 -8376 0
3949 8370 -8376 0
-3949 8376 0
-3949 -8370 -8371 0
-3950 8376 3951 0
-3950 -8376 -3951 0
3950 -8376 3951 0
3950 8376 -3951 0
-3951 8370 2430 0
-3951 3952 2430 0
3951 -2430 0
3951 -8370 -3952 0
3952 8371 -8376 0
-3952 -8371 0
-3952 8376 0
-3953 3954 3955 0
-3953 -3954 -3955 0
3953 -3954 3955 0
3953 3954 -3955 0
3954 8401 -8445 0
3954 8387 -8445 0
-3954 8445 0
-3954 -8387 -8401 0
-3955 8445 3956 0
-3955 -8445 -3956 0
3955 -8445 3956 0
3955 8445 -3956 0
-3956 8387 3640 0
-3956 2978 3640 0
3956 -3640 0
3956 -8387 -2978 0
3957 -3943 3948 0
3957 3943 -3948 0
-3957 3943 3948 0
-3957 -3943 -3948 0
-3958 -3936 -3938 0
-3958 3936 3938 0
3958 3936 -3938 0
3958 -3936 3938 0
3959 -3960 -3962 -3963 0
3959 -3960 -3961 -3963 0
3959 -3961 -3962 -3963 0
-3959 3960 3962 0
-3959 3961 3962 0
-3959 3963 0
-3959 3960 3961 0
3960 -8461 -8463 0
-3960 8461 0
-3960 8463 0
3961 -8370 -8371 0
-3961 8370 0
-3961 8371 0
3962 -8387 -8401 0
-3962 8387 0
-3962 8401 0
-3963 -3953 -3957 0
-3963 3953 3957 0
3963 3953 -3957 0
3963 -3953 3957 0
3964 -3930 3939 0
3964 3930 -3939 0
-3964 3930 3939 0
-3964 -3930 -3939 0
3965 -3902 3909 0
3965 3902 -3909 0
-3965 3902 3909 0
-3965 -3902 -3909 0
3966 -3822 3828 0
3966 3822 -3828 0
-3966 3822 3828 0
-3966 -3822 -3828 0
3967 -3968 -5179 -7717 0
3967 -5179 -6441 -7717 0
3967 -3968 -6441 -7717 0
-3967 5179 6441 0
-3967 3968 5179 0
-3967 7717 0
-3967 3968 6441 0
-3968 -3969 -3979 0
-3968 3969 3979 0
3968 3969 -3979 0
3968 -3969 3979 0
3969 3970 -3975 0
3969 -3975 -3978 0
3969 2437 -3975 0
-3969 3975 0
-3969 -2437 -3970 3978 0
-3970 3971 3972 0
3970 -3971 0
3970 -3972 0
-3971 8368 8369 0
-3971 8366 -8369 8407 0
-3971 8368 8407 0
-3971 8366 8368 0
3971 -8366 -8368 0
3971 -8368 -8407 0
3971 -8368 8369 0
3971 -8366 -8369 -8407 0
-3972 8367 3973 0
-3972 2438 3973 0
3972 -3973 0
3972 -8367 -2438 0
3973 -8404 -3974 0
-3973 8404 0
-3973 3974 0
-3974 -8368 -8409 0
-3974 8368 8409 0
3974 8368 -8409 0
3974 -8368 8409 0
-3975 3976 -3977 0
-3975 3971 3973 3976 0
3975 -3976 0
3975 -3973 3977 0
3975 -3971 3977 0
3976 -8369 -8409 0
-3976 8369 0
-3976 8409 0
3977 -8368 8404 -8409 0
3977 -8368 8369 8409 0
-3977 8368 0
-3977 -8369 8409 0
-3977 -8404 -8409 0
-3978 8368 8369 0
-3978 -8369 8409 0
-3978 -8368 -8404 -8409 0
3978 8368 -8369 -8409 0
3978 -8368 8404 -8409 0
3978 -8368 8369 8409 0
3979 -3980 5174 5178 0
-3979 3980 0
-3979 -5178 0
-3979 -5174 0
-3980 3981 5139 5164 0
3980 -5164 0
3980 -5139 0
3980 -3981 0
3981 3982 -5124 0
-3981 -3982 0
-3981 5124 0
3982 -3983 -4757 5064 0
-3982 3983 0
-3982 4757 0
-3982 -5064 0
-3983 4625 0
-3983 3984 4747 0
-3983 4446 4747 0
3983 -4625 -4747 0
3983 -3984 -4446 -4625 0
3984 -3985 -4443 0
3984 -4230 -4443 0
3984 -4294 -4443 0
-3984 4443 0
-3984 3985 4230 4294 0
-3985 3986 4180 0
3985 -3986 0
3985 -4180 0
-3986 3987 4156 0
3986 -3987 0
3986 -4156 0
3987 -3988 -4122 0
-3987 3988 0
-3987 4122 0
3988 3989 -4077 0
3988 -3989 4077 0
-3988 -3989 -4077 0
-3988 3989 4077 0
3989 3990 -4075 0
-3989 -3990 0
-3989 4075 0
3990 -3991 -4049 -4051 0
3990 -4039 -4049 -4051 0
-3990 4051 0
-3990 4049 0
-3990 3991 4039 0
3991 -3992 -4011 -4024 0
-3991 3992 0
-3991 4024 0
-3991 4011 0
-3992 8399 3997 0
-3992 -3993 3995 0
-3992 -3993 3997 0
-3992 8399 3995 0
3992 -8399 3993 0
3992 -3995 -3997 0
-3993 8364 8387 0
-3993 2506 3994 0
-3993 8387 3994 0
3993 -8387 -2506 0
3993 -8364 -3994 0
3993 -8387 -3994 0
-3994 -8439 -8443 0
-3994 8439 8443 0
3994 8439 -8443 0
3994 -8439 8443 0
3995 -3993 -3996 0
3995 -2506 -3993 0
-3995 3993 0
-3995 2506 3996 0
3996 -8364 8387 0
3996 8364 -8399 0
3996 -8364 8399 0
-3996 8364 8399 0
-3996 -8364 -8387 -8399 0
-3997 3998 4005 0
-3997 3998 4004 0
-3997 4004 4005 0
3997 -4004 -4005 0
3997 -3998 -4005 0
3997 -3998 -4004 0
-3998 3999 4002 0
-3998 -8418 3999 -4003 0
3998 -3999 0
3998 -4002 4003 0
3998 8418 -4002 0
-3999 2872 4000 0
-3999 -2872 4001 0
-3999 8418 2872 0
3999 -2872 -4001 0
3999 -8418 2872 -4000 0
4000 8391 -2871 0
-4000 -8391 0
-4000 2871 0
4001 8391 -8456 0
-4001 -8391 0
-4001 8456 0
4002 -8391 -2871 0
4002 -8391 8456 0
-4002 8391 0
-4002 -8456 2871 0
-4003 -8365 -8445 0
-4003 8365 8445 0
4003 8365 -8445 0
4003 -8365 8445 0
4004 8401 8411 -8445 0
4004 -8401 8429 -8445 0
4004 -8401 -8429 8445 0
-4004 8401 8445 0
-4004 -8401 -8429 -8445 0
-4004 8401 -8411 0
-4004 8429 8445 0
-4005 -8460 -4007 0
-4005 8460 4006 4007 0
-4005 -8460 -4009 0
4005 8460 -4007 0
4005 -8460 4007 4009 0
4005 8460 -4006 0
4006 -8462 -2757 0
-4006 8462 0
-4006 2757 0
4007 -8427 -4008 0
-4007 8427 0
-4007 4008 0
-4008 -8391 -8425 0
-4008 8391 8425 0
4008 8391 -8425 0
4008 -8391 8425 0
4009 -8462 -4010 0
-4009 8462 0
-4009 4010 0
-4010 -8391 -8460 0
-4010 8425 8460 0
-4010 8391 -8425 0
4010 -8391 -8425 8460 0
4010 8391 8425 -8460 0
-4011 4012 4016 0
-4011 -4012 -4016 0
4011 -4012 4016 0
4011 4012 -4016 0
4012 8460 -4014 0
4012 -8460 4014 4015 0
4012 8460 -4013 0
-4012 -8460 -4014 0
-4012 8460 4013 4014 0
-4012 -8460 -4015 0
4013 -8427 -4010 0
-4013 8427 0
-4013 4010 0
4014 -8456 -4008 0
-4014 8456 0
-4014 4008 0
4015 -8427 2756 0
-4015 8427 0
-4015 -2756 0
-4016 4017 4018 0
-4016 -4017 -4018 0
4016 -4017 4018 0
4016 4017 -4018 0
4017 8401 8429 -8445 0
4017 -8401 8441 -8445 0
4017 -8401 -8441 8445 0
-4017 8401 8445 0
-4017 -8401 -8441 -8445 0
-4017 8401 -8429 0
-4017 8441 8445 0
-4018 4019 4023 0
-4018 -8411 -4003 4019 0
4018 -4019 0
4018 8411 -4023 0
4018 4003 -4023 0
-4019 4000 4020 0
-4019 -2872 4020 0
-4019 8411 4020 0
4019 -4020 0
4019 -8411 2872 -4000 0
4020 -8418 -4021 0
-4020 8418 0
-4020 4021 0
4021 -8365 -4022 0
-4021 8365 0
-4021 4022 0
4022 8391 -8445 0
-4022 -8391 0
-4022 8445 0
4023 -8391 -2871 0
4023 -8391 8418 0
-4023 8391 0
-4023 -8418 2871 0
-4024 4025 4028 0
-4024 -4025 -4028 0
4024 -4025 4028 0
4024 4025 -4028 0
-4025 8439 4026 0
-4025 -8439 -4026 0
4025 -8439 4026 0
4025 8439 -4026 0
-4026 3341 4027 0
-4026 8448 3341 0
4026 -3341 0
4026 -8448 -4027 0
-4027 -8416 -8450 0
-4027 8416 8450 0
4027 8416 -8450 0
4027 -8416 8450 0
-4028 4029 4035 0
-4028 -4029 -4035 0
4028 -4029 4035 0
4028 4029 -4035 0
-4029 -8454 -4030 0
-4029 -8454 -4032 0
-4029 8454 4032 4034 0
4029 8454 -4032 0
4029 -8454 4030 4032 0
4029 8454 -4034 0
4030 -8452 -4031 0
-4030 8452 0
-4030 4031 0
4031 -8454 2690 0
4031 8454 -2691 0
-4031 8454 2691 0
-4031 -8454 -2690 0
4032 -8462 -4033 0
-4032 8462 0
-4032 4033 0
-4033 -8394 -8460 0
-4033 8394 8460 0
4033 8394 -8460 0
4033 -8394 8460 0
4034 -8452 -2691 0
-4034 8452 0
-4034 2691 0
-4035 -8416 -3338 0
-4035 -8416 -4036 0
-4035 8416 4036 4038 0
4035 8416 -4036 0
4035 -8416 3338 4036 0
4035 8416 -4038 0
4036 -8389 -4037 0
-4036 8389 0
-4036 4037 0
-4037 -8431 -8454 0
-4037 8431 8454 0
4037 8431 -8454 0
4037 -8431 8454 0
4038 -8458 -2612 0
-4038 8458 0
-4038 2612 0
-4039 -4040 -4048 0
-4039 4040 4048 0
4039 4040 -4048 0
4039 -4040 4048 0
4040 4041 -4043 0
4040 -4041 4043 0
-4040 -4041 -4043 0
-4040 4041 4043 0
4041 -8387 -4042 0
-4041 8387 0
-4041 4042 0
-4042 -8399 -8437 0
-4042 8399 8437 0
4042 8399 -8437 0
4042 -8399 8437 0
4043 8399 -4046 0
4043 -8399 4046 4047 0
4043 8399 -4044 0
-4043 -8399 -4046 0
-4043 8399 4044 4046 0
-4043 -8399 -4047 0
4044 -8364 -4045 0
-4044 8364 0
-4044 4045 0
-4045 -8439 8443 0
-4045 -8399 -8443 0
-4045 8399 8439 0
4045 8399 -8439 -8443 0
4045 -8399 8439 8443 0
4046 -8397 -3994 0
-4046 8397 0
-4046 3994 0
4047 -8364 2507 0
-4047 8364 0
-4047 -2507 0
4048 -4012 -4017 0
4048 -4017 -4018 0
4048 -4012 -4018 0
-4048 4017 4018 0
-4048 4012 4017 0
-4048 4012 4018 0
-4049 3992 4050 0
4049 -3992 0
4049 -4050 0
4050 -4011 -4024 0
-4050 4011 0
-4050 4024 0
-4051 -4052 -4066 0
-4051 4052 4066 0
4051 4052 -4066 0
4051 -4052 4066 0
-4052 4053 4057 0
-4052 -4053 -4057 0
4052 -4053 4057 0
4052 4053 -4057 0
4053 8439 -4054 0
4053 -8439 4054 4055 0
4053 8439 -3241 0
-4053 -8439 -4054 0
-4053 8439 3241 4054 0
-4053 -8439 -4055 0
4054 -8389 -4027 0
-4054 8389 0
-4054 4027 0
4055 -8458 4056 0
-4055 8458 0
-4055 -4056 0
-4056 8416 8450 0
4056 -8416 0
4056 -8450 0
-4057 4058 4062 0
-4057 -4058 -4062 0
4057 -4058 4062 0
4057 4058 -4062 0
-4058 4059 4061 0
-4058 -8462 -4037 4059 0
4058 -4059 0
4058 8462 -4061 0
4058 4037 -4061 0
-4059 2611 4037 0
-4059 8452 4060 0
-4059 2611 4060 0
-4059 8452 4037 0
4059 -8452 -2611 0
4059 -4037 -4060 0
4060 8416 -8462 0
-4060 -8416 0
-4060 8462 0
4061 -8416 -2610 0
4061 -8416 8452 0
-4061 8416 0
-4061 -8452 2610 0
-4062 4063 4064 0
-4062 -8456 -4033 4064 0
4062 -4064 0
4062 4033 -4063 0
4062 8456 -4063 0
4063 8427 -8454 0
4063 -8454 -2690 0
-4063 8454 0
-4063 -8427 2690 0
-4064 -8454 0
-4064 2691 4065 0
-4064 8427 -2691 0
4064 8454 2691 -4065 0
4064 -8427 8454 -2691 0
4065 -8456 -2690 0
-4065 8456 0
-4065 2690 0
4066 -4067 4068 0
4066 4067 -4068 0
-4066 4067 4068 0
-4066 -4067 -4068 0
4067 -8407 4041 0
-4067 8407 0
-4067 -4041 0
-4068 -4069 -4072 0
-4068 4069 4072 0
4068 4069 -4072 0
4068 -4069 4072 0
4069 8407 -4070 0
4069 -8407 4070 4071 0
4069 8407 -3250 0
-4069 -8407 -4070 0
-4069 8407 3250 4070 0
-4069 -8407 -4071 0
4070 -8364 -4042 0
-4070 8364 0
-4070 4042 0
4071 -8387 2471 0
-4071 8387 0
-4071 -2471 0
4072 8399 -4073 0
4072 -8399 4073 4074 0
4072 8399 -3247 0
-4072 -8399 -4073 0
-4072 8399 3247 4073 0
-4072 -8399 -4074 0
4073 -8448 -3994 0
-4073 8448 0
-4073 3994 0
4074 -8397 2507 0
-4074 8397 0
-4074 -2507 0
-4075 3991 4051 4076 0
4075 -3991 0
4075 -4051 0
4075 -4076 0
4076 -4039 -4049 0
-4076 4039 0
-4076 4049 0
4077 4078 -4112 0
4077 -4078 4112 0
-4077 -4078 -4112 0
-4077 4078 4112 0
-4078 4079 4089 0
-4078 -4079 -4089 0
4078 -4079 4089 0
4078 4079 -4089 0
-4079 4080 4083 0
-4079 -4080 -4083 0
4079 -4080 4083 0
4079 4080 -4083 0
4080 8460 -4081 0
4080 -8460 4081 4082 0
4080 8460 -3231 0
-4080 -8460 -4081 0
-4080 8460 3231 4081 0
-4080 -8460 -4082 0
4081 -8411 -4008 0
-4081 8411 0
-4081 4008 0
4082 -8418 2756 0
-4082 8418 0
-4082 -2756 0
-4083 4084 4085 0
-4083 -4084 -4085 0
4083 -4084 4085 0
4083 4084 -4085 0
4084 8401 8434 -8445 0
4084 -8401 -8413 8445 0
4084 -8401 8413 -8445 0
-4084 8413 8445 0
-4084 8401 8445 0
-4084 8401 -8434 0
-4084 -8401 -8413 -8445 0
-4085 8429 4086 4088 0
-4085 4021 4086 4088 0
4085 -4088 0
4085 -4086 0
4085 -8429 -4021 0
4086 -8391 8429 2871 0
4086 -8391 -2871 4087 0
-4086 8391 0
-4086 -8429 2871 0
-4086 -2871 -4087 0
4087 -8441 2872 0
-4087 8441 0
-4087 -2872 0
4088 -8441 2872 -4000 0
-4088 8441 0
-4088 -2872 0
-4088 4000 0
-4089 -4090 -4099 0
-4089 4090 4099 0
4089 4090 -4099 0
4089 -4090 4099 0
4090 -4091 -4098 0
4090 -4095 -4098 0
4090 -4091 -4095 0
-4090 4091 4095 0
-4090 4095 4098 0
-4090 4091 4098 0
-4091 -8460 -4093 0
-4091 8460 4092 4093 0
-4091 -8460 -4094 0
4091 8460 -4093 0
4091 -8460 4093 4094 0
4091 8460 -4092 0
4092 -8456 -2757 0
-4092 8456 0
-4092 2757 0
4093 -8418 -4008 0
-4093 8418 0
-4093 4008 0
4094 -8456 -4010 0
-4094 8456 0
-4094 4010 0
-4095 4096 4097 0
-4095 -8429 -4003 4096 0
4095 -4096 0
4095 8429 -4097 0
4095 4003 -4097 0
4096 -8429 2872 -4000 0
4096 -8411 -2872 -4000 0
-4096 4000 0
-4096 8429 2872 0
-4096 8411 -2872 0
4097 -8391 -2871 0
4097 -8391 8411 0
-4097 8391 0
-4097 -8411 2871 0
-4098 8434 8445 0
-4098 8401 8445 0
-4098 8401 -8441 0
-4098 -8401 -8434 -8445 0
4098 8401 8441 -8445 0
4098 -8401 -8434 8445 0
4098 -8401 8434 -8445 0
4099 -4100 -4109 0
4099 -4105 -4109 0
4099 -4100 -4105 0
-4099 4100 4105 0
-4099 4105 4109 0
-4099 4100 4109 0
-4100 4101 4103 4104 0
4100 -4101 0
4100 -4104 0
4100 -4103 0
4101 8389 -8416 4102 0
4101 -8416 -2610 4102 0
-4101 8416 0
-4101 -4102 0
-4101 -8389 2610 0
4102 -8452 -4037 0
-4102 8452 0
-4102 4037 0
4103 -8389 8416 -2612 0
-4103 8389 0
-4103 -8416 0
-4103 2612 0
4104 8416 -8452 -4037 0
-4104 -8416 0
-4104 8452 0
-4104 4037 0
-4105 8427 4106 0
-4105 -8454 4106 0
-4105 4033 4106 0
4105 -4106 0
4105 -8427 8454 -4033 0
-4106 8462 4107 0
-4106 -8454 4107 0
-4106 2691 4107 0
4106 -4107 0
4106 8454 -8462 -2691 0
4107 8427 -8454 4108 0
4107 -8454 4033 4108 0
-4107 8454 0
-4107 -4108 0
-4107 -8427 -4033 0
4108 -8462 2690 0
-4108 8462 0
-4108 -2690 0
-4109 -8439 -3298 0
-4109 -8439 -4110 0
-4109 8439 4110 4111 0
4109 8439 -4110 0
4109 -8439 3298 4110 0
4109 8439 -4111 0
4110 -8458 -4027 0
-4110 8458 0
-4110 4027 0
4111 -8416 -8448 -8450 0
-4111 8416 0
-4111 8448 0
-4111 8450 0
4112 -4113 4121 0
-4112 4113 0
-4112 -4121 0
-4113 4114 4116 4120 0
-4113 4114 4117 4120 0
-4113 4116 4117 4120 0
4113 -4114 -4116 0
4113 -4116 -4117 0
4113 -4120 0
4113 -4114 -4117 0
4114 -4091 4115 0
4114 4091 -4115 0
-4114 4091 4115 0
-4114 -4091 -4115 0
-4115 4095 4098 0
-4115 -4095 -4098 0
4115 -4095 4098 0
4115 4095 -4098 0
4116 -4025 -4035 0
4116 -4029 -4035 0
4116 -4025 -4029 0
-4116 4025 4029 0
-4116 4029 4035 0
-4116 4025 4035 0
-4117 -4109 -4118 0
-4117 4109 4118 0
4117 4109 -4118 0
4117 -4109 4118 0
4118 4100 -4105 0
4118 -4101 4105 0
4118 4105 -4119 0
-4118 -4100 -4105 0
-4118 4101 4105 4119 0
-4119 -8416 0
-4119 2612 4102 0
-4119 8389 4102 0
4119 8416 -4102 0
4119 -8389 8416 -2612 0
-4120 4042 4043 0
-4120 8387 4048 0
-4120 4042 4048 0
-4120 4043 4048 0
-4120 8387 4043 0
4120 -4043 -4048 0
4120 -8387 -4042 -4043 0
4120 -8387 -4042 -4048 0
4121 -4114 -4116 -4120 0
4121 -4114 -4117 -4120 0
4121 -4116 -4117 -4120 0
-4121 4116 4117 0
-4121 4114 4116 0
-4121 4120 0
-4121 4114 4117 0
-4122 4123 4155 0
-4122 4153 4155 0
-4122 4123 4153 0
4122 -4123 -4153 0
4122 -4153 -4155 0
4122 -4123 -4155 0
4123 -4140 -4141 0
4123 -4124 -4140 0
4123 -4124 -4141 0
-4123 4124 4140 0
-4123 4140 4141 0
-4123 4124 4141 0
-4124 4127 4139 0
-4124 4125 4139 0
4124 -4139 0
4124 -4125 -4127 0
-4125 4005 4126 0
-4125 -4005 -4126 0
4125 -4005 4126 0
4125 4005 -4126 0
-4126 -3998 -4004 0
-4126 3998 4004 0
4126 3998 -4004 0
4126 -3998 4004 0
-4127 4128 4133 4138 0
-4127 4128 4129 4138 0
-4127 4129 4133 4138 0
4127 -4128 -4133 0
4127 -4129 -4133 0
4127 -4138 0
4127 -4128 -4129 0
-4128 8411 8445 0
-4128 8401 8445 0
-4128 8401 -8418 0
-4128 -8401 -8411 -8445 0
4128 8401 8418 -8445 0
4128 -8401 -8411 8445 0
4128 -8401 8411 -8445 0
-4129 4130 4132 0
-4129 -8456 -4003 4130 0
4129 -4130 0
4129 8456 -4132 0
4129 4003 -4132 0
-4130 8456 4131 0
-4130 -8391 4131 0
-4130 4003 4131 0
4130 -4131 0
4130 8391 -8456 -4003 0
4131 8391 -8427 -2872 0
-4131 2872 0
-4131 8427 0
-4131 -8391 0
4132 -8391 -2871 0
4132 -8391 8427 0
-4132 8391 0
-4132 -8427 2871 0
-4133 8452 4135 4137 0
-4133 4134 4135 4137 0
4133 -4137 0
4133 -4135 0
4133 -8452 -4134 0
4134 8460 -2757 0
-4134 -8460 0
-4134 2757 0
4135 8452 -8460 2756 0
4135 -8460 -2756 4136 0
-4135 8460 0
-4135 -2756 -4136 0
-4135 -8452 2756 0
4136 -8462 2757 0
-4136 8462 0
-4136 -2757 0
4137 8460 -8462 -2756 2757 0
-4137 8462 0
-4137 -2757 0
-4137 -8460 0
-4137 2756 0
4138 -8387 -3994 0
-4138 8387 0
-4138 3994 0
-4139 4128 4129 0
-4139 4129 4133 0
-4139 4138 0
-4139 4128 4133 0
4139 -4128 -4129 -4138 0
4139 -4129 -4133 -4138 0
4139 -4128 -4133 -4138 0
-4140 3995 3997 0
-4140 -3995 -3997 0
4140 -3995 3997 0
4140 3995 -3997 0
4141 -4145 -4149 0
4141 -4142 -4149 0
4141 -4142 -4145 0
-4141 4142 4149 0
-4141 4142 4145 0
-4141 4145 4149 0
-4142 -8439 -3400 0
-4142 -8439 -4143 0
-4142 8439 4143 4144 0
4142 8439 -4143 0
4142 -8439 3400 4143 0
4142 8439 -4144 0
4143 -8397 -4027 0
-4143 8397 0
-4143 4027 0
4144 -8364 -8416 -8450 0
-4144 8364 0
-4144 8416 0
-4144 8450 0
4145 8416 -4148 0
4145 -8416 4146 4147 0
4145 8416 -4146 0
-4145 -8416 -4146 0
-4145 -8416 -4147 0
-4145 8416 4146 4148 0
4146 -8458 -4037 0
-4146 8458 0
-4146 4037 0
4147 -8448 2610 0
-4147 8448 0
-4147 -2610 0
4148 -8448 -2612 0
-4148 8448 0
-4148 2612 0
-4149 -8454 -4150 0
-4149 -8454 -4152 0
-4149 8454 4150 4151 0
4149 8454 -4151 0
4149 -8454 4150 4152 0
4149 8454 -4150 0
4150 -8452 -4033 0
-4150 8452 0
-4150 4033 0
4151 -8389 -2691 0
-4151 8389 0
-4151 2691 0
4152 -8389 2690 0
-4152 8389 0
-4152 -2690 0
4153 -4117 4154 0
4153 4117 -4154 0
-4153 4117 4154 0
-4153 -4117 -4154 0
-4154 -4114 -4116 0
-4154 4114 4116 0
4154 4114 -4116 0
4154 -4114 4116 0
4155 3992 -4039 4050 0
4155 3992 4039 -4050 0
4155 -3991 -4039 0
4155 -3992 4039 4050 0
-4155 3992 4039 4050 0
-4155 -3992 3991 -4039 0
-4155 3991 -4039 -4050 0
-4155 -3992 4039 -4050 0
4156 -4157 -4159 0
-4156 4157 0
-4156 4159 0
-4157 -4158 -4155 0
-4157 4158 4155 0
4157 4158 -4155 0
4157 -4158 4155 0
-4158 -4123 -4153 0
-4158 4123 4153 0
4158 4123 -4153 0
4158 -4123 4153 0
-4159 4160 4178 0
-4159 4160 4161 0
-4159 4161 4178 0
4159 -4161 -4178 0
4159 -4160 -4178 0
4159 -4160 -4161 0
-4160 4011 4024 0
-4160 -4011 -4024 0
4160 -4011 4024 0
4160 4011 -4024 0
4161 -4166 -4176 0
4161 -4162 -4176 0
4161 -4162 -4166 0
-4161 4162 4176 0
-4161 4162 4166 0
-4161 4166 4176 0
-4162 4164 0
-4162 -4133 -4163 0
-4162 4133 4163 0
4162 -4133 4163 -4164 0
4162 4133 -4163 -4164 0
-4163 4128 4129 0
-4163 -4128 -4129 0
4163 -4128 4129 0
4163 4128 -4129 0
4164 -8439 4165 0
-4164 8439 0
-4164 -4165 0
4165 -8387 -4027 0
-4165 8387 0
-4165 4027 0
4166 -4167 -4173 0
4166 -4169 -4173 0
4166 -4167 -4169 0
-4166 4167 4169 0
-4166 4169 4173 0
-4166 4167 4173 0
-4167 8439 4168 0
-4167 -8439 -4168 0
4167 -8439 4168 0
4167 8439 -4168 0
-4168 3437 4027 0
-4168 8364 3437 0
4168 -3437 0
4168 -8364 -4027 0
-4169 -8454 -4171 0
-4169 -8454 4170 0
-4169 4170 4171 4172 0
4169 -4170 4171 0
4169 8454 -4171 0
4169 8454 -4172 0
4170 -8454 -2690 0
4170 -8454 8458 0
-4170 8454 0
-4170 -8458 2690 0
4171 -8389 -4033 0
-4171 8389 0
-4171 4033 0
4172 -8458 -2691 0
-4172 8458 0
-4172 2691 0
-4173 -8416 -3434 0
-4173 -8416 -4174 0
-4173 8416 4174 4175 0
4173 8416 -4174 0
4173 -8416 3434 4174 0
4173 8416 -4175 0
4174 -8448 -4037 0
-4174 8448 0
-4174 4037 0
4175 -8397 -2612 0
-4175 8397 0
-4175 2612 0
-4176 -4142 -4177 0
-4176 4142 4177 0
4176 4142 -4177 0
4176 -4142 4177 0
4177 -4145 4149 0
4177 4145 -4149 0
-4177 4145 4149 0
-4177 -4145 -4149 0
-4178 4140 4179 0
-4178 -4140 -4179 0
4178 -4140 4179 0
4178 4140 -4179 0
-4179 4127 4141 0
-4179 -4125 -4127 -4141 0
-4179 -4139 -4141 0
-4179 4125 4139 4141 0
4179 -4127 -4139 4141 0
4179 4125 4139 -4141 0
4179 -4125 -4127 4141 0
4179 4127 4139 -4141 0
4180 -4181 -4229 0
-4180 4181 0
-4180 4229 0
-4181 4182 4192 0
-4181 -4182 -4192 0
4181 -4182 4192 0
4181 4182 -4192 0
4182 -4183 -4187 0
4182 4183 -4186 4187 0
4182 4186 -4187 0
-4182 4186 4187 0
-4182 4183 -4186 -4187 0
-4182 -4183 4187 0
4183 -4184 -4185 0
-4183 4184 0
-4183 4185 0
4184 -4079 -4090 0
4184 -4090 -4099 0
4184 -4079 -4099 0
-4184 4090 4099 0
-4184 4079 4090 0
-4184 4079 4099 0
4185 -4052 -4066 0
-4185 4052 0
-4185 4066 0
-4186 4184 4185 0
4186 -4184 0
4186 -4185 0
4187 -4188 4189 0
4187 4188 -4189 0
-4187 4188 4189 0
-4187 -4188 -4189 0
-4188 4067 4072 0
-4188 4069 4072 0
-4188 4067 4069 0
4188 -4067 -4069 0
4188 -4069 -4072 0
4188 -4067 -4072 0
-4189 4190 4191 0
-4189 -4190 -4191 0
4189 -4190 4191 0
4189 4190 -4191 0
4190 -4080 -4084 0
4190 -4084 -4085 0
4190 -4080 -4085 0
-4190 4084 4085 0
-4190 4080 4084 0
-4190 4080 4085 0
-4191 4053 4058 0
-4191 4058 4062 0
-4191 4053 4062 0
4191 -4058 -4062 0
4191 -4053 -4058 0
4191 -4053 -4062 0
-4192 4193 4228 0
-4192 -4193 -4228 0
4192 -4193 4228 0
4192 4193 -4228 0
4193 4194 -4205 0
4193 -4194 4205 0
-4193 -4194 -4205 0
-4193 4194 4205 0
4194 4195 -4203 0
4194 -4195 4203 0
-4194 -4195 -4203 0
-4194 4195 4203 0
4195 -4196 4200 0
4195 4196 -4200 0
-4195 4196 4200 0
-4195 -4196 -4200 0
-4196 -8399 -4197 0
-4196 -8399 -4198 0
-4196 8399 4198 4199 0
4196 8399 -4198 0
4196 -8399 4197 4198 0
4196 8399 -4199 0
4197 -8448 -4045 0
-4197 8448 0
-4197 4045 0
4198 -8458 -3994 0
-4198 8458 0
-4198 3994 0
4199 -8448 -2508 0
-4199 8448 0
-4199 2508 0
-4200 -8407 -3198 0
-4200 -8407 -4201 0
-4200 8407 4201 4202 0
4200 8407 -4201 0
4200 -8407 3198 4201 0
4200 8407 -4202 0
4201 -8397 -4042 0
-4201 8397 0
-4201 4042 0
4202 -8364 -2472 0
-4202 8364 0
-4202 2472 0
4203 -8387 -4204 0
-4203 8387 0
-4203 4204 0
-4204 -8366 -8407 0
-4204 8366 8407 0
4204 8366 -8407 0
4204 -8366 8407 0
4205 -4206 4219 0
4205 4206 -4219 0
-4205 4206 4219 0
-4205 -4206 -4219 0
-4206 4207 4209 0
-4206 -4207 -4209 0
4206 -4207 4209 0
4206 4207 -4209 0
4207 -8439 4208 0
4207 8439 -4208 0
-4207 8439 4208 0
-4207 -8439 -4208 0
-4208 3190 4027 0
-4208 8452 3190 0
4208 -3190 0
4208 -8452 -4027 0
-4209 4210 4215 0
-4209 -4210 -4215 0
4209 -4210 4215 0
4209 4210 -4215 0
-4210 4211 4214 0
-4210 -8418 -4033 4211 0
4210 -4211 0
4210 8418 -4214 0
4210 4033 -4214 0
-4211 4212 4033 0
-4211 8456 4213 0
-4211 4212 4213 0
-4211 8456 4033 0
4211 -8456 -4212 0
4211 -4033 -4213 0
4212 8454 -2691 0
-4212 -8454 0
-4212 2691 0
4213 -8418 8454 0
-4213 8418 0
-4213 -8454 0
4214 -8454 -2690 0
4214 -8454 8456 0
-4214 8454 0
-4214 -8456 2690 0
-4215 4216 4218 0
-4215 -8427 -4037 4216 0
4215 -4216 0
4215 8427 -4218 0
4215 4037 -4218 0
-4216 8427 4217 0
-4216 -8416 4217 0
-4216 4037 4217 0
4216 -4217 0
4216 8416 -8427 -4037 0
4217 8416 -8462 -2612 0
-4217 2612 0
-4217 8462 0
-4217 -8416 0
4218 -8416 -2610 0
4218 -8416 8462 0
-4218 8416 0
-4218 -8462 2610 0
-4219 4220 4222 0
-4219 -4220 -4222 0
4219 -4220 4222 0
4219 4220 -4222 0
4220 -8460 4221 0
4220 8460 -4221 0
-4220 8460 4221 0
-4220 -8460 -4221 0
-4221 8411 8429 0
-4221 4008 4010 0
-4221 8429 4010 0
-4221 8411 4008 0
4221 -8429 -4008 0
4221 -8411 -4010 0
-4222 4223 4224 0
-4222 -4223 -4224 0
4222 -4223 4224 0
4222 4223 -4224 0
-4223 8401 8445 0
-4223 -8367 -8401 -8445 0
-4223 8401 -8413 0
-4223 8367 8445 0
4223 8401 8413 -8445 0
4223 8367 -8401 -8445 0
4223 -8367 -8401 8445 0
-4224 4225 4227 0
-4224 -8434 -4003 4225 0
4224 -4225 0
4224 8434 -4227 0
4224 4003 -4227 0
-4225 8441 4003 0
-4225 4021 4226 0
-4225 4003 4021 0
-4225 8441 4226 0
4225 -4003 -4226 0
4225 -8441 -4021 0
4226 8391 -8434 0
-4226 -8391 0
-4226 8434 0
4227 -8391 -2871 0
4227 -8391 8441 0
-4227 8391 0
-4227 -8441 2871 0
-4228 4078 4121 0
-4228 4113 4121 0
4228 -4121 0
4228 -4078 -4113 0
-4229 3990 4075 0
-4229 3990 4077 0
4229 -3990 0
4229 -4075 -4077 0
4230 -4231 -4233 -4293 0
4230 -4231 -4260 -4293 0
4230 -4233 -4260 -4293 0
-4230 4233 4260 0
-4230 4231 4260 0
-4230 4293 0
-4230 4231 4233 0
4231 -4232 4178 0
4231 4232 -4178 0
-4231 4232 4178 0
-4231 -4232 -4178 0
4232 4160 -4161 0
4232 -4160 4161 0
-4232 -4160 -4161 0
-4232 4160 4161 0
-4233 4236 4258 0
-4233 4234 4236 0
-4233 4234 4258 0
4233 -4234 -4236 0
4233 -4236 -4258 0
4233 -4234 -4258 0
4234 4125 -4235 0
4234 -4125 4235 0
-4234 -4125 -4235 0
-4234 4125 4235 0
4235 -4127 4139 0
-4235 4127 0
-4235 -4139 0
4236 -4237 -4245 0
4236 -4245 -4256 0
4236 -4237 -4256 0
-4236 4245 4256 0
-4236 4237 4245 0
-4236 4237 4256 0
-4237 4238 4239 0
-4237 4239 4243 0
-4237 4238 4243 0
4237 -4239 -4243 0
4237 -4238 -4239 0
4237 -4238 -4243 0
4238 -8401 8418 -8445 0
4238 -8401 -8418 8445 0
4238 8401 -8445 8456 0
-4238 8401 8445 0
-4238 8418 8445 0
-4238 8401 -8456 0
-4238 -8401 -8418 -8445 0
-4239 8427 4240 0
-4239 4003 4240 0
-4239 -8391 4240 0
4239 -4240 0
4239 8391 -8427 -4003 0
-4240 8462 4241 0
-4240 -8391 4241 0
-4240 2872 4241 0
4240 -4241 0
4240 8391 -8462 -2872 0
4241 -8391 8427 4242 0
4241 -8391 4003 4242 0
-4241 8391 0
-4241 -4242 0
-4241 -8427 -4003 0
4242 -8462 2871 0
-4242 8462 0
-4242 -2871 0
-4243 8460 4244 0
-4243 -8460 -4244 0
4243 -8460 4244 0
4243 8460 -4244 0
-4244 8389 8452 0
-4244 4008 4010 0
-4244 8452 4010 0
-4244 8389 4008 0
4244 -8452 -4008 0
4244 -8389 -4010 0
4245 -4246 -4251 0
4245 -4165 -4246 0
4245 -4165 -4251 0
-4245 4165 4246 0
-4245 4246 4251 0
-4245 4165 4251 0
-4246 -8454 -4247 0
-4246 -8454 -4249 0
-4246 8454 4249 4250 0
4246 8454 -4249 0
4246 -8454 4247 4249 0
4246 8454 -4250 0
4247 -8448 4248 0
-4247 8448 0
-4247 -4248 0
4248 -8454 -2690 0
-4248 8454 0
-4248 2690 0
4249 -8458 -4033 0
-4249 8458 0
-4249 4033 0
4250 -8448 -2691 0
-4250 8448 0
-4250 2691 0
-4251 -8416 -4252 0
-4251 -8416 -4254 0
-4251 8416 4254 4255 0
4251 8416 -4254 0
4251 -8416 4252 4254 0
4251 8416 -4255 0
4252 -8364 -4253 0
-4252 8364 0
-4252 4253 0
-4253 -8431 8454 0
-4253 -8416 -8454 0
-4253 8416 8431 0
4253 8416 -8431 -8454 0
4253 -8416 8431 8454 0
4254 -8397 -4037 0
-4254 8397 0
-4254 4037 0
4255 -8364 -2612 0
-4255 8364 0
-4255 2612 0
4256 -4167 4257 0
4256 4167 -4257 0
-4256 4167 4257 0
-4256 -4167 -4257 0
-4257 4169 4173 0
-4257 -4169 -4173 0
4257 -4169 4173 0
4257 4169 -4173 0
-4258 4176 4259 0
-4258 -4176 -4259 0
4258 -4176 4259 0
4258 4176 -4259 0
-4259 -4162 -4166 0
-4259 4162 4166 0
4259 4162 -4166 0
4259 -4162 4166 0
4260 -4261 -4263 0
-4260 4261 0
-4260 4263 0
-4261 4262 4258 0
-4261 -4262 -4258 0
4261 -4262 4258 0
4261 4262 -4258 0
-4262 -4234 -4236 0
-4262 4234 4236 0
4262 4234 -4236 0
4262 -4234 4236 0
-4263 4266 4291 0
-4263 4264 4266 0
-4263 4264 4291 0
4263 -4264 -4266 0
4263 -4266 -4291 0
4263 -4264 -4291 0
-4264 -4163 -4265 0
-4264 4163 4265 0
4264 4163 -4265 0
4264 -4163 4265 0
4265 4133 -4164 0
4265 -4133 4164 0
-4265 -4133 -4164 0
-4265 4133 4164 0
4266 -4278 -4289 0
4266 -4267 -4289 0
4266 -4267 -4278 0
-4266 4267 4289 0
-4266 4267 4278 0
-4266 4278 4289 0
-4267 4268 4272 0
-4267 4272 4276 0
-4267 4268 4276 0
4267 -4272 -4276 0
4267 -4268 -4272 0
4267 -4268 -4276 0
-4268 4269 4271 0
-4268 -8448 -4033 4269 0
4268 -4269 0
4268 4033 -4271 0
4268 8448 -4271 0
-4269 -8454 4270 0
-4269 4033 4270 0
-4269 8448 4270 0
4269 -4270 0
4269 -8448 8454 -4033 0
4270 -8397 8454 -2691 0
-4270 8397 0
-4270 -8454 0
-4270 2691 0
-4271 8454 0
-4271 -8397 2690 0
4271 8397 -8454 0
4271 -8454 -2690 0
-4272 4273 4275 0
-4272 -8364 -4037 4273 0
4272 -4273 0
4272 8364 -4275 0
4272 4037 -4275 0
-4273 -8416 4274 0
-4273 4037 4274 0
-4273 8364 4274 0
4273 -4274 0
4273 -8364 8416 -4037 0
4274 -8387 -2611 0
-4274 8387 0
-4274 2611 0
4275 8387 -8416 0
4275 -8416 -2610 0
-4275 8416 0
-4275 -8387 2610 0
4276 -8416 4277 0
-4276 8416 0
-4276 -4277 0
4277 -8387 -4037 0
-4277 8387 0
-4277 4037 0
4278 -4279 -4285 0
4278 -4284 -4285 0
4278 -4279 -4284 0
-4278 4279 4284 0
-4278 4284 4285 0
-4278 4279 4285 0
-4279 8391 4280 0
-4279 4280 -4282 0
-4279 4280 -4283 0
4279 -4280 0
4279 -8391 4282 4283 0
-4280 8452 4003 0
-4280 4021 4281 0
-4280 4003 4021 0
-4280 8452 4281 0
4280 -4003 -4281 0
4280 -8452 -4021 0
4281 8391 -8462 0
-4281 -8391 0
-4281 8462 0
4282 -8462 -4003 0
-4282 8462 0
-4282 4003 0
4283 -8452 2871 0
-4283 8452 0
-4283 -2871 0
-4284 8401 -8427 0
-4284 8401 8445 0
-4284 8445 8456 0
-4284 -8401 -8445 -8456 0
4284 -8401 8445 -8456 0
4284 -8401 -8445 8456 0
4284 8401 8427 -8445 0
-4285 -8460 -4286 0
-4285 -8460 -4287 0
-4285 8460 4287 4288 0
4285 8460 -4287 0
4285 -8460 4286 4287 0
4285 8460 -4288 0
4286 -8458 2756 0
-4286 8458 0
-4286 -2756 0
4287 -8389 -4008 0
-4287 8389 0
-4287 4008 0
4288 -8458 -2757 0
-4288 8458 0
-4288 2757 0
-4289 4290 4243 0
-4289 -4290 -4243 0
4289 -4290 4243 0
4289 4290 -4243 0
-4290 4238 4239 0
-4290 -4238 -4239 0
4290 -4238 4239 0
4290 4238 -4239 0
4291 -4256 4292 0
4291 4256 -4292 0
-4291 4256 4292 0
-4291 -4256 -4292 0
-4292 -4237 -4245 0
-4292 4237 4245 0
4292 4237 -4245 0
4292 -4237 4245 0
-4293 4157 4159 0
-4293 -4157 -4159 0
4293 -4157 4159 0
4293 4157 -4159 0
4294 -4293 -4295 -4299 -4301 0
-4294 4293 0
-4294 4301 0
-4294 4299 0
-4294 4295 0
4295 4296 -4297 0
-4295 -4296 0
-4295 4297 0
4296 -4231 -4233 0
-4296 4231 0
-4296 4233 0
-4297 4233 4298 0
4297 -4233 0
4297 -4298 0
-4298 4232 4178 0
-4298 -4232 -4178 0
4298 -4232 4178 0
4298 4232 -4178 0
4299 4260 -4300 0
-4299 -4260 0
-4299 4300 0
-4300 4261 4263 0
4300 -4261 0
4300 -4263 0
4301 -4436 0
4301 -4302 -4440 0
4301 -4424 -4440 0
-4301 4436 4440 0
-4301 4302 4424 4436 0
4302 -4303 -4411 -4423 0
-4302 4303 0
-4302 4423 0
-4302 4411 0
-4303 4304 4375 0
4303 -4304 0
4303 -4375 0
-4304 4305 4354 0
4304 -4305 0
4304 -4354 0
4305 -4306 -4343 0
-4305 4306 0
-4305 4343 0
4306 4307 -4324 0
4306 -4307 4324 0
-4306 -4307 -4324 0
-4306 4307 4324 0
-4307 4308 4319 0
-4307 -4308 -4319 0
4307 -4308 4319 0
4307 4308 -4319 0
4308 -4309 -4318 0
-4308 4309 0
-4308 4318 0
-4309 4310 4313 0
-4309 4310 4317 0
4309 -4310 0
4309 -4313 -4317 0
-4310 -8460 -3549 0
-4310 -8460 -4311 0
-4310 8460 4311 4312 0
4310 8460 -4311 0
4310 -8460 3549 4311 0
4310 8460 -4312 0
4311 -8448 -4008 0
-4311 8448 0
-4311 4008 0
4312 -8397 -2757 0
-4312 8397 0
-4312 2757 0
-4313 4314 4315 -4316 0
-4313 -8391 -4314 4315 0
-4313 8391 4314 4315 0
4313 -4315 0
4313 8391 -4314 0
4313 -8391 4314 4316 0
4314 -8389 -4003 0
-4314 8389 0
-4314 4003 0
4315 8391 -8458 -2872 0
-4315 2872 0
-4315 8458 0
-4315 -8391 0
4316 -8458 2871 0
-4316 8458 0
-4316 -2871 0
-4317 8445 8462 0
-4317 8401 8445 0
-4317 8401 -8452 0
-4317 -8401 -8445 -8462 0
4317 8401 -8445 8452 0
4317 -8401 -8445 8462 0
4317 -8401 8445 -8462 0
-4318 4313 4317 0
4318 -4313 0
4318 -4317 0
-4319 4277 4320 0
-4319 -4277 -4320 0
4319 -4277 4320 0
4319 4277 -4320 0
-4320 4321 4323 0
-4320 -8397 -4033 4321 0
4320 -4321 0
4320 4033 -4323 0
4320 8397 -4323 0
-4321 4212 4033 0
-4321 8364 4322 0
-4321 4212 4322 0
-4321 8364 4033 0
4321 -8364 -4212 0
4321 -4033 -4322 0
4322 -8397 8454 0
-4322 8397 0
-4322 -8454 0
-4323 8454 0
-4323 -8364 2690 0
4323 8364 -8454 0
4323 -8454 -2690 0
4324 -4325 4334 0
4324 4325 -4334 0
-4324 4325 4334 0
-4324 -4325 -4334 0
-4325 4318 4326 0
-4325 4326 4333 0
-4325 -4309 4326 0
4325 -4326 0
4325 4309 -4318 -4333 0
-4326 8454 4328 0
-4326 2691 -4327 4328 0
4326 -4328 0
4326 -8454 4327 0
4326 -8454 -2691 0
-4327 8387 4033 0
-4327 8364 8387 0
4327 -8387 0
4327 -8364 -4033 0
4328 -4310 4329 -4330 -4327 0
-4328 -4329 0
-4328 4327 0
-4328 4310 0
-4328 4330 0
-4329 4313 4317 0
-4329 -4313 -4317 0
4329 -4313 4317 0
4329 4313 -4317 0
-4330 -2691 4031 4332 0
-4330 4031 4331 4332 0
4330 -4332 0
4330 -4031 0
4330 2691 -4331 0
4331 8364 -8454 0
-4331 -8364 0
-4331 8454 0
4332 -8364 8387 -2690 0
4332 -8364 8454 -2690 0
-4332 8364 0
-4332 2690 0
-4332 -8387 -8454 0
4333 -4330 -4327 0
-4333 4330 0
-4333 4327 0
-4334 4335 4337 0
-4334 -4335 -4337 0
4334 -4335 4337 0
4334 4335 -4337 0
4335 -8460 4336 0
4335 8460 -4336 0
-4335 8460 4336 0
-4335 -8460 -4336 0
-4336 8448 8458 0
-4336 4008 4010 0
-4336 8458 4010 0
-4336 8448 4008 0
4336 -8458 -4008 0
4336 -8448 -4010 0
-4337 4338 4339 0
-4337 -4338 -4339 0
4337 -4338 4339 0
4337 4338 -4339 0
4338 -8401 8427 -8445 0
4338 -8401 -8427 8445 0
4338 8401 -8445 8462 0
-4338 8401 8445 0
-4338 8427 8445 0
-4338 8401 -8462 0
-4338 -8401 -8427 -8445 0
-4339 4340 4341 -4342 0
-4339 -8391 4340 -4341 0
-4339 8391 4340 4341 0
4339 -4340 0
4339 8391 -4341 0
4339 -8391 4341 4342 0
4340 -8389 -4021 0
-4340 8389 0
-4340 4021 0
4341 -8452 -4003 0
-4341 8452 0
-4341 4003 0
4342 -8389 2871 0
-4342 8389 0
-4342 -2871 0
4343 -4344 -4346 0
-4343 4344 0
-4343 4346 0
4344 -4329 4345 0
4344 4329 -4345 0
-4344 4329 4345 0
-4344 -4329 -4345 0
-4345 -4310 -4333 0
-4345 4310 4333 0
4345 4310 -4333 0
4345 -4310 4333 0
-4346 4348 4352 0
-4346 4347 4352 0
-4346 4347 4348 0
4346 -4347 -4352 0
4346 -4347 -4348 0
4346 -4348 -4352 0
4347 -8401 8445 -8452 0
4347 -8401 -8445 8452 0
4347 8389 8401 -8445 0
-4347 8401 8445 0
-4347 -8389 8401 0
-4347 8445 8452 0
-4347 -8401 -8445 -8452 0
-4348 4349 4351 0
-4348 -8448 2871 4349 0
4348 -4349 0
4348 8448 -4351 0
4348 -2871 -4351 0
-4349 8448 4003 0
-4349 4021 4350 0
-4349 4003 4021 0
-4349 8448 4350 0
4349 -4003 -4350 0
4349 -8448 -4021 0
4350 8391 -8458 0
-4350 -8391 0
-4350 8458 0
4351 -8391 4003 0
4351 -8391 8458 0
-4351 8391 0
-4351 -8458 -4003 0
4352 -8460 4353 0
4352 8460 -4353 0
-4352 8460 4353 0
-4352 -8460 -4353 0
-4353 8364 8397 0
-4353 4008 4010 0
-4353 8397 4010 0
-4353 8364 4008 0
4353 -8397 -4008 0
4353 -8364 -4010 0
4354 -4355 -4356 0
-4354 4355 0
-4354 4356 0
4355 -4344 4346 0
4355 4344 -4346 0
-4355 4344 4346 0
-4355 -4344 -4346 0
-4356 4357 4369 0
-4356 4358 4369 0
4356 -4369 0
4356 -4357 -4358 0
4357 -8387 -4033 0
-4357 8387 0
-4357 4033 0
4358 -4364 -4368 0
4358 -4359 -4364 0
4358 -4359 -4368 0
-4358 4359 4364 0
-4358 4364 4368 0
-4358 4359 4368 0
-4359 4360 4362 0
4359 -4360 0
4359 -4362 0
4360 8364 -8460 4361 0
4360 -8460 4008 4361 0
-4360 8460 0
-4360 -4361 0
-4360 -8364 -4008 0
4361 -8387 2756 0
-4361 8387 0
-4361 -2756 0
-4362 -8460 4363 0
-4362 4008 4363 0
-4362 8364 4363 0
4362 -4363 0
4362 -8364 8460 -4008 0
4363 -8387 -4134 0
-4363 8387 0
-4363 4134 0
-4364 4365 4367 0
-4364 -8448 -4003 4365 0
4364 -4365 0
4364 8448 -4367 0
4364 4003 -4367 0
-4365 8448 4366 0
-4365 -8391 4366 0
-4365 4003 4366 0
4365 -4366 0
4365 8391 -8448 -4003 0
4366 -8397 -4021 0
-4366 8397 0
-4366 4021 0
4367 -8391 -2871 0
4367 -8391 8397 0
-4367 8391 0
-4367 -8397 2871 0
4368 8389 -8401 -8445 0
4368 8401 -8445 8458 0
4368 -8389 -8401 8445 0
-4368 8389 8445 0
-4368 8401 8445 0
-4368 8401 -8458 0
-4368 -8389 -8401 -8445 0
4369 -4370 -4373 0
-4369 4370 0
-4369 4373 0
-4370 -4372 -4357 0
-4370 4368 4372 4357 0
-4370 4371 4357 0
-4370 -4371 -4368 -4357 0
4370 4371 4372 -4357 0
4370 -4371 -4368 4357 0
4370 4368 4372 -4357 0
4370 -4371 -4372 4357 0
-4371 4359 4364 0
4371 -4359 0
4371 -4364 0
4372 -4359 -4364 0
-4372 4359 0
-4372 4364 0
-4373 -4374 -4352 0
-4373 4374 4352 0
4373 4374 -4352 0
4373 -4374 4352 0
-4374 4347 4348 0
-4374 -4347 -4348 0
4374 -4347 4348 0
4374 4347 -4348 0
4375 -4376 -4410 0
-4375 4376 0
-4375 4410 0
-4376 4377 4409 0
-4376 4384 4409 0
4376 -4409 0
4376 -4377 -4384 0
-4377 4378 4379 0
4377 -4378 0
4377 -4379 0
4378 -4370 4373 0
4378 4370 -4373 0
-4378 4370 4373 0
-4378 -4370 -4373 0
4379 4359 -4380 -4382 0
4379 4380 -4381 -4382 0
-4379 4382 0
-4379 4380 4381 0
-4379 -4359 -4380 0
-4380 -4364 -4368 0
-4380 4364 4368 0
4380 4364 -4368 0
4380 -4364 4368 0
-4381 4360 4362 0
4381 -4360 0
4381 -4362 0
4382 -8460 4383 0
-4382 8460 0
-4382 -4383 0
4383 -8387 -4008 0
-4383 8387 0
-4383 4008 0
4384 -4406 -4408 0
4384 -4385 -4406 0
4384 -4385 -4408 0
-4384 4385 4406 0
-4384 4406 4408 0
-4384 4385 4408 0
4385 -4386 -4393 0
4385 -4393 -4400 0
4385 -4386 -4400 0
-4385 4393 4400 0
-4385 4386 4393 0
-4385 4386 4400 0
-4386 4387 4391 0
-4386 -4387 -4391 0
4386 -4387 4391 0
4386 4387 -4391 0
4387 8391 -4390 0
4387 -8391 4388 4389 0
4387 8391 -4388 0
-4387 -8391 -4388 0
-4387 -8391 -4389 0
-4387 8391 4388 4390 0
4388 -8397 -4003 0
-4388 8397 0
-4388 4003 0
4389 -8364 2871 0
-4389 8364 0
-4389 -2871 0
4390 -8364 -2872 0
-4390 8364 0
-4390 2872 0
-4391 -4383 -4392 0
-4391 4383 4392 0
4391 4383 -4392 0
4391 -4383 4392 0
4392 8401 -8445 8448 0
4392 -8401 -8445 8458 0
4392 -8401 8445 -8458 0
-4392 8445 8458 0
-4392 8401 8445 0
-4392 8401 -8448 0
-4392 -8401 -8445 -8458 0
4393 -4394 -4399 0
4393 -4394 -4398 0
4393 -4398 -4399 0
-4393 4398 4399 0
-4393 4394 4399 0
-4393 4394 4398 0
4394 8391 -4397 0
4394 -8391 4395 4396 0
4394 8391 -4395 0
-4394 -8391 -4395 0
-4394 -8391 -4396 0
-4394 8391 4395 4397 0
4395 -8364 -4003 0
-4395 8364 0
-4395 4003 0
4396 -8387 2871 0
-4396 8387 0
-4396 -2871 0
4397 -8387 -2872 0
-4397 8387 0
-4397 2872 0
-4398 8401 8445 0
-4398 -8397 8401 0
-4398 8445 8448 0
-4398 -8401 -8445 -8448 0
4398 -8401 8445 -8448 0
4398 -8401 -8445 8448 0
4398 8397 8401 -8445 0
4399 8387 -8391 0
4399 -8391 4003 0
-4399 8391 0
-4399 -8387 -4003 0
4400 -4401 -4403 0
-4400 4401 0
-4400 4403 0
4401 4394 -4402 0
4401 -4394 4402 0
-4401 -4394 -4402 0
-4401 4394 4402 0
4402 4398 -4399 0
4402 -4398 4399 0
-4402 -4398 -4399 0
-4402 4398 4399 0
4403 -4404 -4405 0
-4403 4404 0
-4403 4405 0
-4404 -8387 4003 0
-4404 8387 8445 0
-4404 8387 -3640 0
4404 -8387 -4003 0
4404 8387 -8445 3640 0
4405 8364 8401 -8445 0
4405 8397 -8401 -8445 0
4405 -8397 -8401 8445 0
-4405 8401 8445 0
-4405 -8397 -8401 -8445 0
-4405 8397 8445 0
-4405 -8364 8401 0
-4406 -4380 -4407 0
-4406 4380 4407 0
4406 4380 -4407 0
4406 -4380 4407 0
4407 4359 -4382 0
4407 -4381 4382 0
-4407 4381 4382 0
-4407 -4359 -4382 0
-4408 4383 4392 0
-4408 4387 4392 0
-4408 4383 4387 0
4408 -4383 -4387 0
4408 -4387 -4392 0
4408 -4383 -4392 0
4409 -4378 -4379 0
-4409 4378 0
-4409 4379 0
-4410 4355 4356 0
-4410 -4355 -4356 0
4410 -4355 4356 0
4410 4355 -4356 0
-4411 -4412 -4413 0
-4411 4412 4413 0
4411 4412 -4413 0
4411 -4412 4413 0
-4412 4307 4325 0
-4412 4325 4334 0
-4412 4307 4334 0
4412 -4307 -4334 0
4412 -4325 -4334 0
4412 -4307 -4325 0
4413 4414 -4419 0
4413 -4414 4419 0
-4413 -4414 -4419 0
-4413 4414 4419 0
4414 -4415 4416 0
4414 4415 -4416 0
-4414 4415 4416 0
-4414 -4415 -4416 0
4415 -4335 -4338 0
4415 -4338 -4339 0
4415 -4335 -4339 0
-4415 4338 4339 0
-4415 4335 4338 0
-4415 4335 4339 0
-4416 -4285 -4417 0
-4416 4285 4417 0
4416 4285 -4417 0
4416 -4285 4417 0
4417 -4284 4418 0
4417 4284 -4418 0
-4417 4284 4418 0
-4417 -4284 -4418 0
-4418 8391 4280 0
-4418 4280 -4282 0
-4418 4280 -4283 0
4418 -4280 0
4418 -8391 4282 4283 0
4419 4420 -4421 0
4419 -4420 4421 0
-4419 -4420 -4421 0
-4419 4420 4421 0
-4420 4308 4320 0
-4420 4277 4308 0
-4420 4277 4320 0
4420 -4277 -4308 0
4420 -4308 -4320 0
4420 -4277 -4320 0
4421 -4276 4422 0
4421 4276 -4422 0
-4421 4276 4422 0
-4421 -4276 -4422 0
-4422 4268 4272 0
-4422 -4268 -4272 0
4422 -4268 4272 0
4422 4268 -4272 0
-4423 4306 4343 0
4423 -4306 0
4423 -4343 0
-4424 4425 4435 0
4424 -4425 0
4424 -4435 0
4425 -4426 -4434 0
-4425 4426 0
-4425 4434 0
4426 4427 -4429 0
4426 -4427 4429 0
-4426 -4427 -4429 0
-4426 4427 4429 0
4427 -4289 4428 0
4427 4289 -4428 0
-4427 4289 4428 0
-4427 -4289 -4428 0
-4428 -4267 -4278 0
-4428 4267 4278 0
4428 4267 -4278 0
4428 -4267 4278 0
4429 -4430 4433 0
-4429 4430 0
-4429 -4433 0
-4430 4415 4416 4431 0
-4430 4415 4421 4431 0
-4430 4416 4421 4431 0
4430 -4415 -4421 0
4430 -4415 -4416 0
4430 -4431 0
4430 -4416 -4421 0
4431 -4165 4432 0
4431 4165 -4432 0
-4431 4165 4432 0
-4431 -4165 -4432 0
-4432 4246 4251 0
-4432 -4246 -4251 0
4432 -4246 4251 0
4432 4246 -4251 0
4433 -4415 -4416 -4431 0
4433 -4415 -4421 -4431 0
4433 -4416 -4421 -4431 0
-4433 4416 4421 0
-4433 4415 4421 0
-4433 4431 0
-4433 4415 4416 0
-4434 4420 0
-4434 -4414 -4421 0
-4434 4414 4421 0
4434 -4414 -4420 4421 0
4434 4414 -4420 -4421 0
4435 -4412 -4413 0
-4435 4412 0
-4435 4413 0
4436 -4437 -4439 0
-4436 4437 0
-4436 4439 0
-4437 -4438 -4291 0
-4437 4438 4291 0
4437 4438 -4291 0
4437 -4438 4291 0
-4438 -4264 -4266 0
-4438 4264 4266 0
4438 4264 -4266 0
4438 -4264 4266 0
-4439 4430 4433 0
-4439 4427 4433 0
4439 -4433 0
4439 -4427 -4430 0
4440 -4441 -4442 0
-4440 4441 0
-4440 4442 0
-4441 4426 4434 0
4441 -4426 0
4441 -4434 0
-4442 4437 4439 0
4442 -4437 0
4442 -4439 0
4443 -4180 -4445 0
4443 -4444 -4445 0
-4443 4445 0
-4443 4180 4444 0
-4444 3988 4122 0
4444 -3988 0
4444 -4122 0
-4445 4181 4229 0
4445 -4181 0
4445 -4229 0
4446 -4447 -4570 -4571 -4581 0
4446 -4447 4570 4571 -4581 0
4446 -4447 4570 -4571 4581 0
4446 -4447 -4570 4571 4581 0
-4446 4447 0
-4446 -4570 -4571 4581 0
-4446 4570 -4571 -4581 0
-4446 -4570 4571 -4581 0
-4446 4570 4571 4581 0
4447 -4448 -4564 0
-4447 4448 0
-4447 4564 0
4448 -4449 4563 0
-4448 4449 0
-4448 -4563 0
-4449 4450 4508 0
4449 -4450 0
4449 -4508 0
-4450 4451 4497 0
4450 -4451 0
4450 -4497 0
4451 -4452 -4495 0
-4451 4452 0
-4451 4495 0
-4452 -4453 4466 -4482 0
-4452 -4453 -4466 4482 0
-4452 4453 -4466 -4482 0
-4452 4453 4466 4482 0
4452 -4453 4466 4482 0
4452 -4453 -4466 -4482 0
4452 4453 -4466 4482 0
4452 4453 4466 -4482 0
4453 -4454 4457 0
4453 4454 -4457 0
-4453 4454 4457 0
-4453 -4454 -4457 0
4454 8439 -4455 0
4454 -8439 4455 4456 0
4454 8439 -3136 0
-4454 -8439 -4455 0
-4454 8439 3136 4455 0
-4454 -8439 -4456 0
4455 -8462 -4027 0
-4455 8462 0
-4455 4027 0
4456 -8452 4056 0
-4456 8452 0
-4456 -4056 0
-4457 4458 4462 0
-4457 -4458 -4462 0
4457 -4458 4462 0
4457 4458 -4462 0
-4458 4459 4461 0
-4458 -8456 -4037 4459 0
4458 -4459 0
4458 8456 -4461 0
4458 4037 -4461 0
-4459 8456 4460 0
-4459 -8416 4460 0
-4459 4037 4460 0
4459 -4460 0
4459 8416 -8456 -4037 0
4460 -8427 -2611 0
-4460 8427 0
-4460 2611 0
4461 -8416 -8431 0
4461 -8416 8427 0
4461 -8416 -8454 0
-4461 8416 0
-4461 -8427 8431 8454 0
-4462 4463 4465 0
-4462 -8411 -4033 4463 0
4462 -4463 0
4462 8411 -4465 0
4462 4033 -4465 0
-4463 2691 4033 0
-4463 4213 4464 0
-4463 4033 4213 0
-4463 2691 4464 0
4463 -4033 -4464 0
4463 -2691 -4213 0
4464 -8411 8454 0
-4464 8411 0
-4464 -8454 0
4465 8418 -8454 0
4465 -8454 -2690 0
-4465 8454 0
-4465 -8418 2690 0
4466 -4467 4471 0
4466 4467 -4471 0
-4466 4467 4471 0
-4466 -4467 -4471 0
4467 8368 -4468 0
4467 -8368 4468 4469 0
4467 8368 -3146 0
-4467 -8368 -4468 0
-4467 8368 3146 4468 0
-4467 -8368 -4469 0
4468 -8364 -4204 0
-4468 8364 0
-4468 4204 0
4469 -8387 4470 0
-4469 8387 0
-4469 -4470 0
-4470 8366 8407 0
4470 -8366 0
4470 -8407 0
-4471 4472 4477 0
-4471 -4472 -4477 0
4471 -4472 4477 0
4471 4472 -4477 0
-4472 4473 4476 0
-4472 -8389 -3994 4473 0
4472 -4473 0
4472 8389 -4476 0
4472 3994 -4476 0
-4473 4474 3994 0
-4473 8458 4475 0
-4473 4474 4475 0
-4473 8458 3994 0
4473 -8458 -4474 0
4473 -3994 -4475 0
4474 8399 -2508 0
-4474 -8399 0
-4474 2508 0
4475 -8389 8399 0
-4475 8389 0
-4475 -8399 0
4476 -8399 -2507 0
4476 -8399 8458 0
-4476 8399 0
-4476 -8458 2507 0
-4477 4478 4481 0
-4477 -8448 -4042 4478 0
4477 -4478 0
4477 8448 -4481 0
4477 4042 -4481 0
-4478 4479 4042 0
-4478 8397 4480 0
-4478 4479 4480 0
-4478 8397 4042 0
4478 -8397 -4479 0
4478 -4042 -4480 0
4479 8407 -2472 0
-4479 -8407 0
-4479 2472 0
4480 8407 -8448 0
-4480 -8407 0
-4480 8448 0
4481 8397 -8407 0
4481 -8407 -2471 0
-4481 8407 0
-4481 -8397 2471 0
-4482 -4483 -4489 0
-4482 4483 4489 0
4482 4483 -4489 0
4482 -4483 4489 0
-4483 4484 4485 0
-4483 -4484 -4485 0
4483 -4484 4485 0
4483 4484 -4485 0
4484 8367 8401 -8445 0
4484 -8401 8404 -8445 0
4484 -8401 -8404 8445 0
-4484 8401 8445 0
-4484 -8401 -8404 -8445 0
-4484 8404 8445 0
-4484 -8367 8401 0
-4485 4486 4488 0
-4485 -8413 -4003 4486 0
4485 -4486 0
4485 8413 -4488 0
4485 4003 -4488 0
-4486 2872 4003 0
-4486 4226 4487 0
-4486 4003 4226 0
-4486 2872 4487 0
4486 -4003 -4487 0
4486 -2872 -4226 0
4487 8391 -8413 0
-4487 -8391 0
-4487 8413 0
4488 -8391 -2871 0
4488 -8391 8434 0
-4488 8391 0
-4488 -8434 2871 0
4489 4490 -4494 0
4489 -4490 4494 0
-4489 -4490 -4494 0
-4489 4490 4494 0
-4490 4491 4493 0
-4490 -8441 -4008 4491 0
4490 -4491 0
4490 8441 -4493 0
4490 4008 -4493 0
4491 -2757 -4492 0
4491 -8441 -4492 0
-4491 4492 0
-4491 8441 2757 0
4492 -8391 8425 8460 0
4492 8391 -8425 8460 0
4492 -8391 -8429 8460 0
-4492 -8460 0
-4492 8391 8425 0
-4492 -8391 -8425 8429 0
4493 8429 -8460 0
4493 -8460 -2756 0
-4493 8460 0
-4493 -8429 2756 0
4494 -8368 4203 0
-4494 8368 0
-4494 -4203 0
-4495 4183 4496 0
4495 -4183 0
4495 -4496 0
4496 -4186 -4187 0
-4496 4186 0
-4496 4187 0
4497 -4498 -4499 0
-4497 4498 0
-4497 4499 0
4498 -4452 4495 0
4498 4452 -4495 0
-4498 4452 4495 0
-4498 -4452 -4495 0
4499 -4500 4505 0
4499 4500 -4505 0
-4499 4500 4505 0
-4499 -4500 -4505 0
4500 -4501 4502 0
4500 4501 -4502 0
-4500 4501 4502 0
-4500 -4501 -4502 0
-4501 4196 4200 0
-4501 4200 4203 0
-4501 4196 4203 0
4501 -4200 -4203 0
4501 -4196 -4200 0
4501 -4196 -4203 0
-4502 4503 4504 0
-4502 -4503 -4504 0
4502 -4503 4504 0
4502 4503 -4504 0
-4503 4220 4223 0
-4503 4223 4224 0
-4503 4220 4224 0
4503 -4223 -4224 0
4503 -4220 -4223 0
4503 -4220 -4224 0
-4504 4207 4210 0
-4504 4210 4215 0
-4504 4207 4215 0
4504 -4210 -4215 0
4504 -4207 -4210 0
4504 -4207 -4215 0
-4505 -4506 -4507 0
-4505 4506 4507 0
4505 4506 -4507 0
4505 -4506 4507 0
-4506 4188 4191 0
-4506 4188 4190 0
-4506 4190 4191 0
4506 -4190 -4191 0
4506 -4188 -4191 0
4506 -4188 -4190 0
4507 -4206 -4219 0
4507 -4194 -4206 0
4507 -4194 -4219 0
-4507 4194 4206 0
-4507 4206 4219 0
-4507 4194 4219 0
4508 4509 -4519 0
4508 -4509 4519 0
-4508 -4509 -4519 0
-4508 4509 4519 0
4509 4510 -4514 0
4509 -4510 4514 0
-4509 -4510 -4514 0
-4509 4510 4514 0
4510 4511 -4512 4513 0
4510 4511 4512 -4513 0
4510 -4511 4512 4513 0
4510 -4511 -4512 -4513 0
-4510 4511 -4512 -4513 0
-4510 4511 4512 4513 0
-4510 -4511 4512 -4513 0
-4510 -4511 -4512 4513 0
-4511 4454 4458 0
-4511 4458 4462 0
-4511 4454 4462 0
4511 -4458 -4462 0
4511 -4454 -4458 0
4511 -4454 -4462 0
-4512 4467 4472 0
-4512 4472 4477 0
-4512 4467 4477 0
4512 -4472 -4477 0
4512 -4467 -4472 0
4512 -4467 -4477 0
4513 -4483 4490 -4494 0
4513 4483 -4490 -4494 0
-4513 4494 0
-4513 -4483 -4490 0
-4513 4483 4490 0
4514 -4515 4518 0
-4514 4515 0
-4514 -4518 0
-4515 4516 4517 0
4515 -4516 0
4515 -4517 0
4516 -4453 -4466 0
4516 -4466 -4482 0
4516 -4453 -4482 0
-4516 4466 4482 0
-4516 4453 4466 0
-4516 4453 4482 0
4517 -4501 -4504 0
4517 -4503 -4504 0
4517 -4501 -4503 0
-4517 4501 4503 0
-4517 4503 4504 0
-4517 4501 4504 0
4518 -4516 -4517 0
-4518 4516 0
-4518 4517 0
4519 -4520 4562 0
-4519 4520 0
-4519 -4562 0
-4520 4500 4506 4521 0
-4520 4500 4507 4521 0
-4520 4506 4507 4521 0
4520 -4500 -4507 0
4520 -4500 -4506 0
4520 -4521 0
4520 -4506 -4507 0
4521 -4522 4547 0
4521 4522 -4547 0
-4521 4522 4547 0
-4521 -4522 -4547 0
-4522 4523 4535 0
-4522 -4523 -4535 0
4522 -4523 4535 0
4522 4523 -4535 0
-4523 4524 4526 0
-4523 -4524 -4526 0
4523 -4524 4526 0
4523 4524 -4526 0
4524 -8439 4525 0
4524 8439 -4525 0
-4524 8439 4525 0
-4524 -8439 -4525 0
-4525 3080 4027 0
-4525 8427 3080 0
4525 -3080 0
4525 -8427 -4027 0
-4526 4527 4531 0
-4526 -4527 -4531 0
4526 -4527 4531 0
4526 4527 -4531 0
-4527 4528 4530 0
-4527 -8429 -4033 4528 0
4527 -4528 0
4527 8429 -4530 0
4527 4033 -4530 0
-4528 2691 4033 0
-4528 4464 4529 0
-4528 4033 4464 0
-4528 2691 4529 0
4528 -4033 -4529 0
4528 -2691 -4464 0
4529 -8429 8454 0
-4529 8429 0
-4529 -8454 0
4530 8411 -8454 0
4530 -8454 -2690 0
-4530 8454 0
-4530 -8411 2690 0
-4531 4532 4534 0
-4531 -8418 -4037 4532 0
4531 -4532 0
4531 8418 -4534 0
4531 4037 -4534 0
-4532 8418 4533 0
-4532 -8416 4533 0
-4532 4037 4533 0
4532 -4533 0
4532 8416 -8418 -4037 0
4533 -8456 -2611 0
-4533 8456 0
-4533 2611 0
4534 -8416 -2610 0
4534 -8416 8456 0
-4534 8416 0
-4534 -8456 2610 0
-4535 4536 4538 0
-4535 -4536 -4538 0
4535 -4536 4538 0
4535 4536 -4538 0
-4536 8368 4537 0
-4536 -8368 -4537 0
4536 -8368 4537 0
4536 8368 -4537 0
-4537 3090 4204 0
-4537 8397 3090 0
4537 -3090 0
4537 -8397 -4204 0
-4538 4539 4543 0
-4538 -4539 -4543 0
4538 -4539 4543 0
4538 4539 -4543 0
-4539 4540 4542 0
-4539 -8452 -3994 4540 0
4539 -4540 0
4539 8452 -4542 0
4539 3994 -4542 0
-4540 2508 3994 0
-4540 4475 4541 0
-4540 3994 4475 0
-4540 2508 4541 0
4540 -3994 -4541 0
4540 -2508 -4475 0
4541 8399 -8452 0
-4541 -8399 0
-4541 8452 0
4542 8389 -8399 0
4542 -8399 -2507 0
-4542 8399 0
-4542 -8389 2507 0
-4543 4544 4546 0
-4543 -8458 -4042 4544 0
4543 -4544 0
4543 8458 -4546 0
4543 4042 -4546 0
-4544 8458 4545 0
-4544 -8407 4545 0
-4544 4042 4545 0
4544 -4545 0
4544 8407 -8458 -4042 0
4545 8407 -8448 -2472 0
-4545 2472 0
-4545 8448 0
-4545 -8407 0
4546 -8407 -2471 0
4546 -8407 8448 0
-4546 8407 0
-4546 -8448 2471 0
-4547 -4548 -4558 0
-4547 4548 4558 0
4547 4548 -4558 0
4547 -4548 4558 0
4548 -4549 4552 0
4548 4549 -4552 0
-4548 4549 4552 0
-4548 -4549 -4552 0
4549 8460 -4550 0
4549 -8460 4550 4551 0
4549 8460 -3045 0
-4549 -8460 -4550 0
-4549 8460 3045 4550 0
-4549 -8460 -4551 0
4550 -8434 -4008 0
-4550 8434 0
-4550 4008 0
4551 -8441 2756 0
-4551 8441 0
-4551 -2756 0
-4552 4553 4554 0
-4552 -4553 -4554 0
4552 -4553 4554 0
4552 4553 -4554 0
-4553 8401 8445 0
-4553 -8369 -8401 -8445 0
-4553 8401 -8404 0
-4553 8369 8445 0
4553 8401 8404 -8445 0
4553 8369 -8401 -8445 0
4553 -8369 -8401 8445 0
-4554 4555 4557 0
-4554 -8367 -4003 4555 0
4554 -4555 0
4554 8367 -4557 0
4554 4003 -4557 0
-4555 2872 4003 0
-4555 4487 4556 0
-4555 4003 4487 0
-4555 2872 4556 0
4555 -4003 -4556 0
4555 -2872 -4487 0
4556 -8367 8391 0
-4556 8367 0
-4556 -8391 0
4557 -8391 -2871 0
4557 -8391 8413 0
-4557 8391 0
-4557 -8413 2871 0
4558 4559 -4561 0
-4558 -4559 0
-4558 4561 0
-4559 4484 4485 0
-4559 4485 4490 0
-4559 4560 0
-4559 4484 4490 0
4559 -4485 -4490 -4560 0
4559 -4484 -4490 -4560 0
4559 -4484 -4485 -4560 0
4560 -8387 -3974 0
-4560 8387 0
-4560 3974 0
-4561 4484 4485 4560 0
-4561 4485 4490 4560 0
-4561 4484 4490 4560 0
4561 -4485 -4490 0
4561 -4484 -4485 0
4561 -4560 0
4561 -4484 -4490 0
4562 -4500 -4506 -4521 0
4562 -4500 -4507 -4521 0
4562 -4506 -4507 -4521 0
-4562 4506 4507 0
-4562 4500 4507 0
-4562 4521 0
-4562 4500 4506 0
4563 -4450 -4508 0
-4563 4450 0
-4563 4508 0
4564 4565 -4567 0
-4564 -4565 0
-4564 4567 0
4565 -4182 -4193 -4566 0
4565 -4182 -4228 -4566 0
4565 -4193 -4228 -4566 0
-4565 4193 4228 0
-4565 4182 4193 0
-4565 4566 0
-4565 4182 4228 0
4566 4498 -4499 0
4566 -4498 4499 0
-4566 -4498 -4499 0
-4566 4498 4499 0
-4567 -4498 -4499 4568 0
-4567 4498 4499 4568 0
4567 -4568 0
4567 -4498 4499 0
4567 4498 -4499 0
-4568 4192 4569 0
-4568 4182 4569 0
4568 -4569 0
4568 -4182 -4192 0
4569 -4193 -4228 0
-4569 4193 0
-4569 4228 0
-4570 4520 4562 0
-4570 4509 4562 0
4570 -4562 0
4570 -4509 -4520 0
4571 4572 -4577 0
4571 -4572 4577 0
-4571 -4572 -4577 0
-4571 4572 4577 0
-4572 4573 4574 0
-4572 -4573 -4574 0
4572 -4573 4574 0
4572 4573 -4574 0
4573 -4548 -4561 0
4573 -4559 -4561 0
-4573 4561 0
-4573 4548 4559 0
-4574 4575 4576 0
-4574 -4575 -4576 0
4574 -4575 4576 0
4574 4575 -4576 0
-4575 4524 4527 0
-4575 4527 4531 0
-4575 4524 4531 0
4575 -4527 -4531 0
4575 -4524 -4527 0
4575 -4524 -4531 0
-4576 4536 4539 0
-4576 4539 4543 0
-4576 4536 4543 0
4576 -4536 -4543 0
4576 -4539 -4543 0
4576 -4536 -4539 0
4577 -4578 4580 0
-4577 4578 0
-4577 -4580 0
-4578 4579 4523 4547 0
-4578 4579 4535 4547 0
-4578 4579 4523 4535 0
4578 -4523 -4547 0
4578 -4535 -4547 0
4578 -4579 0
4578 -4523 -4535 0
-4579 4511 4512 0
-4579 4512 4513 0
-4579 4511 4513 0
4579 -4512 -4513 0
4579 -4511 -4512 0
4579 -4511 -4513 0
4580 -4579 -4523 -4547 0
4580 -4579 -4535 -4547 0
4580 -4579 -4523 -4535 0
-4580 4523 4535 0
-4580 4523 4547 0
-4580 4579 0
-4580 4535 4547 0
4581 -4518 4582 0
4581 4510 4518 -4582 0
4581 4515 -4582 0
4581 -4510 -4515 4582 0
-4581 -4510 -4515 -4582 0
-4581 4515 4518 4582 0
-4581 4510 4518 4582 0
-4581 -4515 -4518 -4582 0
-4582 4583 4610 0
-4582 -4583 -4610 0
4582 -4583 4610 0
4582 4583 -4610 0
-4583 -4584 -4597 0
-4583 4584 4597 0
4583 4584 -4597 0
4583 -4584 4597 0
4584 -4585 4588 0
4584 4585 -4588 0
-4584 4585 4588 0
-4584 -4585 -4588 0
-4585 -8368 -3030 0
-4585 -8368 -4586 0
-4585 8368 4586 4587 0
4585 8368 -4586 0
4585 -8368 3030 4586 0
4585 8368 -4587 0
4586 -8448 -4204 0
-4586 8448 0
-4586 4204 0
4587 -8366 -8397 -8407 0
-4587 8366 0
-4587 8397 0
-4587 8407 0
-4588 4589 4593 0
-4588 -4589 -4593 0
4588 -4589 4593 0
4588 4589 -4593 0
-4589 4590 4592 0
-4589 -8462 -3994 4590 0
4589 -4590 0
4589 8462 -4592 0
4589 3994 -4592 0
-4590 8462 4591 0
-4590 -8399 4591 0
-4590 3994 4591 0
4590 -4591 0
4590 8399 -8462 -3994 0
4591 8399 -8452 -2508 0
-4591 2508 0
-4591 8452 0
-4591 -8399 0
4592 -8399 -2507 0
4592 -8399 8452 0
-4592 8399 0
-4592 -8452 2507 0
-4593 4594 4596 0
-4593 -8389 -4042 4594 0
4593 -4594 0
4593 8389 -4596 0
4593 4042 -4596 0
-4594 -8407 4595 0
-4594 4042 4595 0
-4594 8389 4595 0
4594 -4595 0
4594 -8389 8407 -4042 0
4595 8407 -8458 -2472 0
-4595 2472 0
-4595 8458 0
-4595 -8407 0
4596 -8407 -2471 0
4596 -8407 8458 0
-4596 8407 0
-4596 -8458 2471 0
4597 -4598 4601 0
4597 4598 -4601 0
-4597 4598 4601 0
-4597 -4598 -4601 0
-4598 -8439 -3020 0
-4598 -8439 -4599 0
-4598 8439 4599 4600 0
4598 8439 -4599 0
4598 -8439 3020 4599 0
4598 8439 -4600 0
4599 -8456 -4027 0
-4599 8456 0
-4599 4027 0
4600 -8416 -8427 -8450 0
-4600 8416 0
-4600 8427 0
-4600 8450 0
-4601 4602 4606 0
-4601 -4602 -4606 0
4601 -4602 4606 0
4601 4602 -4606 0
-4602 4603 4605 0
-4602 -8441 -4033 4603 0
4602 -4603 0
4602 8441 -4605 0
4602 4033 -4605 0
-4603 2691 4033 0
-4603 4529 4604 0
-4603 4033 4529 0
-4603 2691 4604 0
4603 -4033 -4604 0
4603 -2691 -4529 0
4604 -8441 8454 0
-4604 8441 0
-4604 -8454 0
4605 8429 -8454 0
4605 -8454 -2690 0
-4605 8454 0
-4605 -8429 2690 0
-4606 4607 4608 0
-4606 -8411 -4037 4608 0
4606 -4608 0
4606 4037 -4607 0
4606 8411 -4607 0
4607 -8416 -8431 0
4607 -8416 8418 0
4607 -8416 -8454 0
-4607 8416 0
-4607 -8418 8431 8454 0
-4608 -8416 4609 0
-4608 4037 4609 0
-4608 8411 4609 0
4608 -4609 0
4608 -8411 8416 -4037 0
4609 -8418 -2611 0
-4609 8418 0
-4609 2611 0
-4610 -4611 -4621 0
-4610 4611 4621 0
4610 4611 -4621 0
4610 -4611 4621 0
4611 4612 -4618 0
4611 -4612 4618 0
-4611 -4612 -4618 0
-4611 4612 4618 0
-4612 4613 4615 0
-4612 -4613 -4615 0
4612 -4613 4615 0
4612 4613 -4615 0
4613 8391 -4614 0
4613 -8391 4614 0
-4613 -8391 -4614 0
-4613 8391 4614 0
4614 -8401 -8445 0
4614 8369 -8445 0
-4614 8445 0
-4614 -8369 8401 0
-4615 8367 4616 0
-4615 -8391 4616 0
-4615 2872 4616 0
4615 -4616 0
4615 -8367 8391 -2872 0
-4616 8391 4617 0
-4616 -2871 4617 0
-4616 8367 4617 0
4616 -4617 0
4616 -8367 -8391 2871 0
4617 -8404 -4003 0
-4617 8404 0
-4617 4003 0
4618 8460 -4619 0
4618 -8460 4619 4620 0
4618 8460 -2984 0
-4618 -8460 -4619 0
-4618 8460 2984 4619 0
-4618 -8460 -4620 0
4619 -8413 -4008 0
-4619 8413 0
-4619 4008 0
4620 -8434 2756 0
-4620 8434 0
-4620 -2756 0
4621 4622 -4624 0
-4621 -4622 0
-4621 4624 0
4622 -4549 -4553 -4623 0
4622 -4549 -4554 -4623 0
4622 -4553 -4554 -4623 0
-4622 4549 4553 0
-4622 4553 4554 0
-4622 4623 0
-4622 4549 4554 0
-4623 3036 3974 0
-4623 8364 3036 0
4623 -3036 0
4623 -8364 -3974 0
-4624 4549 4553 4623 0
-4624 4549 4554 4623 0
-4624 4553 4554 4623 0
4624 -4553 -4554 0
4624 -4549 -4553 0
4624 -4623 0
4624 -4549 -4554 0
-4625 4626 4746 0
-4625 4740 4746 0
4625 -4746 0
4625 -4626 -4740 0
-4626 4627 4735 0
4626 -4627 0
4626 -4735 0
-4627 -4628 -4686 0
-4627 4628 4686 0
4627 4628 -4686 0
4627 -4628 4686 0
4628 4629 -4667 0
4628 -4629 4667 0
-4628 -4629 -4667 0
-4628 4629 4667 0
4629 -4630 4653 0
4629 4630 -4653 0
-4629 4630 4653 0
-4629 -4630 -4653 0
-4630 4631 4642 0
-4630 -4631 -4642 0
4630 -4631 4642 0
4630 4631 -4642 0
-4631 4632 4636 0
-4631 4636 4640 0
-4631 4632 4640 0
4631 -4632 -4640 0
4631 -4636 -4640 0
4631 -4632 -4636 0
-4632 4633 4635 0
-4632 -8434 -4033 4633 0
4632 -4633 0
4632 4033 -4635 0
4632 8434 -4635 0
-4633 -8454 4634 0
-4633 4033 4634 0
-4633 8434 4634 0
4633 -4634 0
4633 -8434 8454 -4033 0
4634 -8441 8454 -2691 0
-4634 8441 0
-4634 -8454 0
-4634 2691 0
-4635 8454 0
-4635 -8441 2690 0
4635 8441 -8454 0
4635 -8454 -2690 0
-4636 4637 4639 0
-4636 -8429 -4037 4637 0
4636 -4637 0
4636 8429 -4639 0
4636 4037 -4639 0
-4637 2611 4037 0
-4637 8411 4638 0
-4637 2611 4638 0
-4637 8411 4037 0
4637 -8411 -2611 0
4637 -4037 -4638 0
4638 8416 -8429 0
-4638 -8416 0
-4638 8429 0
4639 8411 -8416 0
4639 -8416 -8431 0
4639 -8416 -8454 0
-4639 8416 0
-4639 -8411 8431 8454 0
-4640 8439 4641 0
-4640 -8439 -4641 0
4640 -8439 4641 0
4640 8439 -4641 0
-4641 2959 4027 0
-4641 8418 2959 0
4641 -2959 0
4641 -8418 -4027 0
-4642 4643 4647 0
-4642 4647 4651 0
-4642 4643 4651 0
4642 -4647 -4651 0
4642 -4643 -4647 0
4642 -4643 -4651 0
-4643 4644 4646 0
-4643 -8427 -3994 4644 0
4643 -4644 0
4643 8427 -4646 0
4643 3994 -4646 0
-4644 8427 4645 0
-4644 -8399 4645 0
-4644 3994 4645 0
4644 -4645 0
4644 8399 -8427 -3994 0
4645 8399 -8462 -2508 0
-4645 2508 0
-4645 8462 0
-4645 -8399 0
4646 -8399 -2507 0
4646 -8399 8462 0
-4646 8399 0
-4646 -8462 2507 0
-4647 4648 4650 0
-4647 -8452 -4042 4648 0
4647 -4648 0
4647 8452 -4650 0
4647 4042 -4650 0
-4648 8452 4649 0
-4648 -8407 4649 0
-4648 4042 4649 0
4648 -4649 0
4648 8407 -8452 -4042 0
4649 -8389 8407 -2472 0
-4649 8389 0
-4649 -8407 0
-4649 2472 0
4650 -8399 -8407 0
4650 -8407 -8437 0
4650 8389 -8407 0
-4650 8407 0
-4650 -8389 8399 8437 0
4651 -8368 4652 0
4651 8368 -4652 0
-4651 8368 4652 0
-4651 -8368 -4652 0
-4652 2969 4204 0
-4652 8458 2969 0
4652 -2969 0
4652 -8458 -4204 0
-4653 4654 4666 0
-4653 4658 4666 0
4653 -4666 0
4653 -4654 -4658 0
-4654 4618 4655 4656 0
-4654 4655 4656 4657 0
4654 -4656 0
4654 -4655 0
4654 -4618 -4657 0
-4655 4614 0
-4655 -8391 -4615 0
-4655 8391 4615 0
4655 8391 -4614 -4615 0
4655 -8391 -4614 4615 0
-4656 2975 3974 0
-4656 8397 2975 0
4656 -2975 0
4656 -8397 -3974 0
-4657 -8391 4614 -4615 0
-4657 8391 4614 4615 0
4657 -4614 0
4657 -8391 4615 0
4657 8391 -4615 0
-4658 -4659 -4662 0
-4658 4659 4662 0
4658 4659 -4662 0
4658 -4659 4662 0
4659 8460 -4660 0
4659 -8460 4660 4661 0
4659 8460 -2932 0
-4659 -8460 -4660 0
-4659 8460 2932 4660 0
-4659 -8460 -4661 0
4660 -8367 -4008 0
-4660 8367 0
-4660 4008 0
4661 8391 -8413 8425 0
-4661 -8391 0
-4661 8413 0
-4661 -8425 0
4662 -8391 8445 4663 0
4662 -8391 -8445 -4663 0
4662 8391 -8445 4663 0
4662 8391 8445 -4663 0
-4662 -8391 8445 -4663 0
-4662 -8391 -8445 4663 0
-4662 8391 -8445 -4663 0
-4662 8391 8445 4663 0
-4663 8369 4664 4665 0
-4663 4003 4664 4665 0
4663 -4665 0
4663 -4664 0
4663 -8369 -4003 0
4664 -8365 -8404 -4022 0
-4664 8365 0
-4664 8404 0
-4664 4022 0
4665 8365 -8391 -8404 8445 0
-4665 -8365 0
-4665 -8445 0
-4665 8404 0
-4665 8391 0
4666 -4618 -4656 -4657 0
4666 -4655 -4656 -4657 0
-4666 4657 0
-4666 4656 0
-4666 4618 4655 0
4667 4670 -4684 0
4667 -4668 4670 -4685 0
-4667 -4670 0
-4667 4684 4685 0
-4667 4668 4684 0
4668 4658 -4669 0
4668 -4658 4669 0
-4668 -4658 -4669 0
-4668 4658 4669 0
4669 -4654 4666 0
-4669 4654 0
-4669 -4666 0
4670 -4676 -4678 0
4670 -4671 -4683 0
4670 -4671 -4678 0
4670 -4676 -4683 0
-4670 4678 4683 0
-4670 4671 4676 0
4671 -4672 -4674 0
-4671 4672 0
-4671 4674 0
-4672 -4673 -4651 0
-4672 4673 4651 0
4672 4673 -4651 0
4672 -4673 4651 0
-4673 4643 4647 0
-4673 -4643 -4647 0
4673 -4643 4647 0
4673 4643 -4647 0
-4674 4675 4640 0
-4674 -4675 -4640 0
4674 -4675 4640 0
4674 4675 -4640 0
-4675 4632 4636 0
-4675 -4632 -4636 0
4675 -4632 4636 0
4675 4632 -4636 0
4676 -4668 -4677 0
-4676 4668 0
-4676 4677 0
4677 -4672 4674 0
4677 4672 -4674 0
-4677 4672 4674 0
-4677 -4672 -4674 0
4678 -4679 -4680 0
-4678 4679 0
-4678 4680 0
-4679 4622 4624 0
-4679 4611 4622 0
4679 -4622 0
4679 -4611 -4624 0
-4680 -4681 -4682 0
-4680 4681 4682 0
4680 4681 -4682 0
4680 -4681 4682 0
4681 -4598 -4606 0
4681 -4602 -4606 0
4681 -4598 -4602 0
-4681 4598 4602 0
-4681 4602 4606 0
-4681 4598 4606 0
4682 -4585 -4593 0
4682 -4589 -4593 0
4682 -4585 -4589 0
-4682 4585 4589 0
-4682 4589 4593 0
-4682 4585 4593 0
4683 -4681 -4682 0
-4683 4681 0
-4683 4682 0
-4684 4671 4678 4683 0
4684 -4671 0
4684 -4683 0
4684 -4678 0
-4685 4672 4674 0
-4685 -4672 -4674 0
4685 -4672 4674 0
4685 4672 -4674 0
4686 4687 -4734 0
-4686 -4687 0
-4686 4734 0
4687 -4688 -4690 -4733 0
4687 -4689 -4690 -4733 0
4687 -4688 -4689 -4690 0
-4687 4688 4689 0
-4687 4689 4733 0
-4687 4690 0
-4687 4688 4733 0
-4688 4597 4610 0
-4688 4584 4597 0
-4688 4584 4610 0
4688 -4584 -4597 0
4688 -4597 -4610 0
4688 -4584 -4610 0
-4689 4679 4680 0
-4689 -4679 -4680 0
4689 -4679 4680 0
4689 4679 -4680 0
-4690 4691 4720 0
-4690 -4691 -4720 0
4690 -4691 4720 0
4690 4691 -4720 0
-4691 4692 4707 0
-4691 -4692 -4707 0
4691 -4692 4707 0
4691 4692 -4707 0
4692 -4693 4696 0
4692 4693 -4696 0
-4692 4693 4696 0
-4692 -4693 -4696 0
4693 8368 -4694 0
4693 -8368 4694 4695 0
4693 8368 -2918 0
-4693 -8368 -4694 0
-4693 8368 2918 4694 0
-4693 -8368 -4695 0
4694 -8389 -4204 0
-4694 8389 0
-4694 4204 0
4695 -8458 4470 0
-4695 8458 0
-4695 -4470 0
-4696 -4697 -4702 0
-4696 4697 4702 0
4696 4697 -4702 0
4696 -4697 4702 0
4697 -4698 4699 0
4697 -8462 -4042 4699 0
-4697 -4699 0
-4697 4042 4698 0
-4697 8462 4698 0
-4698 8407 2472 0
-4698 8407 8452 0
4698 -8407 0
4698 -8452 -2472 0
-4699 4700 4042 0
-4699 8452 4701 0
-4699 4700 4701 0
-4699 8452 4042 0
4699 -8452 -4700 0
4699 -4042 -4701 0
4700 -8407 2471 0
-4700 8407 0
-4700 -2471 0
4701 -8407 -8462 0
-4701 8407 0
-4701 8462 0
4702 8399 -4703 4705 0
4702 -8399 4704 4705 0
4702 8399 -4704 4705 0
-4702 -4705 0
-4702 -8399 -4704 0
-4702 8399 4703 4704 0
4703 -8427 -2508 0
-4703 8427 0
-4703 2508 0
4704 -8456 -3994 0
-4704 8456 0
-4704 3994 0
4705 -8427 -4706 0
-4705 8427 0
-4705 4706 0
4706 -8399 2507 0
-4706 8399 0
-4706 -2507 0
-4707 4708 4711 0
-4707 -4708 -4711 0
4707 -4708 4711 0
4707 4708 -4711 0
4708 8439 -4709 0
4708 -8439 4709 4710 0
4708 8439 -2908 0
-4708 -8439 -4709 0
-4708 8439 2908 4709 0
-4708 -8439 -4710 0
4709 -8411 -4027 0
-4709 8411 0
-4709 4027 0
4710 -8418 4056 0
-4710 8418 0
-4710 -4056 0
-4711 -4712 -4716 0
-4711 4712 4716 0
4711 4712 -4716 0
4711 -4712 4716 0
4712 4713 -4715 0
4712 -8413 -4033 4713 0
-4712 -4713 0
-4712 8413 4715 0
-4712 4033 4715 0
4713 -2690 2691 -4714 0
4713 -8434 2691 -4714 0
-4713 4714 0
-4713 -2691 0
-4713 8434 2690 0
4714 -8413 -8454 0
4714 -8454 2690 0
-4714 8454 0
-4714 8413 -2690 0
-4715 8454 2691 0
-4715 8434 8454 0
4715 -8454 0
4715 -8434 -2691 0
4716 4717 4718 -4719 0
4716 8416 -4717 4718 0
4716 -8416 4717 4718 0
-4716 -4718 0
-4716 -8416 -4717 0
-4716 8416 4717 4719 0
4717 -8441 -4037 0
-4717 8441 0
-4717 4037 0
4718 -8429 -2609 0
-4718 8429 0
-4718 2609 0
4719 -8429 -2612 0
-4719 8429 0
-4719 2612 0
-4720 -4721 -4729 0
-4720 4721 4729 0
4720 4721 -4729 0
4720 -4721 4729 0
-4721 -4722 -4726 0
-4721 4722 4726 0
4721 4722 -4726 0
4721 -4722 4726 0
-4722 -8460 -4724 0
-4722 8460 4723 4724 0
-4722 -8460 -4725 0
4722 8460 -4724 0
4722 -8460 4724 4725 0
4722 8460 -4723 0
4723 -8367 -2757 0
-4723 8367 0
-4723 2757 0
4724 -8404 -4008 0
-4724 8404 0
-4724 4008 0
4725 -8367 2756 0
-4725 8367 0
-4725 -2756 0
4726 -4727 4728 0
-4726 4727 0
-4726 -4728 0
4727 -2804 -2871 0
4727 8369 -2804 0
-4727 2804 0
-4727 -8369 2871 0
-4728 2805 2872 0
-4728 8369 2805 0
4728 -2805 0
4728 -8369 -2872 0
4729 4730 -4732 0
4729 -4659 -4730 4732 0
4729 -4731 4732 0
4729 4659 4731 -4732 0
-4729 -4730 -4731 -4732 0
-4729 4659 4731 4732 0
-4729 -4659 -4730 -4732 0
-4729 4730 4731 4732 0
-4730 -8391 8445 -4663 0
-4730 8391 8445 4663 0
4730 -8445 0
4730 -8391 4663 0
4730 8391 -4663 0
-4731 8445 0
-4731 -8391 -4663 0
-4731 8391 4663 0
4731 8391 -8445 -4663 0
4731 -8391 -8445 4663 0
-4732 2924 3974 0
-4732 8448 2924 0
4732 -2924 0
4732 -8448 -3974 0
-4733 4573 4575 0
-4733 4575 4576 0
-4733 4573 4576 0
4733 -4575 -4576 0
4733 -4573 -4575 0
4733 -4573 -4576 0
-4734 4688 4690 4733 0
-4734 4688 4689 4690 0
-4734 4689 4690 4733 0
4734 -4689 -4733 0
4734 -4688 -4689 0
4734 -4690 0
4734 -4688 -4733 0
-4735 4736 4739 0
-4735 4738 4739 0
-4735 4736 4738 0
4735 -4736 -4738 0
4735 -4738 -4739 0
4735 -4736 -4739 0
4736 -4689 4737 0
4736 4689 -4737 0
-4736 4689 4737 0
-4736 -4689 -4737 0
-4737 4688 4733 0
-4737 -4688 -4733 0
4737 -4688 4733 0
4737 4688 -4733 0
4738 4668 -4677 0
4738 -4668 4677 0
-4738 -4668 -4677 0
-4738 4668 4677 0
4739 -4578 -4580 0
4739 -4572 -4578 0
-4739 4578 0
-4739 4572 4580 0
-4740 4741 4743 0
4740 -4741 0
4740 -4743 0
-4741 4736 4742 0
-4741 -4736 -4742 0
4741 -4736 4742 0
4741 4736 -4742 0
-4742 -4738 -4739 0
-4742 4738 4739 0
4742 4738 -4739 0
4742 -4738 4739 0
-4743 4744 4745 0
-4743 4571 4744 0
4743 -4744 0
4743 -4571 -4745 0
4744 -4510 -4515 -4582 0
4744 -4515 -4518 -4582 0
-4744 4582 0
-4744 4515 0
-4744 4510 4518 0
-4745 4510 4518 4582 0
-4745 4515 4518 4582 0
4745 -4582 0
4745 -4518 0
4745 -4510 -4515 0
4746 -4627 -4735 0
-4746 4627 0
-4746 4735 0
-4747 4746 4748 4755 0
4747 -4755 0
4747 -4748 0
4747 -4746 0
4748 -4749 -4754 0
-4748 4749 0
-4748 4754 0
4749 -4750 4752 0
-4749 4750 0
-4749 -4752 0
-4750 4570 4751 0
4750 -4570 0
4750 -4751 0
-4751 -4571 -4581 0
-4751 4571 4581 0
4751 4571 -4581 0
4751 -4571 4581 0
4752 -4570 -4753 0
-4752 4570 0
-4752 4753 0
4753 4571 -4581 0
4753 -4571 4581 0
-4753 -4571 -4581 0
-4753 4571 4581 0
4754 -4449 -4563 0
4754 -4449 -4565 0
-4754 4449 0
-4754 4563 4565 0
-4755 4752 4756 0
4755 -4752 0
4755 -4756 0
4756 -4741 -4743 0
-4756 4741 0
-4756 4743 0
4757 -4758 4898 0
-4757 4758 0
-4757 -4898 0
4758 -4759 -4885 -4894 0
-4758 4759 0
-4758 4894 0
-4758 4885 0
-4759 -4760 -4843 0
-4759 4760 4843 0
4759 4760 -4843 0
4759 -4760 4843 0
4760 -4761 -4771 0
4760 -4771 -4805 0
4760 -4761 -4805 0
-4760 4771 4805 0
-4760 4761 4771 0
-4760 4761 4805 0
4761 -4762 -4764 0
4761 -4763 -4764 0
4761 -4762 -4763 0
-4761 4762 4763 0
-4761 4763 4764 0
-4761 4762 4764 0
-4762 4692 4707 0
-4762 4707 4720 0
-4762 4692 4720 0
4762 -4707 -4720 0
4762 -4692 -4707 0
4762 -4692 -4720 0
-4763 4631 4642 0
-4763 4642 4653 0
-4763 4631 4653 0
4763 -4631 -4653 0
4763 -4642 -4653 0
4763 -4631 -4642 0
-4764 4765 4768 0
-4764 -4765 -4768 0
4764 -4765 4768 0
4764 4765 -4768 0
-4765 4721 4766 0
-4765 4766 4767 0
4765 -4766 0
4765 -4721 -4767 0
4766 -4659 -4730 -4732 0
4766 -4730 -4731 -4732 0
-4766 4732 0
-4766 4730 0
-4766 4659 4731 0
-4767 4659 4731 4732 0
-4767 4730 4731 4732 0
4767 -4732 0
4767 -4731 0
4767 -4659 -4730 0
-4768 4769 4770 0
-4768 -4769 -4770 0
4768 -4769 4770 0
4768 4769 -4770 0
4769 -4693 -4697 0
4769 -4697 -4702 0
4769 -4693 -4702 0
-4769 4693 4702 0
-4769 4697 4702 0
-4769 4693 4697 0
-4770 4708 4716 0
-4770 4712 4716 0
-4770 4708 4712 0
4770 -4708 -4712 0
4770 -4712 -4716 0
4770 -4708 -4716 0
4771 4772 -4791 0
4771 -4772 4791 0
-4771 -4772 -4791 0
-4771 4772 4791 0
4772 -4773 4777 0
4772 4773 -4777 0
-4772 4773 4777 0
-4772 -4773 -4777 0
-4773 4774 4775 0
-4773 -4774 -4775 0
4773 -4774 4775 0
4773 4774 -4775 0
-4774 2788 3974 0
-4774 8389 2788 0
4774 -2788 0
4774 -8389 -3974 0
-4775 8368 4776 0
-4775 -8368 -4776 0
4775 -8368 4776 0
4775 8368 -4776 0
-4776 2791 4204 0
-4776 8462 2791 0
4776 -2791 0
4776 -8462 -4204 0
-4777 4778 4781 0
-4777 -4778 -4781 0
4777 -4778 4781 0
4777 4778 -4781 0
-4778 8407 4779 0
-4778 -8407 -4779 0
4778 -8407 4779 0
4778 8407 -4779 0
-4779 8427 8456 0
-4779 4042 4780 0
-4779 8456 4780 0
-4779 8427 4042 0
4779 -8456 -4042 0
4779 -8427 -4780 0
-4780 -8399 -8407 0
-4780 8407 8437 0
-4780 8399 -8437 0
4780 8399 -8407 8437 0
4780 -8399 8407 -8437 0
-4781 4782 4787 0
-4781 -4782 -4787 0
4781 -4782 4787 0
4781 4782 -4787 0
-4782 4783 4786 0
-4782 -8441 -4027 4783 0
4782 -4783 0
4782 8441 -4786 0
4782 4027 -4786 0
-4783 4784 4027 0
-4783 8429 4785 0
-4783 4784 4785 0
-4783 8429 4027 0
4783 -8429 -4784 0
4783 -4027 -4785 0
4784 -8416 8439 -8450 0
-4784 8416 0
-4784 -8439 0
-4784 8450 0
4785 8439 -8441 0
-4785 -8439 0
-4785 8441 0
4786 -8416 -8439 0
4786 8429 -8439 0
4786 -8439 -8450 0
-4786 8439 0
-4786 8416 -8429 8450 0
-4787 4788 4790 0
-4787 -8411 -3994 4788 0
4787 -4788 0
4787 8411 -4790 0
4787 3994 -4790 0
-4788 8411 4789 0
-4788 -8399 4789 0
-4788 3994 4789 0
4788 -4789 0
4788 8399 -8411 -3994 0
4789 8399 -8418 -2508 0
-4789 2508 0
-4789 8418 0
-4789 -8399 0
4790 -8399 -2507 0
4790 -8399 8418 0
-4790 8399 0
-4790 -8418 2507 0
4791 -4792 4795 0
4791 4792 -4795 0
-4791 4792 4795 0
-4791 -4792 -4795 0
-4792 2804 2805 0
-4792 2805 -4793 0
4792 -2805 0
4792 -2804 4793 0
4793 -8460 4794 0
4793 8460 -4794 0
-4793 8460 4794 0
-4793 -8460 -4794 0
-4794 8369 8404 0
-4794 4008 4010 0
-4794 8369 4010 0
-4794 8404 4008 0
4794 -8369 -4008 0
4794 -8404 -4010 0
-4795 -4796 -4798 0
-4795 4796 4798 0
4795 4796 -4798 0
4795 -4796 4798 0
4796 -8416 4797 0
4796 8416 -4797 0
-4796 8416 4797 0
-4796 -8416 -4797 0
-4797 8413 8434 0
-4797 4037 4253 0
-4797 8413 4253 0
-4797 8434 4037 0
4797 -8413 -4037 0
4797 -8434 -4253 0
4798 -4799 4800 0
4798 4799 -4800 0
-4798 4799 4800 0
-4798 -4799 -4800 0
-4799 8460 2757 0
-4799 8369 8460 0
-4799 -8369 -8460 2756 0
4799 -8460 -2756 0
4799 -8369 8460 -2757 0
4799 8369 -8460 0
-4800 4801 4804 0
-4800 -8404 -4033 4801 0
4800 -4801 0
4800 8404 -4804 0
4800 4033 -4804 0
-4801 2691 4802 0
-4801 4033 4803 0
-4801 2691 4033 0
-4801 4802 4803 0
4801 -2691 -4803 0
4801 -4033 -4802 0
4802 -8404 8454 0
-4802 8404 0
-4802 -8454 0
4803 -8367 8454 0
-4803 8367 0
-4803 -8454 0
4804 8367 -8454 0
4804 -8454 -2690 0
-4804 8454 0
-4804 -8367 2690 0
-4805 4806 4835 0
-4805 -4806 -4835 0
4805 -4806 4835 0
4805 4806 -4835 0
-4806 4807 4813 0
-4806 -4807 -4813 0
4806 -4807 4813 0
4806 4807 -4813 0
-4807 4808 4810 0
-4807 4808 4811 0
4807 -4808 0
4807 -4810 -4811 0
4808 -4722 -4727 -4809 0
4808 -4727 -4728 -4809 0
-4808 4727 0
-4808 4809 0
-4808 4722 4728 0
-4809 2866 3974 0
-4809 8458 2866 0
4809 -2866 0
4809 -8458 -3974 0
4810 -4728 4809 0
4810 4722 4728 -4809 0
4810 4727 -4809 0
4810 -4722 -4727 4809 0
-4810 4722 4728 4809 0
-4810 -4727 -4728 -4809 0
-4810 -4722 -4727 -4809 0
-4810 4727 4728 4809 0
-4811 4793 4812 0
-4811 -4793 -4812 0
4811 -4793 4812 0
4811 4793 -4812 0
-4812 -8391 -8445 0
-4812 8391 8445 0
4812 8391 -8445 0
4812 -8391 8445 0
-4813 4814 4824 0
-4813 -4814 -4824 0
4813 -4814 4824 0
4813 4814 -4824 0
-4814 4815 4818 0
-4814 4818 4822 0
-4814 4815 4822 0
4814 -4818 -4822 0
4814 -4815 -4818 0
4814 -4815 -4822 0
-4815 4816 4817 0
-4815 -8367 -4033 4816 0
4815 -4816 0
4815 8367 -4817 0
4815 4033 -4817 0
-4816 4212 4033 0
-4816 8413 4803 0
-4816 4212 4803 0
-4816 8413 4033 0
4816 -8413 -4212 0
4816 -4033 -4803 0
4817 8413 -8454 0
4817 -8454 -2690 0
-4817 8454 0
-4817 -8413 2690 0
-4818 4819 4820 0
-4818 -8434 -4037 4820 0
4818 -4820 0
4818 4037 -4819 0
4818 8434 -4819 0
4819 -8416 -8431 0
4819 -8416 8441 0
4819 -8416 -8454 0
-4819 8416 0
-4819 8431 -8441 8454 0
-4820 8434 4821 0
-4820 -8416 4821 0
-4820 4037 4821 0
4820 -4821 0
4820 8416 -8434 -4037 0
4821 -8441 -2611 0
-4821 8441 0
-4821 2611 0
4822 -8439 4823 0
4822 8439 -4823 0
-4822 8439 4823 0
-4822 -8439 -4823 0
-4823 2849 4027 0
-4823 8429 2849 0
4823 -2849 0
4823 -8429 -4027 0
-4824 4829 4833 0
-4824 4825 4833 0
-4824 4825 4829 0
4824 -4825 -4833 0
4824 -4825 -4829 0
4824 -4829 -4833 0
4825 4826 -4828 0
4825 -8427 -4042 4826 0
-4825 -4826 0
-4825 8427 4828 0
-4825 4042 4828 0
-4826 8427 4827 0
-4826 4042 4827 0
-4826 8407 4827 0
4826 -4827 0
4826 -8407 -8427 -4042 0
4827 -8407 -8462 2471 0
-4827 8407 0
-4827 8462 0
-4827 -2471 0
-4828 8407 2472 0
-4828 8407 8462 0
4828 -8407 0
4828 -8462 -2472 0
-4829 4830 4831 0
-4829 -8418 -3994 4831 0
4829 -4831 0
4829 3994 -4830 0
4829 8418 -4830 0
4830 -8399 -2507 0
4830 -8399 8456 0
-4830 8399 0
-4830 -8456 2507 0
-4831 4474 3994 0
-4831 8456 4832 0
-4831 4474 4832 0
-4831 8456 3994 0
4831 -8456 -4474 0
4831 -3994 -4832 0
4832 8399 -8418 0
-4832 -8399 0
-4832 8418 0
4833 -8368 4834 0
4833 8368 -4834 0
-4833 8368 4834 0
-4833 -8368 -4834 0
-4834 2860 4204 0
-4834 8452 2860 0
4834 -2860 0
4834 -8452 -4204 0
-4835 4836 4842 0
-4835 -4836 -4842 0
4835 -4836 4842 0
4835 4836 -4842 0
4836 -4839 -4841 0
4836 -4837 -4839 0
4836 -4837 -4841 0
-4836 4837 4839 0
-4836 4839 4841 0
-4836 4837 4841 0
4837 4838 -4833 0
4837 -4838 4833 0
-4837 -4838 -4833 0
-4837 4838 4833 0
-4838 4825 4829 0
-4838 -4825 -4829 0
4838 -4825 4829 0
4838 4825 -4829 0
-4839 -4840 -4822 0
-4839 4840 4822 0
4839 4840 -4822 0
4839 -4840 4822 0
-4840 4815 4818 0
-4840 -4815 -4818 0
4840 -4815 4818 0
4840 4815 -4818 0
-4841 4810 4811 0
-4841 -4810 -4811 0
4841 -4810 4811 0
4841 4810 -4811 0
-4842 4765 4770 0
-4842 4765 4769 0
-4842 4769 4770 0
4842 -4769 -4770 0
4842 -4765 -4770 0
4842 -4765 -4769 0
4843 -4844 4853 0
4843 4844 -4853 0
-4843 4844 4853 0
-4843 -4844 -4853 0
4844 4845 -4850 0
4844 -4845 4850 0
-4844 -4845 -4850 0
-4844 4845 4850 0
-4845 4846 4847 0
-4845 -4846 -4847 0
4845 -4846 4847 0
4845 4846 -4847 0
4846 4792 -4795 0
-4846 -4792 0
-4846 4795 0
-4847 4848 4849 0
-4847 -4848 -4849 0
4847 -4848 4849 0
4847 4848 -4849 0
-4848 4774 4775 0
4848 -4774 0
4848 -4775 0
-4849 4778 4782 0
-4849 4782 4787 0
-4849 4778 4787 0
4849 -4778 -4787 0
4849 -4782 -4787 0
4849 -4778 -4782 0
4850 4851 -4852 0
4850 -4851 4852 0
-4850 -4851 -4852 0
-4850 4851 4852 0
-4851 4807 4814 0
-4851 4814 4824 0
-4851 4807 4824 0
4851 -4807 -4824 0
4851 -4814 -4824 0
4851 -4807 -4814 0
4852 -4773 4777 0
4852 4777 -4791 0
4852 -4773 -4791 0
-4852 -4777 4791 0
-4852 4773 -4777 0
-4852 4773 4791 0
-4853 4854 4884 0
4853 -4854 0
4853 -4884 0
4854 -4806 -4836 4855 0
4854 -4806 -4842 4855 0
4854 -4836 -4842 4855 0
-4854 4806 4842 0
-4854 4806 4836 0
-4854 -4855 0
-4854 4836 4842 0
-4855 -4856 -4863 0
-4855 4856 4863 0
4855 4856 -4863 0
4855 -4856 4863 0
-4856 4857 4859 0
-4856 -4857 -4859 0
4856 -4857 4859 0
4856 4857 -4859 0
-4857 4858 4798 0
-4857 4796 4858 0
4857 -4858 0
4857 -4796 -4798 0
4858 -4799 -4800 0
-4858 4799 0
-4858 4800 0
-4859 -4860 -4861 0
-4859 4860 4861 0
4859 4860 -4861 0
4859 -4860 4861 0
-4860 2748 3974 0
-4860 8452 2748 0
4860 -2748 0
4860 -8452 -3974 0
4861 -8368 4862 0
4861 8368 -4862 0
-4861 8368 4862 0
-4861 -8368 -4862 0
-4862 2751 4204 0
-4862 8427 2751 0
4862 -2751 0
4862 -8427 -4204 0
4863 4864 -4876 0
4863 -4864 4876 0
-4863 -4864 -4876 0
-4863 4864 4876 0
-4864 4865 4867 0
-4864 -4865 -4867 0
4864 -4865 4867 0
4864 4865 -4867 0
-4865 8407 4866 0
-4865 -8407 -4866 0
4865 -8407 4866 0
4865 8407 -4866 0
-4866 8418 8456 0
-4866 4042 4780 0
-4866 8418 4780 0
-4866 8456 4042 0
4866 -8418 -4042 0
4866 -8456 -4780 0
-4867 4868 4872 0
-4867 -4868 -4872 0
4867 -4868 4872 0
4867 4868 -4872 0
-4868 4869 4871 0
-4868 -8434 -4027 4869 0
4868 -4869 0
4868 8434 -4871 0
4868 4027 -4871 0
-4869 -8439 4870 0
-4869 4027 4870 0
-4869 8434 4870 0
4869 -4870 0
4869 -8434 8439 -4027 0
4870 -8416 8439 -8441 -8450 0
-4870 8450 0
-4870 8416 0
-4870 8441 0
-4870 -8439 0
4871 -8439 -4056 0
4871 -8439 8441 0
-4871 8439 0
-4871 -8441 4056 0
-4872 8399 4874 4875 0
-4872 -4873 4874 4875 0
4872 -4875 0
4872 -4874 0
4872 -8399 4873 0
-4873 -2507 3994 0
-4873 8411 8429 0
-4873 8411 3994 0
-4873 8429 -2507 0
4873 -8411 2507 0
4873 -8429 -3994 0
4874 8399 -8429 -3994 0
-4874 -8399 0
-4874 8429 0
-4874 3994 0
4875 8399 -8411 -2508 0
-4875 2508 0
-4875 8411 0
-4875 -8399 0
4876 4877 -4882 0
4876 -4877 4882 0
-4876 -4877 -4882 0
-4876 4877 4882 0
-4877 8460 4878 0
-4877 -8460 -4878 0
4877 -8460 4878 0
4877 8460 -4878 0
-4878 4879 4881 0
-4878 -8369 -4033 4879 0
4878 -4879 0
4878 8369 -4881 0
4878 4033 -4881 0
-4879 2691 4033 0
-4879 4802 4880 0
-4879 4033 4802 0
-4879 2691 4880 0
4879 -4033 -4880 0
4879 -2691 -4802 0
4880 -8369 8454 0
-4880 8369 0
-4880 -8454 0
4881 8404 -8454 0
4881 -8454 -2690 0
-4881 8454 0
-4881 -8404 2690 0
4882 -8416 4883 0
4882 8416 -4883 0
-4882 8416 4883 0
-4882 -8416 -4883 0
-4883 2734 4037 0
-4883 8367 2734 0
4883 -2734 0
4883 -8367 -4037 0
4884 4806 4836 -4855 0
4884 4806 4842 -4855 0
4884 4836 4842 -4855 0
-4884 -4836 -4842 0
-4884 -4806 -4842 0
-4884 4855 0
-4884 -4806 -4836 0
-4885 4886 4887 0
-4885 -4886 -4887 0
4885 -4886 4887 0
4885 4886 -4887 0
-4886 4687 4734 0
-4886 4628 4687 0
4886 -4687 0
4886 -4628 -4734 0
-4887 -4888 -4892 0
-4887 4888 4892 0
4887 4888 -4892 0
4887 -4888 4892 0
-4888 4889 4891 0
-4888 -4889 -4891 0
4888 -4889 4891 0
4888 4889 -4891 0
4889 4841 -4890 0
4889 -4841 4890 0
-4889 -4841 -4890 0
-4889 4841 4890 0
4890 -4837 4839 0
4890 4837 -4839 0
-4890 4837 4839 0
-4890 -4837 -4839 0
-4891 4629 4670 0
-4891 4676 4670 4684 0
4891 -4670 0
4891 -4629 -4684 0
4891 -4629 -4676 0
4892 -4764 4893 0
4892 4764 -4893 0
-4892 4764 4893 0
-4892 -4764 -4893 0
-4893 4762 4763 0
-4893 -4762 -4763 0
4893 -4762 4763 0
4893 4762 -4763 0
-4894 4895 4896 0
-4894 -4895 -4896 0
4894 -4895 4896 0
4894 4895 -4896 0
-4895 4891 4892 0
-4895 4889 4892 0
-4895 4889 4891 0
4895 -4889 -4892 0
4895 -4889 -4891 0
4895 -4891 -4892 0
-4896 4805 4897 0
-4896 -4805 -4897 0
4896 -4805 4897 0
4896 4805 -4897 0
-4897 -4761 -4771 0
-4897 4761 4771 0
4897 4761 -4771 0
4897 -4761 4771 0
-4898 4899 4977 5038 0
4898 -4899 0
4898 -4977 0
4898 -5038 0
-4899 -4940 4976 0
-4899 4900 4976 0
4899 -4976 0
4899 -4900 4940 0
4900 -4901 -4939 0
-4900 4901 0
-4900 4939 0
4901 -4902 4911 0
4901 4902 -4911 0
-4901 4902 4911 0
-4901 -4902 -4911 0
-4902 4903 4908 0
-4902 -4903 -4908 0
4902 -4903 4908 0
4902 4903 -4908 0
4903 4904 -4905 0
4903 -4904 4905 0
-4903 -4904 -4905 0
-4903 4904 4905 0
-4904 4857 4860 0
-4904 4860 4861 0
-4904 4857 4861 0
4904 -4860 -4861 0
4904 -4857 -4860 0
4904 -4857 -4861 0
4905 -4906 4907 0
4905 4906 -4907 0
-4905 4906 4907 0
-4905 -4906 -4907 0
-4906 4865 4868 0
-4906 4868 4872 0
-4906 4865 4872 0
4906 -4865 -4872 0
4906 -4868 -4872 0
4906 -4865 -4868 0
-4907 -8460 4878 0
-4907 4878 4882 0
-4907 -8460 4882 0
4907 -4878 -4882 0
4907 8460 -4878 0
4907 8460 -4882 0
-4908 4909 4910 0
-4908 -4909 -4910 0
4908 -4909 4910 0
4908 4909 -4910 0
-4909 4846 4848 0
-4909 4848 4849 0
-4909 4846 4849 0
4909 -4848 -4849 0
4909 -4846 -4848 0
4909 -4846 -4849 0
-4910 4856 4864 0
-4910 4864 -4876 0
-4910 4856 -4876 0
4910 -4856 4876 0
4910 -4864 4876 0
4910 -4856 -4864 0
-4911 4912 4938 0
4911 -4912 0
4911 -4938 0
4912 -4845 -4851 4913 0
4912 -4845 4852 4913 0
4912 -4851 4852 4913 0
-4912 4845 4851 0
-4912 4851 -4852 0
-4912 -4913 0
-4912 4845 -4852 0
4913 -4914 4926 0
4913 4914 -4926 0
-4913 4914 4926 0
-4913 -4914 -4926 0
-4914 4915 4917 0
-4914 -4915 -4917 0
4914 -4915 4917 0
4914 4915 -4917 0
4915 -8368 4916 0
4915 8368 -4916 0
-4915 8368 4916 0
-4915 -8368 -4916 0
-4916 2705 4204 0
-4916 8456 2705 0
4916 -2705 0
4916 -8456 -4204 0
-4917 -4918 -4922 0
-4917 4918 4922 0
4917 4918 -4922 0
4917 -4918 4922 0
4918 4919 -4921 0
-4918 -4919 0
-4918 4921 0
4919 -8399 -4920 0
4919 -8399 -8429 2507 0
-4919 8399 0
-4919 8429 4920 0
-4919 -2507 4920 0
4920 -8441 -3994 0
-4920 8441 0
-4920 3994 0
-4921 8399 8429 4920 0
-4921 8399 4045 4920 0
4921 -8399 0
4921 -4920 0
4921 -8429 -4045 0
4922 8407 -4925 0
4922 -8407 4923 4924 0
4922 8407 -4923 0
-4922 -8407 -4923 0
-4922 -8407 -4924 0
-4922 8407 4923 4925 0
4923 -8411 -4042 0
-4923 8411 0
-4923 4042 0
4924 -8418 2471 0
-4924 8418 0
-4924 -2471 0
4925 -8418 -4780 0
-4925 8418 0
-4925 4780 0
-4926 4927 4937 0
-4926 -4927 -4937 0
4926 -4927 4937 0
4926 4927 -4937 0
-4927 4928 4931 0
-4927 -4928 -4931 0
4927 -4928 4931 0
4927 4928 -4931 0
4928 8439 -4929 0
4928 -8439 4929 4930 0
4928 8439 -2696 0
-4928 -8439 -4929 0
-4928 8439 2696 4929 0
-4928 -8439 -4930 0
4929 -8413 -4027 0
-4929 8413 0
-4929 4027 0
4930 -8434 4056 0
-4930 8434 0
-4930 -4056 0
-4931 4932 4933 0
-4931 -4932 -4933 0
4931 -4932 4933 0
4931 4932 -4933 0
-4932 8454 2691 0
-4932 8369 8454 0
-4932 -8369 -8454 2690 0
4932 -8454 -2690 0
4932 -8369 8454 -2691 0
4932 8369 -8454 0
-4933 4934 4935 0
-4933 -8404 -4037 4935 0
4933 -4935 0
4933 4037 -4934 0
4933 8404 -4934 0
4934 8367 -8416 0
4934 -8416 -8431 0
4934 -8416 -8454 0
-4934 8416 0
-4934 -8367 8431 8454 0
-4935 -8416 4936 0
-4935 4037 4936 0
-4935 8404 4936 0
4935 -4936 0
4935 -8404 8416 -4037 0
4936 -8367 -2611 0
-4936 8367 0
-4936 2611 0
-4937 2710 3974 0
-4937 8462 2710 0
4937 -2710 0
4937 -8462 -3974 0
4938 4845 4851 -4913 0
4938 4845 -4852 -4913 0
4938 4851 -4852 -4913 0
-4938 -4845 4852 0
-4938 -4851 4852 0
-4938 4913 0
-4938 -4845 -4851 0
4939 -4844 4854 0
4939 4854 -4884 0
-4939 -4854 0
-4939 4844 4884 0
4940 4941 -4975 0
-4940 -4941 0
-4940 4975 0
4941 -4942 4953 0
4941 4942 -4953 0
-4941 4942 4953 0
-4941 -4942 -4953 0
-4942 4943 4946 0
-4942 -4943 -4946 0
4942 -4943 4946 0
4942 4943 -4946 0
-4943 4944 4945 0
4943 -4944 0
4943 -4945 0
4944 -4906 -4907 0
-4944 4906 0
-4944 4907 0
4945 -4904 -4905 0
-4945 4904 0
-4945 4905 0
-4946 -4947 -4952 0
-4946 4947 4952 0
4946 4947 -4952 0
4946 -4947 4952 0
-4947 4948 4949 0
-4947 -4948 -4949 0
4947 -4948 4949 0
4947 4948 -4949 0
4948 -4915 -4922 0
4948 4919 -4921 -4922 0
4948 -4915 4919 -4921 0
-4948 4915 -4919 0
-4948 -4919 4922 0
-4948 4915 4922 0
-4948 4921 4922 0
-4948 4915 4921 0
-4949 4950 4951 0
-4949 -4950 -4951 0
4949 -4950 4951 0
4949 4950 -4951 0
-4950 2685 3974 0
-4950 8427 2685 0
4950 -2685 0
4950 -8427 -3974 0
-4951 4928 4932 0
-4951 4932 4933 0
-4951 4928 4933 0
4951 -4932 -4933 0
4951 -4928 -4932 0
4951 -4928 -4933 0
4952 -4927 4937 0
4952 -4914 -4927 0
4952 -4914 4937 0
-4952 4914 4927 0
-4952 4927 -4937 0
-4952 4914 -4937 0
-4953 -4954 -4956 0
-4953 4903 4954 4956 0
-4953 4955 4956 0
-4953 -4903 -4955 -4956 0
4953 -4903 -4955 4956 0
4953 4954 4955 -4956 0
4953 4903 4954 -4956 0
4953 -4954 -4955 4956 0
4954 -4909 -4910 0
-4954 4909 0
-4954 4910 0
-4955 4909 4910 0
4955 -4909 0
4955 -4910 0
4956 4957 -4974 0
4956 -4957 4969 4974 0
4956 4957 -4969 0
-4956 -4957 -4969 0
-4956 -4957 -4974 0
-4956 4957 4969 4974 0
4957 -4958 4960 0
4957 4958 -4960 0
-4957 4958 4960 0
-4957 -4958 -4960 0
4958 -8368 4959 0
4958 8368 -4959 0
-4958 8368 4959 0
-4958 -8368 -4959 0
-4959 2663 4204 0
-4959 8418 2663 0
4959 -2663 0
4959 -8418 -4204 0
-4960 -4961 -4965 0
-4960 4961 4965 0
4960 4961 -4965 0
4960 -4961 4965 0
4961 8399 -4963 0
4961 -8399 4963 4964 0
4961 8399 -4962 0
-4961 -8399 -4963 0
-4961 8399 4962 4963 0
-4961 -8399 -4964 0
4962 -8441 -4045 0
-4962 8441 0
-4962 4045 0
4963 -8434 -3994 0
-4963 8434 0
-4963 3994 0
4964 -8441 2507 0
-4964 8441 0
-4964 -2507 0
4965 8407 -4967 0
4965 -8407 4967 4968 0
4965 8407 -4966 0
-4965 -8407 -4967 0
-4965 8407 4966 4967 0
-4965 -8407 -4968 0
4966 -8411 -4780 0
-4966 8411 0
-4966 4780 0
4967 -8429 -4042 0
-4967 8429 0
-4967 4042 0
4968 -8411 2471 0
-4968 8411 0
-4968 -2471 0
4969 4937 -4970 4972 0
4969 4937 4970 -4972 0
-4969 -4937 0
-4969 4970 4972 0
-4969 -4970 -4972 0
-4970 -8416 8454 -4971 0
-4970 -8416 -8454 4971 0
-4970 8416 -8454 -4971 0
-4970 8416 8454 4971 0
4970 -8416 8454 4971 0
4970 -8416 -8454 -4971 0
4970 8416 -8454 4971 0
4970 8416 8454 -4971 0
-4971 8369 8404 0
-4971 4037 4253 0
-4971 8369 4253 0
-4971 8404 4037 0
4971 -8369 -4037 0
4971 -8404 -4253 0
4972 -8439 4973 0
4972 8439 -4973 0
-4972 8439 4973 0
-4972 -8439 -4973 0
-4973 2654 4027 0
-4973 8367 2654 0
4973 -2654 0
4973 -8367 -4027 0
4974 -4937 4970 4972 0
4974 -4937 -4970 -4972 0
-4974 4937 0
-4974 4970 -4972 0
-4974 -4970 4972 0
-4975 4902 4912 0
-4975 4912 -4938 0
4975 -4912 0
4975 -4902 4938 0
4976 -4941 4975 0
-4976 4941 0
-4976 -4975 0
-4977 4978 5031 0
4977 -4978 0
4977 -5031 0
-4978 4979 5030 0
4978 -4979 0
4978 -5030 0
4979 4980 -5025 0
-4979 -4980 0
-4979 5025 0
-4980 4981 5010 0
-4980 -4981 -5010 0
4980 -4981 5010 0
4980 4981 -5010 0
-4981 -4982 -4989 0
-4981 4982 4989 0
4981 4982 -4989 0
4981 -4982 4989 0
-4982 4983 4984 0
-4982 -4983 -4984 0
4982 -4983 4984 0
4982 4983 -4984 0
-4983 2601 3974 0
-4983 8418 2601 0
4983 -2601 0
4983 -8418 -3974 0
-4984 -4985 -4987 0
-4984 4985 4987 0
4984 4985 -4987 0
4984 -4985 4987 0
4985 -8407 4986 0
4985 8407 -4986 0
-4985 8407 4986 0
-4985 -8407 -4986 0
-4986 2596 4042 0
-4986 8434 2596 0
4986 -2596 0
4986 -8434 -4042 0
4987 -8368 4988 0
4987 8368 -4988 0
-4987 8368 4988 0
-4987 -8368 -4988 0
-4988 2599 4204 0
-4988 8429 2599 0
4988 -2599 0
4988 -8429 -4204 0
4989 4990 -4993 0
4989 -4990 4993 0
-4989 -4990 -4993 0
-4989 4990 4993 0
-4990 4991 4992 0
4990 -4991 0
4990 -4992 0
4991 -4958 -4961 0
4991 -4961 -4965 0
4991 -4958 -4965 0
-4991 4958 4965 0
-4991 4961 4965 0
-4991 4958 4961 0
-4992 -8454 4972 0
-4992 8416 -8454 4971 0
-4992 -8416 -4971 4972 0
-4992 -8416 -8454 -4971 0
-4992 8416 4971 4972 0
4992 8454 -4972 0
4992 8416 -4971 -4972 0
4992 -8416 8454 4971 0
4992 -8416 4971 -4972 0
4992 8416 8454 -4971 0
4993 -4994 -5000 0
-4993 4994 0
-4993 5000 0
4994 4995 -4997 0
4994 -4995 4997 0
-4994 -4995 -4997 0
-4994 4995 4997 0
-4995 8399 4996 0
-4995 -8399 -4996 0
4995 -8399 4996 0
4995 8399 -4996 0
-4996 2619 3994 0
-4996 8413 2619 0
4996 -2619 0
4996 -8413 -3994 0
4997 -8439 -4998 -4999 0
4997 -8439 4998 4999 0
4997 8439 4998 -4999 0
4997 8439 -4998 4999 0
-4997 -8439 -4998 4999 0
-4997 -8439 4998 -4999 0
-4997 8439 4998 4999 0
-4997 8439 -4998 -4999 0
-4998 2615 4027 0
-4998 8404 2615 0
4998 -2615 0
4998 -8404 -4027 0
4999 -8416 -8431 0
4999 -8416 -8454 0
4999 8369 -8416 0
4999 -8369 -8431 -8454 0
-4999 8369 8416 0
-4999 -8369 8431 8454 0
-4999 8416 8454 0
-4999 8416 8431 0
5000 -5001 5002 0
5000 5001 -5002 0
-5000 5001 5002 0
-5000 -5001 -5002 0
-5001 2629 3974 0
-5001 8456 2629 0
5001 -2629 0
5001 -8456 -3974 0
-5002 -5003 -5006 0
-5002 5003 5006 0
5002 5003 -5006 0
5002 -5003 5006 0
5003 8368 -5004 0
5003 -8368 5004 5005 0
5003 8368 -2627 0
-5003 -8368 -5004 0
-5003 8368 2627 5004 0
-5003 -8368 -5005 0
5004 -8411 -4204 0
-5004 8411 0
-5004 4204 0
5005 -8418 4470 0
-5005 8418 0
-5005 -4470 0
5006 8407 -5008 0
5006 -8407 5008 5009 0
5006 8407 -5007 0
-5006 -8407 -5008 0
-5006 8407 5007 5008 0
-5006 -8407 -5009 0
5007 -8429 -4780 0
-5007 8429 0
-5007 4780 0
5008 -8441 -4042 0
-5008 8441 0
-5008 4042 0
5009 -8429 2471 0
-5009 8429 0
-5009 -2471 0
-5010 -5011 -5021 0
-5010 5011 5021 0
5010 5011 -5021 0
5010 -5011 5021 0
5011 5012 -5018 0
5011 -5012 5018 0
-5011 -5012 -5018 0
-5011 5012 5018 0
5012 5013 -5015 0
5012 -5013 5015 0
-5012 -5013 -5015 0
-5012 5013 5015 0
-5013 8399 5014 0
-5013 -8399 -5014 0
5013 -8399 5014 0
5013 8399 -5014 0
-5014 8367 8413 0
-5014 3994 4045 0
-5014 8367 4045 0
-5014 8413 3994 0
5014 -8367 -3994 0
5014 -8413 -4045 0
5015 -8416 5016 0
5015 8416 -5016 0
-5015 8416 5016 0
-5015 -8416 -5016 0
-5016 8439 5017 0
-5016 -8439 -5017 0
5016 -8439 5017 0
5016 8439 -5017 0
-5017 2571 4027 0
-5017 8369 2571 0
5017 -2571 0
5017 -8369 -4027 0
5018 -5019 5020 0
5018 5019 -5020 0
-5018 5019 5020 0
-5018 -5019 -5020 0
-5019 5003 5006 0
-5019 5001 5003 0
-5019 5001 5006 0
5019 -5001 -5003 0
5019 -5003 -5006 0
5019 -5001 -5006 0
-5020 4995 4999 0
-5020 8439 4995 4998 0
-5020 -8439 -4998 4999 0
-5020 -8439 4995 -4998 0
-5020 8439 4998 4999 0
5020 -4995 -4999 0
5020 8439 -4998 -4999 0
5020 -8439 -4995 4998 0
5020 -8439 4998 -4999 0
5020 8439 -4995 -4998 0
5021 -5023 5024 0
5021 -5022 -5023 0
5021 -5022 5024 0
-5021 5022 5023 0
-5021 5023 -5024 0
-5021 5022 -5024 0
-5022 -4969 4974 0
-5022 4957 4974 0
5022 -4974 0
5022 -4957 4969 0
-5023 4948 4950 0
-5023 4950 4951 0
-5023 4948 4951 0
5023 -4950 -4951 0
5023 -4948 -4950 0
5023 -4948 -4951 0
-5024 4991 4992 0
-5024 -4991 -4992 0
5024 -4991 4992 0
5024 4991 -4992 0
5025 5027 -5029 0
5025 -5026 -5029 0
5025 -5026 5027 0
-5025 5026 5029 0
-5025 5026 -5027 0
-5025 -5027 5029 0
-5026 4943 4947 0
-5026 4947 4952 0
-5026 4943 4952 0
5026 -4947 -4952 0
5026 -4943 -4947 0
5026 -4943 -4952 0
-5027 5022 5028 0
-5027 -5022 -5028 0
5027 -5022 5028 0
5027 5022 -5028 0
-5028 5023 5024 0
-5028 -5023 -5024 0
5028 -5023 5024 0
5028 5023 -5024 0
-5029 -4994 -5000 0
-5029 4994 5000 0
5029 4994 -5000 0
5029 -4994 5000 0
5030 -4981 5010 5025 0
5030 4981 -5010 5025 0
-5030 -5025 0
-5030 -4981 -5010 0
-5030 4981 5010 0
5031 -5032 5036 0
-5031 5032 0
-5031 -5036 0
5032 -4942 5034 0
5032 -5033 5034 -5035 0
-5032 -5034 0
-5032 4942 5035 0
-5032 4942 5033 0
-5033 4903 4954 0
5033 -4903 0
5033 -4954 0
5034 4903 4954 -4956 0
5034 4954 4955 -4956 0
-5034 4956 0
-5034 -4954 0
-5034 -4903 -4955 0
5035 -4955 4956 0
-5035 4955 0
-5035 -4956 0
-5036 -5026 -5037 0
-5036 5026 5037 0
5036 5026 -5037 0
5036 -5026 5037 0
5037 -5027 5029 0
5037 5027 -5029 0
-5037 5027 5029 0
-5037 -5027 -5029 0
-5038 5039 5040 0
5038 -5039 0
5038 -5040 0
5039 5032 -5036 0
-5039 -5032 0
-5039 5036 0
5040 5041 -5042 0
5040 -5041 5042 0
-5040 -5041 -5042 0
-5040 5041 5042 0
-5041 4981 -5011 0
-5041 -5011 5021 0
-5041 4981 5021 0
5041 5011 -5021 0
5041 -4981 5011 0
5041 -4981 -5021 0
5042 -5043 5052 0
5042 5043 -5052 0
-5042 5043 5052 0
-5042 -5043 -5052 0
-5043 -5044 -5046 0
-5043 5044 5046 0
5043 5044 -5046 0
5043 -5044 5046 0
-5044 5045 5018 0
-5044 -5012 5045 0
5044 -5045 0
5044 5012 -5018 0
5045 -5019 -5020 0
-5045 5019 0
-5045 5020 0
5046 -5047 5051 0
5046 5047 -5051 0
-5046 5047 5051 0
-5046 -5047 -5051 0
-5047 5048 5049 0
-5047 -5048 -5049 0
5047 -5048 5049 0
5047 5048 -5049 0
-5048 2562 3974 0
-5048 8411 2562 0
5048 -2562 0
5048 -8411 -3974 0
-5049 8368 5050 0
-5049 -8368 -5050 0
5049 -8368 5050 0
5049 8368 -5050 0
-5050 2565 4204 0
-5050 8441 2565 0
5050 -2565 0
5050 -8441 -4204 0
-5051 4985 4987 0
-5051 4983 4985 0
-5051 4983 4987 0
5051 -4983 -4985 0
5051 -4985 -4987 0
5051 -4983 -4987 0
-5052 5053 5063 0
-5052 -5053 -5063 0
5052 -5053 5063 0
5052 5053 -5063 0
-5053 5054 5055 0
-5053 -5054 -5055 0
5053 -5054 5055 0
5053 5054 -5055 0
-5054 -8416 5013 0
-5054 5013 5016 0
-5054 -8416 5016 0
5054 8416 -5016 0
5054 -5013 -5016 0
5054 8416 -5013 0
-5055 5056 5058 0
-5055 -5056 -5058 0
5055 -5056 5058 0
5055 5056 -5058 0
5056 -8407 5057 0
5056 8407 -5057 0
-5056 8407 5057 0
-5056 -8407 -5057 0
-5057 8413 8434 0
-5057 4042 4780 0
-5057 8413 4780 0
-5057 8434 4042 0
5057 -8413 -4042 0
5057 -8434 -4780 0
-5058 -5059 -5061 0
-5058 5059 5061 0
5058 5059 -5061 0
5058 -5059 5061 0
-5059 8439 5060 0
-5059 8369 8439 0
-5059 -8369 -8439 4056 0
5059 -8439 -4056 0
5059 -8369 8439 -5060 0
5059 8369 -8439 0
5060 -8416 -8450 0
-5060 8416 0
-5060 8450 0
5061 -8399 5062 0
5061 8399 -5062 0
-5061 8399 5062 0
-5061 -8399 -5062 0
-5062 8367 8404 0
-5062 3994 4045 0
-5062 8404 4045 0
-5062 8367 3994 0
5062 -8404 -3994 0
5062 -8367 -4045 0
-5063 4982 4990 0
-5063 4990 4993 0
-5063 4982 4993 0
5063 -4990 -4993 0
5063 -4982 -4990 0
5063 -4982 -4993 0
5064 -5065 5123 0
5064 -5105 5123 0
5064 -5106 5123 0
-5064 -5123 0
-5064 5065 5105 5106 0
5065 -5066 5087 0
-5065 5066 0
-5065 -5087 0
5066 -5067 5086 0
-5066 5067 0
-5066 -5086 0
5067 -5068 5078 0
5067 5068 -5078 0
-5067 5068 5078 0
-5067 -5068 -5078 0
-5068 5069 5075 0
-5068 -5069 -5075 0
5068 -5069 5075 0
5068 5069 -5075 0
5069 5070 -5072 0
5069 -5070 5072 0
-5069 -5070 -5072 0
-5069 5070 5072 0
-5070 8407 5071 0
-5070 -8407 -5071 0
5070 -8407 5071 0
5070 8407 -5071 0
-5071 2532 4042 0
-5071 8367 2532 0
5071 -2532 0
5071 -8367 -4042 0
5072 -8439 5073 0
5072 8439 -5073 0
-5072 8439 5073 0
-5072 -8439 -5073 0
-5073 8399 5074 0
-5073 -8399 -5074 0
5073 -8399 5074 0
5073 8399 -5074 0
-5074 8369 8404 0
-5074 3994 4045 0
-5074 8369 4045 0
-5074 8404 3994 0
5074 -8369 -3994 0
5074 -8404 -4045 0
-5075 -5076 -5077 0
-5075 5076 5077 0
5075 5076 -5077 0
5075 -5076 5077 0
-5076 5048 5049 0
5076 -5048 0
5076 -5049 0
5077 -5054 -5055 0
-5077 5054 0
-5077 5055 0
-5078 5079 5080 0
-5078 -5079 -5080 0
5078 -5079 5080 0
5078 5079 -5080 0
5079 5047 -5051 0
5079 -5044 -5051 0
5079 -5044 5047 0
-5079 5044 5051 0
-5079 5044 -5047 0
-5079 -5047 5051 0
-5080 -5081 -5085 0
-5080 5081 5085 0
5080 5081 -5085 0
5080 -5081 5085 0
-5081 5082 5083 0
-5081 -5082 -5083 0
5081 -5082 5083 0
5081 5082 -5083 0
-5082 2536 3974 0
-5082 8429 2536 0
5082 -2536 0
5082 -8429 -3974 0
-5083 8368 5084 0
-5083 -8368 -5084 0
5083 -8368 5084 0
5083 8368 -5084 0
-5084 2539 4204 0
-5084 8434 2539 0
5084 -2539 0
5084 -8434 -4204 0
5085 -5056 -5061 0
5085 -5056 -5059 0
5085 -5059 -5061 0
-5085 5059 5061 0
-5085 5056 5061 0
-5085 5056 5059 0
-5086 -5043 5053 0
-5086 5053 5063 0
-5086 -5043 5063 0
5086 -5053 -5063 0
5086 5043 -5053 0
5086 5043 -5063 0
5087 5088 -5104 0
-5087 -5088 0
-5087 5104 0
5088 5089 -5092 0
5088 -5089 5092 0
-5088 -5089 -5092 0
-5088 5089 5092 0
-5089 5090 5091 0
-5089 -5090 -5091 0
5089 -5090 5091 0
5089 5090 -5091 0
-5090 2512 3974 0
-5090 8441 2512 0
5090 -2512 0
5090 -8441 -3974 0
-5091 -5069 5076 0
-5091 5076 5077 0
-5091 -5069 5077 0
5091 -5076 -5077 0
5091 5069 -5076 0
5091 5069 -5077 0
5092 5096 -5097 0
5092 5093 -5096 5097 0
5092 -5093 -5097 0
-5092 -5093 5097 0
-5092 5093 -5096 -5097 0
-5092 5096 5097 0
5093 -5094 -5095 0
-5093 5094 0
-5093 5095 0
-5094 5082 5083 0
-5094 5083 5085 0
-5094 5082 5085 0
5094 -5083 -5085 0
5094 -5082 -5083 0
5094 -5082 -5085 0
-5095 -8439 5070 0
-5095 5070 5073 0
-5095 -8439 5073 0
5095 8439 -5073 0
5095 -5070 -5073 0
5095 8439 -5070 0
-5096 5094 5095 0
5096 -5094 0
5096 -5095 0
-5097 5098 5100 0
-5097 -5098 -5100 0
5097 -5098 5100 0
5097 5098 -5100 0
-5098 8368 5099 0
-5098 -8368 -5099 0
5098 -8368 5099 0
5098 8368 -5099 0
-5099 2503 4204 0
-5099 8413 2503 0
5099 -2503 0
5099 -8413 -4204 0
-5100 5101 5102 0
-5100 -5101 -5102 0
5100 -5101 5102 0
5100 5101 -5102 0
-5101 8399 2508 0
-5101 8369 8399 0
-5101 -8369 -8399 2507 0
5101 -8399 -2507 0
5101 -8369 8399 -2508 0
5101 8369 -8399 0
-5102 8407 5103 0
-5102 -8407 -5103 0
5102 -8407 5103 0
5102 8407 -5103 0
-5103 8367 8404 0
-5103 4042 4780 0
-5103 8404 4780 0
-5103 8367 4042 0
5103 -8404 -4042 0
5103 -8367 -4780 0
-5104 5079 5080 0
-5104 -5068 5079 0
-5104 -5068 5080 0
5104 5068 -5079 0
5104 -5079 -5080 0
5104 5068 -5080 0
5105 -5088 5104 0
-5105 5088 0
-5105 -5104 0
5106 5107 -5109 0
-5106 -5107 0
-5106 5109 0
-5107 5108 5092 0
-5107 5108 -5089 0
5107 -5108 0
5107 5089 -5092 0
5108 5090 -5091 0
-5108 -5090 0
-5108 5091 0
5109 5110 -5114 0
5109 -5110 5114 0
-5109 -5110 -5114 0
-5109 5110 5114 0
5110 -5090 5111 0
5110 5090 -5111 0
-5110 5090 5111 0
-5110 -5090 -5111 0
-5111 5112 5113 0
-5111 -5112 -5113 0
5111 -5112 5113 0
5111 5112 -5113 0
-5112 2499 3974 0
-5112 8434 2499 0
5112 -2499 0
5112 -8434 -3974 0
-5113 5098 5101 0
-5113 5101 5102 0
-5113 5098 5102 0
5113 -5098 -5102 0
5113 -5101 -5102 0
5113 -5098 -5101 0
5114 -5115 5121 0
5114 5115 -5121 0
-5114 5115 5121 0
-5114 -5115 -5121 0
5115 5116 -5118 0
5115 -5116 5118 0
-5115 -5116 -5118 0
-5115 5116 5118 0
-5116 8368 5117 0
-5116 -8368 -5117 0
5116 -8368 5117 0
5116 8368 -5117 0
-5117 2486 4204 0
-5117 8367 2486 0
5117 -2486 0
5117 -8367 -4204 0
5118 -8399 5119 0
5118 8399 -5119 0
-5118 8399 5119 0
-5118 -8399 -5119 0
-5119 8407 5120 0
-5119 -8407 -5120 0
5119 -8407 5120 0
5119 8407 -5120 0
-5120 2483 4042 0
-5120 8369 2483 0
5120 -2483 0
5120 -8369 -4042 0
-5121 5093 5122 0
5121 -5093 0
5121 -5122 0
5122 -5096 -5097 0
-5122 5096 0
-5122 5097 0
5123 -5107 5109 0
-5123 5107 0
-5123 -5109 0
5124 -5064 0
5124 -4898 5133 0
5124 -5125 5133 0
-5124 5064 -5133 0
-5124 4898 5064 5125 0
5125 4940 5126 -5130 0
-5125 5130 0
-5125 -5126 0
-5125 -4940 0
5126 -4759 -5127 -5128 0
-5126 4759 0
-5126 5128 0
-5126 5127 0
-5127 4895 4896 0
5127 -4895 0
5127 -4896 0
-5128 4895 5129 0
-5128 4896 5129 0
5128 -5129 0
5128 -4895 -4896 0
5129 -4886 -4887 0
-5129 4886 0
-5129 4887 0
5130 -5131 5132 0
-5130 5131 0
-5130 -5132 0
-5131 4901 4939 0
5131 -4901 0
5131 -4939 0
5132 -4760 -4843 0
-5132 4760 0
-5132 4843 0
-5133 5123 5134 5137 0
5133 -5137 0
5133 -5134 0
5133 -5123 0
-5134 5041 5135 0
-5134 -5042 5135 0
5134 -5135 0
5134 -5041 5042 0
5135 4980 5040 -5136 0
5135 -5025 5040 -5136 0
-5135 5136 0
-5135 -5040 0
-5135 -4980 5025 0
-5136 4979 5031 0
5136 -4979 0
5136 -5031 0
-5137 5087 5138 0
5137 -5087 0
5137 -5138 0
5138 5067 -5086 0
-5138 -5067 0
-5138 5086 0
-5139 5140 5152 5153 0
5139 -5153 0
5139 -5152 0
5139 -5140 0
5140 -5141 5151 0
-5140 5141 0
-5140 -5151 0
5141 -5142 5150 0
5141 5142 -5150 0
-5141 5142 5150 0
-5141 -5142 -5150 0
5142 -5143 5149 0
5142 5143 -5149 0
-5142 5143 5149 0
-5142 -5143 -5149 0
-5143 5144 5145 0
-5143 -5144 -5145 0
5143 -5144 5145 0
5143 5144 -5145 0
-5144 2477 3974 0
-5144 8413 2477 0
5144 -2477 0
5144 -8413 -3974 0
-5145 5146 5147 0
-5145 -5146 -5147 0
5145 -5146 5147 0
5145 5146 -5147 0
-5146 8407 2472 0
-5146 8369 8407 0
-5146 -8369 -8407 2471 0
5146 -8407 -2471 0
5146 -8369 8407 -2472 0
5146 8369 -8407 0
-5147 8368 5148 0
-5147 -8368 -5148 0
5147 -8368 5148 0
5147 8368 -5148 0
-5148 2475 4204 0
-5148 8404 2475 0
5148 -2475 0
5148 -8404 -4204 0
-5149 -8399 5116 0
-5149 5116 5119 0
-5149 -8399 5119 0
5149 8399 -5119 0
5149 -5116 -5119 0
5149 8399 -5116 0
-5150 5090 5112 0
-5150 5112 5113 0
-5150 5090 5113 0
5150 -5090 -5113 0
5150 -5112 -5113 0
5150 -5090 -5112 0
-5151 5110 -5115 0
-5151 -5115 5121 0
-5151 5110 5121 0
5151 5115 -5121 0
5151 -5110 5115 0
5151 -5110 -5121 0
5152 5141 -5151 0
-5152 -5141 0
-5152 5151 0
-5153 5154 5155 0
-5153 -5154 -5155 0
5153 -5154 5155 0
5153 5154 -5155 0
5154 5142 -5150 0
-5154 -5142 0
-5154 5150 0
-5155 5156 5161 0
-5155 -5156 -5161 0
5155 -5156 5161 0
5155 5156 -5161 0
-5156 -5157 -5158 0
-5156 5157 5158 0
5156 5157 -5158 0
5156 -5157 5158 0
-5157 2459 3974 0
-5157 8367 2459 0
5157 -2459 0
5157 -8367 -3974 0
5158 -8407 5159 0
5158 8407 -5159 0
-5158 8407 5159 0
-5158 -8407 -5159 0
-5159 8368 5160 0
-5159 -8368 -5160 0
5159 -8368 5160 0
5159 8368 -5160 0
-5160 2457 4204 0
-5160 8369 2457 0
5160 -2457 0
5160 -8369 -4204 0
-5161 5162 5163 0
-5161 -5162 -5163 0
5161 -5162 5163 0
5161 5162 -5163 0
-5162 5143 5149 0
5162 -5143 0
5162 -5149 0
-5163 5144 5146 0
-5163 5146 5147 0
-5163 5144 5147 0
5163 -5144 -5147 0
5163 -5146 -5147 0
5163 -5144 -5146 0
-5164 5165 5171 0
5164 -5165 0
5164 -5171 0
5165 -5166 5170 0
-5165 5166 0
-5165 -5170 0
5166 -5167 5168 0
5166 5167 -5168 0
-5166 5167 5168 0
-5166 -5167 -5168 0
5167 -3971 3972 0
5167 3971 -3972 0
-5167 3971 3972 0
-5167 -3971 -3972 0
-5168 -8407 5169 0
-5168 5159 5169 0
5168 -5169 0
5168 8407 -5159 0
5169 -5157 5158 0
-5169 5157 0
-5169 -5158 0
-5170 5162 5163 0
-5170 5162 -5156 0
-5170 -5156 5163 0
5170 5156 -5163 0
5170 -5162 -5163 0
5170 -5162 5156 0
5171 5172 -5173 0
-5171 -5172 0
-5171 5173 0
5172 5167 -5168 0
-5172 -5167 0
-5172 5168 0
5173 -3970 3978 0
5173 3970 -3978 0
-5173 3970 3978 0
-5173 -3970 -3978 0
5174 5164 -5175 0
-5174 -5164 0
-5174 5175 0
-5175 5176 5177 0
5175 -5176 0
5175 -5177 0
5176 -5154 5155 0
5176 -5152 5155 0
-5176 -5155 0
-5176 5152 5154 0
5177 5166 -5170 0
-5177 -5166 0
-5177 5170 0
5178 -5172 5173 0
-5178 5172 0
-5178 -5173 0
5179 -5180 5190 0
5179 5190 -6437 0
5179 5190 -6440 0
-5179 -5190 0
-5179 5180 6437 6440 0
5180 5181 -5188 0
5180 -8396 -8464 5181 0
-5180 -5181 0
-5180 8464 5188 0
-5180 8396 5188 0
5181 -1232 -5182 5187 0
-5181 1232 0
-5181 5182 0
-5181 -5187 0
-5182 5183 5184 0
5182 -5183 0
5182 -5184 0
-5183 8447 1244 0
-5183 -8447 -8464 1243 0
-5183 8447 8464 0
5183 -8447 8464 0
5183 8447 -8464 -1244 0
5183 -8447 -1243 0
-5184 8468 5185 0
-5184 1233 5185 0
5184 -5185 0
5184 -8468 -1233 0
5185 -8466 -5186 0
-5185 8466 0
-5185 5186 0
-5186 -8396 -8447 0
-5186 8396 8447 0
5186 8396 -8447 0
5186 -8396 8447 0
-5187 8447 8464 0
-5187 8396 -8464 0
-5187 -8396 -8447 -8466 0
5187 8396 -8447 8464 0
5187 -8396 8447 -8464 0
5187 -8396 -8447 8466 0
5188 -5183 5189 0
5188 -8466 -5186 5189 0
-5188 -5189 0
-5188 5186 5183 0
-5188 8466 5183 0
5189 8396 -8447 8464 0
5189 -8396 -8447 8466 0
-5189 8447 0
-5189 -8396 -8466 0
-5189 8396 -8464 0
-5190 5191 5200 6423 0
-5190 -5191 -5180 5200 0
-5190 5191 5180 5200 0
5190 -5200 0
5190 -5191 5180 0
5190 5191 -5180 -6423 0
5191 -5192 5199 0
-5191 5192 0
-5191 -5199 0
5192 5193 -5194 0
-5192 -5193 0
-5192 5194 0
5193 -5183 5184 0
5193 5183 -5184 0
-5193 5183 5184 0
-5193 -5183 -5184 0
-5194 -8393 5195 0
-5194 5195 5196 0
-5194 -8393 5196 0
5194 8393 -5196 0
5194 -5195 -5196 0
5194 8393 -5195 0
-5195 1256 5186 0
-5195 8468 1256 0
5195 -1256 0
5195 -8468 -5186 0
-5196 8447 5197 0
-5196 -8447 -5197 0
5196 -8447 5197 0
5196 8447 -5197 0
-5197 1254 5198 0
-5197 8464 1254 0
5197 -1254 0
5197 -8464 -5198 0
-5198 -8393 -8403 0
-5198 8393 8403 0
5198 8393 -8403 0
5198 -8393 8403 0
5199 -5182 5187 0
5199 5182 -5187 0
-5199 5182 5187 0
-5199 -5182 -5187 0
5200 5201 5227 -6339 -6422 0
-5200 -5201 0
-5200 6422 0
-5200 6339 0
-5200 -5227 0
5201 -5202 5226 0
-5201 5202 0
-5201 -5226 0
-5202 5205 5225 0
-5202 -5203 5205 0
5202 -5205 0
5202 5203 -5225 0
5203 5195 -5204 0
5203 -5195 5204 0
-5203 -5195 -5204 0
-5203 5195 5204 0
5204 -8393 5196 0
5204 8393 -5196 0
-5204 8393 5196 0
-5204 -8393 -5196 0
5205 -5206 -5216 0
-5205 5206 0
-5205 5216 0
-5206 5207 5214 0
-5206 5207 5215 0
5206 -5207 0
5206 -5214 -5215 0
5207 -5208 -5209 0
-5207 5208 0
-5207 5209 0
-5208 8393 1271 0
-5208 -8393 -8464 1269 0
-5208 8393 8464 0
5208 -8393 8464 0
5208 8393 -8464 -1271 0
5208 -8393 -1269 0
-5209 -8447 -5211 0
-5209 8447 5210 5211 0
-5209 -8447 -5212 0
5209 8447 -5211 0
5209 -8447 5211 5212 0
5209 8447 -5210 0
5210 -8468 -1244 0
-5210 8468 0
-5210 1244 0
5211 -8466 -5198 0
-5211 8466 0
-5211 5198 0
5212 -8468 -5213 0
-5212 8468 0
-5212 5213 0
-5213 -8393 -8447 0
-5213 8403 8447 0
-5213 8393 -8403 0
5213 -8393 -8403 8447 0
5213 8393 8403 -8447 0
-5214 1275 5186 0
-5214 8415 1275 0
5214 -1275 0
5214 -8415 -5186 0
5215 -5208 5209 0
5215 5208 -5209 0
-5215 5208 5209 0
-5215 -5208 -5209 0
-5216 5217 5218 0
5216 -5217 0
5216 -5218 0
-5217 -5214 -5215 0
-5217 5214 5215 0
5217 5214 -5215 0
5217 -5214 5215 0
5218 -5219 -5223 0
5218 8470 -5219 0
5218 8470 -5223 0
-5218 -8470 5219 0
-5218 5219 5223 0
-5218 -8470 5223 0
-5219 8393 5220 0
-5219 -8393 -5220 0
5219 -8393 5220 0
5219 8393 -5220 0
-5220 8464 8466 0
-5220 5221 5222 0
-5220 8466 5222 0
-5220 8464 5221 0
5220 -8466 -5221 0
5220 -8464 -5222 0
-5221 -8470 8471 0
-5221 -8393 -8471 0
-5221 8393 8470 0
5221 8393 -8470 -8471 0
5221 -8393 8470 8471 0
-5222 -8470 -8471 0
-5222 8470 8471 0
5222 8470 -8471 0
5222 -8470 8471 0
5223 -8447 5224 0
5223 8447 -5224 0
-5223 8447 5224 0
-5223 -8447 -5224 0
-5224 8415 8468 0
-5224 5198 5213 0
-5224 8468 5213 0
-5224 8415 5198 0
5224 -8468 -5198 0
5224 -8415 -5213 0
5225 -5206 5216 0
5225 5206 -5216 0
-5225 5206 5216 0
-5225 -5206 -5216 0
5226 -5193 5194 0
5226 5193 -5194 0
-5226 5193 5194 0
-5226 -5193 -5194 0
5227 -5228 -5795 0
-5227 5228 0
-5227 5795 0
5228 -5229 -5665 0
-5228 5229 0
-5228 5665 0
5229 -5230 5477 5601 0
-5229 -5601 0
-5229 -5477 0
-5229 5230 0
-5230 -5231 -5429 0
-5230 5231 5429 0
5230 5231 -5429 0
5230 -5231 5429 0
5231 -5343 -5387 0
5231 -5232 -5343 0
5231 -5232 -5387 0
-5231 5232 5343 0
-5231 5343 5387 0
-5231 5232 5387 0
-5232 5335 5340 0
-5232 5233 5318 5340 0
5232 -5340 0
5232 -5318 -5335 0
5232 -5233 -5335 0
-5233 5234 5290 5317 0
5233 -5234 0
5233 -5317 0
5233 -5290 0
5234 -5235 -5259 0
-5234 5235 0
-5234 5259 0
-5235 5250 5258 0
-5235 5236 5244 5258 0
5235 -5258 0
5235 -5244 -5250 0
5235 -5236 -5250 0
-5236 5237 5243 0
5236 -5237 0
5236 -5243 0
5237 -8379 5238 -5242 0
5237 8379 -5238 -5242 0
-5237 5242 0
-5237 -8379 -5238 0
-5237 8379 5238 0
-5238 8468 5239 0
-5238 8379 5239 0
-5238 -1656 5239 0
5238 -5239 0
5238 -8379 -8468 1656 0
-5239 5240 5241 0
-5239 8466 1657 0
-5239 1657 5241 0
-5239 8466 5240 0
5239 -1657 -5240 0
5239 -8466 -5241 0
5240 8379 -8468 0
-5240 -8379 0
-5240 8468 0
-5241 -8374 -8376 0
-5241 8374 8376 0
5241 8374 -8376 0
5241 -8374 8376 0
5242 -8371 -8376 0
5242 -8376 8464 0
-5242 8376 0
-5242 8371 -8464 0
-5243 1759 5186 0
-5243 8373 1759 0
5243 -1759 0
5243 -8373 -5186 0
5244 -5245 -5246 0
-5244 5245 0
-5244 5246 0
5245 -5242 0
5245 8379 -5238 0
5245 -8379 5238 0
-5245 8379 5238 5242 0
-5245 -8379 -5238 5242 0
5246 8383 -5247 0
5246 -8383 5247 5249 0
5246 8383 -1767 0
-5246 -8383 -5247 0
-5246 8383 1767 5247 0
-5246 -8383 -5249 0
5247 -8415 -5248 0
-5247 8415 0
-5247 5248 0
-5248 -8378 -8379 0
-5248 8378 8379 0
5248 8378 -8379 0
5248 -8378 8379 0
5249 -8436 1545 0
-5249 8436 0
-5249 -1545 0
5250 5251 -5254 0
5250 -5251 5254 0
-5250 -5251 -5254 0
-5250 5251 5254 0
5251 8383 -5252 0
5251 -8383 5252 5253 0
5251 8383 -1717 0
-5251 -8383 -5252 0
-5251 8383 1717 5252 0
-5251 -8383 -5253 0
5252 -8468 -5248 0
-5252 8468 0
-5252 5248 0
5253 -8415 1545 0
-5253 8415 0
-5253 -1545 0
5254 -1661 5255 0
5254 1661 -5255 0
-5254 1661 5255 0
-5254 -1661 -5255 0
-5255 8466 5256 0
-5255 8379 5256 0
-5255 -1656 5256 0
5255 -5256 0
5255 -8379 -8466 1656 0
-5256 8464 8466 0
-5256 5241 5257 0
-5256 8466 5241 0
-5256 8464 5257 0
5256 -8464 -5241 0
5256 -8466 -5257 0
5257 -8374 -8376 8379 0
-5257 8374 0
-5257 8376 0
-5257 -8379 0
5258 -5237 -5243 -5245 0
5258 -5243 -5245 -5246 0
-5258 5245 0
-5258 5243 0
-5258 5237 5246 0
-5259 5260 5273 5289 0
5259 -5260 0
5259 -5289 0
5259 -5273 0
-5260 5261 5267 0
-5260 5267 5271 0
-5260 5261 5271 0
5260 -5267 -5271 0
5260 -5261 -5267 0
5260 -5261 -5271 0
-5261 5263 5266 0
-5261 -8385 -5262 5263 0
5261 -5263 0
5261 8385 -5266 0
5261 5262 -5266 0
-5262 -8469 -8472 0
-5262 8469 8472 0
5262 8469 -8472 0
5262 -8469 8472 0
-5263 1304 5264 0
-5263 5262 5265 0
-5263 1304 5262 0
-5263 5264 5265 0
5263 -1304 -5265 0
5263 -5262 -5264 0
5264 -8385 8470 0
-5264 8385 0
-5264 -8470 0
5265 -8384 8470 0
-5265 8384 0
-5265 -8470 0
5266 8384 -8470 0
5266 -8470 -1303 0
-5266 8470 0
-5266 -8384 1303 0
-5267 5268 5270 0
-5267 -8381 -5222 5268 0
5267 -5268 0
5267 8381 -5270 0
5267 5222 -5270 0
-5268 1270 5222 0
-5268 8380 5269 0
-5268 1270 5269 0
-5268 8380 5222 0
5268 -8380 -1270 0
5268 -5222 -5269 0
5269 -8381 8393 0
-5269 8381 0
-5269 -8393 0
5270 8380 -8393 0
5270 -8393 -8470 0
5270 -8393 -8471 0
-5270 8393 0
-5270 -8380 8470 8471 0
5271 -8447 5272 0
5271 8447 -5272 0
-5271 8447 5272 0
-5271 -8447 -5272 0
-5272 8375 8377 0
-5272 5198 5213 0
-5272 8377 5213 0
-5272 8375 5198 0
5272 -8377 -5198 0
5272 -8375 -5213 0
5273 -5274 -5286 0
-5273 5274 0
-5273 5286 0
-5274 5275 5281 0
-5274 -5275 -5281 0
5274 -5275 5281 0
5274 5275 -5281 0
-5275 5277 5280 0
-5275 -8436 -5276 5277 0
5275 -5277 0
5275 8436 -5280 0
5275 5276 -5280 0
-5276 -8382 -8383 0
-5276 8382 8383 0
5276 8382 -8383 0
5276 -8382 8383 0
-5277 5278 5276 0
-5277 8406 5279 0
-5277 5278 5279 0
-5277 8406 5276 0
5277 -8406 -5278 0
5277 -5276 -5279 0
5278 8477 -1483 0
-5278 -8477 0
-5278 1483 0
5279 -8436 8477 0
-5279 8436 0
-5279 -8477 0
5280 8406 -8477 0
5280 -8477 -1482 0
-5280 8477 0
-5280 -8406 1482 0
-5281 5283 5285 0
-5281 -8473 -5282 5283 0
5281 -5283 0
5281 8473 -5285 0
5281 5282 -5285 0
-5282 -8386 -8477 0
-5282 8386 8477 0
5282 8386 -8477 0
5282 -8386 8477 0
-5283 8473 5284 0
-5283 -8465 5284 0
-5283 5282 5284 0
5283 -5284 0
5283 8465 -8473 -5282 0
5284 -8474 -1410 0
-5284 8474 0
-5284 1410 0
5285 -8386 -8465 0
5285 -8465 8474 0
5285 -8465 -8477 0
-5285 8465 0
-5285 8386 -8474 8477 0
5286 -8469 5287 0
5286 8469 -5287 0
-5286 8469 5287 0
-5286 -8469 -5287 0
-5287 1744 5288 0
-5287 8475 1744 0
5287 -1744 0
5287 -8475 -5288 0
-5288 -8465 -8467 0
-5288 8465 8467 0
5288 8465 -8467 0
5288 -8465 8467 0
5289 -5275 -5281 0
-5289 5275 0
-5289 5281 0
5290 -5291 -5304 0
-5290 5291 0
-5290 5304 0
5291 -5292 5295 0
5291 5292 -5295 0
-5291 5292 5295 0
-5291 -5292 -5295 0
-5292 -8469 -1693 0
-5292 -8469 -5293 0
-5292 8469 5293 5294 0
5292 8469 -5293 0
5292 -8469 1693 5293 0
5292 8469 -5294 0
5293 -8474 -5288 0
-5293 8474 0
-5293 5288 0
5294 -8475 -1340 0
-5294 8475 0
-5294 1340 0
-5295 5296 5300 0
-5295 -5296 -5300 0
5295 -5296 5300 0
5295 5296 -5300 0
-5296 5297 5299 0
-5296 -8415 -5276 5297 0
5296 -5297 0
5296 8415 -5299 0
5296 5276 -5299 0
-5297 1483 5276 0
-5297 5279 5298 0
-5297 5276 5279 0
-5297 1483 5298 0
5297 -5276 -5298 0
5297 -1483 -5279 0
5298 -8415 8477 0
-5298 8415 0
-5298 -8477 0
5299 8436 -8477 0
5299 -8477 -1482 0
-5299 8477 0
-5299 -8436 1482 0
-5300 -8465 -5301 5303 0
-5300 5301 5302 5303 0
5300 -5303 0
5300 8465 -5301 0
5300 5301 -5302 0
5301 -8406 -5282 0
-5301 8406 0
-5301 5282 0
5302 -8465 -1409 0
5302 -8465 8473 0
-5302 8465 0
-5302 -8473 1409 0
5303 -8473 -1410 0
-5303 8473 0
-5303 1410 0
5304 -5305 5308 0
5304 5305 -5308 0
-5304 5305 5308 0
-5304 -5305 -5308 0
-5305 -8447 -1703 0
-5305 -8447 -5306 0
-5305 8447 5306 5307 0
5305 8447 -5306 0
5305 -8447 1703 5306 0
5305 8447 -5307 0
5306 -8380 -5198 0
-5306 8380 0
-5306 5198 0
5307 -8377 -1244 0
-5307 8377 0
-5307 1244 0
-5308 5309 5313 0
-5308 -5309 -5313 0
5308 -5309 5313 0
5308 5309 -5313 0
-5309 5310 5311 0
-5309 -8476 -5262 5311 0
5309 -5311 0
5309 5262 -5310 0
5309 8476 -5310 0
5310 8385 -8470 0
5310 -8470 -1303 0
-5310 8470 0
-5310 -8385 1303 0
-5311 1304 5262 0
-5311 5264 5312 0
-5311 5262 5264 0
-5311 1304 5312 0
5311 -5262 -5312 0
5311 -1304 -5264 0
5312 8470 -8476 0
-5312 -8470 0
-5312 8476 0
-5313 5314 5315 0
-5313 -8384 -5222 5315 0
5313 -5315 0
5313 5222 -5314 0
5313 8384 -5314 0
5314 8381 -8393 0
5314 -8393 -8470 0
5314 -8393 -8471 0
-5314 8393 0
-5314 -8381 8470 8471 0
-5315 -8393 5316 0
-5315 5222 5316 0
-5315 8384 5316 0
5315 -5316 0
5315 -8384 8393 -5222 0
5316 -8381 8393 -1271 0
-5316 8381 0
-5316 -8393 0
-5316 1271 0
5317 -5260 -5275 -5286 0
5317 -5260 -5281 -5286 0
5317 -5260 -5275 -5281 0
-5317 5275 5281 0
-5317 5275 5286 0
-5317 5260 0
-5317 5281 5286 0
5318 5291 -5304 -5319 0
5318 -5291 5304 -5319 0
-5318 5319 0
-5318 5291 5304 0
-5318 -5291 -5304 0
-5319 -5320 -5328 0
-5319 5320 5328 0
5319 5320 -5328 0
5319 -5320 5328 0
5320 5321 -5323 0
5320 -5322 -5323 0
5320 -5321 5322 5323 0
-5320 5321 5323 0
-5320 -5321 5322 -5323 0
-5320 -5322 5323 0
5321 -1589 -1656 0
5321 8464 -1589 0
-5321 1589 0
-5321 -8464 1656 0
-5322 1590 1657 0
-5322 8464 1590 0
5322 -1590 0
5322 -8464 -1657 0
-5323 5324 5325 -5327 0
-5323 -8383 -5324 5325 0
-5323 8383 5324 5325 0
5323 -5325 0
5323 8383 -5324 0
5323 -8383 5324 5327 0
5324 -8466 -5248 0
-5324 8466 0
-5324 5248 0
5325 -8468 -5326 0
-5325 8468 0
-5325 5326 0
5326 8383 -1546 0
-5326 -8383 0
-5326 1546 0
5327 -8468 1545 0
-5327 8468 0
-5327 -1545 0
5328 -5329 5333 0
-5328 5329 0
-5328 -5333 0
-5329 5251 5331 5332 0
-5329 5330 5331 5332 0
5329 -5332 0
5329 -5331 0
5329 -5251 -5330 0
5330 -8376 0
5330 -8379 5255 0
5330 8379 -5255 0
-5330 8376 -8379 -5255 0
-5330 8376 8379 5255 0
-5331 8376 0
-5331 -8379 -5255 0
-5331 8379 5255 0
5331 -8376 8379 -5255 0
5331 -8376 -8379 5255 0
-5332 1709 5186 0
-5332 8375 1709 0
5332 -1709 0
5332 -8375 -5186 0
5333 -5330 -5332 -5334 0
5333 -5251 -5330 -5332 0
-5333 5330 0
-5333 5332 0
-5333 5251 5334 0
5334 -8376 8379 -5255 0
5334 -8376 -8379 5255 0
-5334 8376 0
-5334 -8379 -5255 0
-5334 8379 5255 0
-5335 5336 5339 0
-5335 -5336 -5339 0
5335 -5336 5339 0
5335 5336 -5339 0
-5336 -5337 -5338 0
-5336 5337 5338 0
5336 5337 -5338 0
5336 -5337 5338 0
5337 -5305 -5313 0
5337 -5309 -5313 0
5337 -5305 -5309 0
-5337 5305 5309 0
-5337 5309 5313 0
-5337 5305 5313 0
5338 -5292 -5300 0
5338 -5296 -5300 0
5338 -5292 -5296 0
-5338 5292 5296 0
-5338 5296 5300 0
-5338 5292 5300 0
-5339 5329 5333 0
-5339 5320 5333 0
5339 -5333 0
5339 -5320 -5329 0
5340 -5341 -5342 0
-5340 5341 0
-5340 5342 0
-5341 5290 5318 0
5341 -5290 0
5341 -5318 0
-5342 5234 5317 0
5342 -5234 0
5342 -5317 0
-5343 5344 5364 0
-5343 -5344 -5364 0
5343 -5344 5364 0
5343 5344 -5364 0
-5344 5345 5362 0
5344 -5345 0
5344 -5362 0
5345 1590 -5346 5353 5358 0
5345 1590 5346 5353 -5358 0
-5345 -5353 0
-5345 5346 5358 0
-5345 -1590 0
-5345 -5346 -5358 0
-5346 5347 5348 0
-5346 -5347 -5348 0
5346 -5347 5348 0
5346 5347 -5348 0
-5347 8383 1546 0
-5347 -8383 -8464 1545 0
-5347 8383 8464 0
5347 -8383 8464 0
5347 8383 -8464 -1546 0
5347 -8383 -1545 0
-5348 5349 5350 0
-5348 -8466 -5276 5350 0
5348 -5350 0
5348 5276 -5349 0
5348 8466 -5349 0
5349 8468 -8477 0
5349 -8477 -1482 0
-5349 8477 0
-5349 -8468 1482 0
-5350 1483 5351 0
-5350 5276 5352 0
-5350 1483 5276 0
-5350 5351 5352 0
5350 -1483 -5352 0
5350 -5276 -5351 0
5351 -8466 8477 0
-5351 8466 0
-5351 -8477 0
5352 -8468 8477 0
-5352 8468 0
-5352 -8477 0
5353 -1589 5354 0
-5353 1589 0
-5353 -5354 0
-5354 5355 5357 0
-5354 -8464 -5248 5355 0
5354 -5355 0
5354 8464 -5357 0
5354 5248 -5357 0
-5355 8464 5356 0
-5355 -8383 5356 0
-5355 5248 5356 0
5355 -5356 0
5355 8383 -8464 -5248 0
5356 -8466 -5326 0
-5356 8466 0
-5356 5326 0
5357 -8383 -1545 0
5357 -8383 8466 0
-5357 8383 0
-5357 -8466 1545 0
-5358 5359 5361 0
-5358 -8415 -5282 5359 0
5358 -5359 0
5358 8415 -5361 0
5358 5282 -5361 0
-5359 1410 5360 0
-5359 8415 8436 0
-5359 8436 5360 0
-5359 8415 1410 0
5359 -8436 -1410 0
5359 -8415 -5360 0
5360 8465 -5282 0
-5360 -8465 0
-5360 5282 0
5361 -8386 -8465 0
5361 8436 -8465 0
5361 -8465 -8477 0
-5361 8465 0
-5361 8386 -8436 8477 0
5362 -1589 -5346 -5358 5363 0
5362 -1589 5346 5358 5363 0
-5362 -5363 0
-5362 5346 -5358 0
-5362 1589 0
-5362 -5346 5358 0
5363 1590 -5354 0
-5363 -1590 0
-5363 5354 0
-5364 5365 5380 0
-5364 -5365 -5380 0
5364 -5365 5380 0
5364 5365 -5380 0
-5365 5366 5377 0
-5365 -5366 -5377 0
5365 -5366 5377 0
5365 5366 -5377 0
-5366 5367 5372 0
-5366 -5367 -5372 0
5366 -5367 5372 0
5366 5367 -5372 0
-5367 8469 5368 0
-5367 5368 -5371 0
5367 -5368 0
5367 -8469 5371 0
-5368 5369 5288 0
-5368 8473 5370 0
-5368 5369 5370 0
-5368 8473 5288 0
5368 -8473 -5369 0
5368 -5288 -5370 0
5369 8469 -1340 0
-5369 -8469 0
-5369 1340 0
5370 -8406 8469 0
-5370 8406 0
-5370 -8469 0
-5371 -1339 5288 0
-5371 8406 8473 0
-5371 8473 5288 0
-5371 8406 -1339 0
5371 -8473 1339 0
5371 -8406 -5288 0
-5372 5373 5374 0
-5372 -8474 -5262 5374 0
5372 -5374 0
5372 5262 -5373 0
5372 8474 -5373 0
5373 -8470 -1303 0
5373 -8470 8475 0
-5373 8470 0
-5373 -8475 1303 0
-5374 1304 5375 0
-5374 5262 5376 0
-5374 1304 5262 0
-5374 5375 5376 0
5374 -1304 -5376 0
5374 -5262 -5375 0
5375 8470 -8474 0
-5375 -8470 0
-5375 8474 0
5376 8470 -8475 0
-5376 -8470 0
-5376 8475 0
-5377 8385 5378 0
-5377 1270 5378 0
5377 -5378 0
5377 -8385 -1270 0
5378 8393 -5379 0
5378 -8393 -8471 5379 0
5378 -8393 5264 5379 0
-5378 -8393 -5379 0
-5378 8393 5379 0
-5378 -8393 8471 -5264 0
5379 -8476 -5222 0
-5379 8476 0
-5379 5222 0
-5380 -5381 -5382 0
-5380 5381 5382 0
5380 5381 -5382 0
5380 -5381 5382 0
-5381 1574 5186 0
-5381 8380 1574 0
5381 -1574 0
5381 -8380 -5186 0
5382 8447 -5383 0
5382 8384 -5383 0
5382 5198 -5383 0
-5382 5383 0
-5382 -8384 -8447 -5198 0
5383 8381 -5385 0
5383 5384 -5385 0
-5383 5385 0
-5383 -8381 -5384 0
5384 -8447 1243 0
-5384 8447 0
-5384 -1243 0
-5385 8384 8447 5386 0
-5385 8447 5198 5386 0
5385 -5386 0
5385 -8447 0
5385 -8384 -5198 0
5386 -8381 -8393 -8403 0
-5386 8381 0
-5386 8393 0
-5386 8403 0
5387 -5388 5420 0
5387 5388 -5420 0
-5387 5388 5420 0
-5387 -5388 -5420 0
5388 -5389 5395 0
5388 5389 -5395 0
-5388 5389 5395 0
-5388 -5389 -5395 0
5389 -5392 -5393 0
5389 -5390 -5393 0
-5389 5393 0
-5389 5390 5392 0
-5390 5391 0
-5390 5322 5323 0
-5390 5321 5322 0
5390 -5322 -5391 0
5390 -5321 -5323 -5391 0
-5391 1651 5186 0
-5391 8377 1651 0
5391 -1651 0
5391 -8377 -5186 0
5392 -1661 5354 0
5392 1661 -5354 0
-5392 1661 5354 0
-5392 -1661 -5354 0
-5393 5322 5394 5391 0
5393 -5322 0
5393 -5394 0
5393 -5391 0
5394 -5321 -5323 0
-5394 5321 0
-5394 5323 0
-5395 -5396 -5407 0
-5395 5396 5407 0
5395 5396 -5407 0
5395 -5396 5407 0
5396 -5397 -5404 0
5396 -5401 -5404 0
5396 -5397 -5401 0
-5396 5397 5401 0
-5396 5401 5404 0
-5396 5397 5404 0
-5397 5398 5400 0
-5397 -8436 -5282 5398 0
5397 -5398 0
5397 8436 -5400 0
5397 5282 -5400 0
-5398 -8465 5399 0
-5398 5282 5399 0
-5398 8436 5399 0
5398 -5399 0
5398 -8436 8465 -5282 0
5399 -8406 -1410 0
-5399 8406 0
-5399 1410 0
5400 8406 -8465 0
5400 -8465 -1409 0
-5400 8465 0
-5400 -8406 1409 0
-5401 5402 5403 0
-5401 -8468 -5276 5402 0
5401 -5402 0
5401 8468 -5403 0
5401 5276 -5403 0
-5402 1483 5276 0
-5402 5298 5352 0
-5402 5276 5298 0
-5402 1483 5352 0
5402 -5276 -5352 0
5402 -1483 -5298 0
5403 8415 -8477 0
5403 -8477 -1482 0
-5403 8477 0
-5403 -8415 1482 0
-5404 -8469 -1635 0
-5404 -8469 -5405 0
-5404 8469 5405 5406 0
5404 8469 -5405 0
5404 -8469 1635 5405 0
5404 8469 -5406 0
5405 -8473 -5288 0
-5405 8473 0
-5405 5288 0
5406 -8474 -1340 0
-5406 8474 0
-5406 1340 0
5407 -5408 -5416 0
5407 -5412 -5416 0
5407 -5408 -5412 0
-5407 5408 5412 0
-5407 5412 5416 0
-5407 5408 5416 0
-5408 5409 5410 0
-5408 -8385 -5222 5410 0
5408 -5410 0
5408 5222 -5409 0
5408 8385 -5409 0
5409 8384 -8393 0
5409 -8393 -8470 0
5409 -8393 -8471 0
-5409 8393 0
-5409 -8384 8470 8471 0
-5410 -8393 5411 0
-5410 5222 5411 0
-5410 8385 5411 0
5410 -5411 0
5410 -8385 8393 -5222 0
5411 -8384 8393 -1271 0
-5411 8384 0
-5411 -8393 0
-5411 1271 0
-5412 5262 5413 5414 0
-5412 5376 5413 5414 0
5412 -5414 0
5412 -5413 0
5412 -5262 -5376 0
5413 8470 -8476 -1304 0
-5413 1304 0
-5413 8476 0
-5413 -8470 0
5414 -8470 8475 5415 0
5414 -8470 5262 5415 0
-5414 8470 0
-5414 -5415 0
-5414 -8475 -5262 0
5415 -8476 1303 0
-5415 8476 0
-5415 -1303 0
-5416 -8447 -5417 0
-5416 -8447 -5418 0
-5416 8447 5418 5419 0
5416 8447 -5418 0
5416 -8447 5417 5418 0
5416 8447 -5419 0
5417 -8380 -5213 0
-5417 8380 0
-5417 5213 0
5418 -8381 -5198 0
-5418 8381 0
-5418 5198 0
5419 -8380 -1244 0
-5419 8380 0
-5419 1244 0
-5420 5421 5428 0
-5420 -5421 -5428 0
5420 -5421 5428 0
5420 5421 -5428 0
-5421 5422 5424 0
-5421 5424 5426 0
-5421 5422 5426 0
5421 -5424 -5426 0
5421 -5422 -5424 0
5421 -5422 -5426 0
5422 -5416 5423 0
5422 5416 -5423 0
-5422 5416 5423 0
-5422 -5416 -5423 0
-5423 5408 5412 0
-5423 -5408 -5412 0
5423 -5408 5412 0
5423 5408 -5412 0
-5424 -5404 -5425 0
-5424 5404 5425 0
5424 5404 -5425 0
5424 -5404 5425 0
5425 -5397 5401 0
5425 5397 -5401 0
-5425 5397 5401 0
-5425 -5397 -5401 0
-5426 -5392 -5427 0
-5426 5392 5427 0
5426 5392 -5427 0
5426 -5392 5427 0
5427 5390 -5393 0
-5427 -5390 0
-5427 5393 0
-5428 5338 5339 0
-5428 5337 5338 0
-5428 5337 5339 0
5428 -5337 -5338 0
5428 -5338 -5339 0
5428 -5337 -5339 0
5429 -5430 5439 0
5429 5430 -5439 0
-5429 5430 5439 0
-5429 -5430 -5439 0
5430 -5431 5432 0
5430 5431 -5432 0
-5430 5431 5432 0
-5430 -5431 -5432 0
-5431 5344 5380 0
-5431 5344 -5365 0
-5431 -5365 5380 0
5431 5365 -5380 0
5431 -5344 -5380 0
5431 -5344 5365 0
-5432 5433 5434 0
-5432 -5433 -5434 0
5432 -5433 5434 0
5432 5433 -5434 0
5433 -5389 -5396 0
5433 -5396 -5407 0
5433 -5389 -5407 0
-5433 5389 5407 0
-5433 5396 5407 0
-5433 5389 5396 0
-5434 -5345 -5435 0
-5434 5345 5435 0
5434 5345 -5435 0
5434 -5345 5435 0
5435 5436 -5438 0
-5435 -5436 0
-5435 5438 0
5436 -5367 -5372 -5437 0
5436 -5367 -5377 -5437 0
5436 -5372 -5377 -5437 0
-5436 5367 5372 0
-5436 5372 5377 0
-5436 5437 0
-5436 5367 5377 0
-5437 5381 5382 0
5437 -5381 0
5437 -5382 0
-5438 5367 5372 5437 0
-5438 5367 5377 5437 0
-5438 5372 5377 5437 0
5438 -5367 -5377 0
5438 -5372 -5377 0
5438 -5437 0
5438 -5367 -5372 0
-5439 5440 5441 0
-5439 -5388 -5440 -5441 0
-5439 -5441 -5476 0
-5439 5388 5441 5476 0
5439 5388 -5441 5476 0
5439 -5440 5441 -5476 0
5439 -5388 -5440 5441 0
5439 5440 -5441 5476 0
-5440 5421 5428 0
5440 -5421 0
5440 -5428 0
-5441 -5442 -5450 0
-5441 5442 5450 0
5441 5442 -5450 0
5441 -5442 5450 0
-5442 -5443 -5449 0
-5442 5443 5449 0
5442 5443 -5449 0
5442 -5443 5449 0
-5443 -5444 -5445 0
-5443 5444 5445 0
5443 5444 -5445 0
5443 -5444 5445 0
-5444 1537 5186 0
-5444 8381 1537 0
5444 -1537 0
5444 -8381 -5186 0
5445 8447 -5446 5448 0
5445 -8447 5447 5448 0
5445 8447 -5447 5448 0
-5445 -5448 0
-5445 -8447 -5447 0
-5445 8447 5446 5447 0
5446 -8384 -5213 0
-5446 8384 0
-5446 5213 0
5447 -8385 -5198 0
-5447 8385 0
-5447 5198 0
5448 -8384 -5384 0
-5448 8384 0
-5448 5384 0
5449 -5347 -5358 0
5449 -5348 -5358 0
5449 -5347 -5348 0
-5449 5347 5348 0
-5449 5348 5358 0
-5449 5347 5358 0
5450 5451 -5465 0
5450 -5451 5465 0
-5450 -5451 -5465 0
-5450 5451 5465 0
5451 -5452 5456 0
5451 5452 -5456 0
-5451 5452 5456 0
-5451 -5452 -5456 0
-5452 -8393 -5453 0
-5452 -8393 -5454 0
-5452 8393 5454 5455 0
5452 8393 -5454 0
5452 -8393 5453 5454 0
5452 8393 -5455 0
5453 -8476 -5221 0
-5453 8476 0
-5453 5221 0
5454 -8475 -5222 0
-5454 8475 0
-5454 5222 0
5455 -8470 -8471 -8476 0
-5455 8470 0
-5455 8471 0
-5455 8476 0
-5456 5457 5461 0
-5456 -5457 -5461 0
5456 -5457 5461 0
5456 5457 -5461 0
-5457 5458 5460 0
-5457 -8436 -5288 5458 0
5457 -5458 0
5457 8436 -5460 0
5457 5288 -5460 0
-5458 1340 5288 0
-5458 5370 5459 0
-5458 5288 5370 0
-5458 1340 5459 0
5458 -5288 -5459 0
5458 -1340 -5370 0
5459 -8436 8469 0
-5459 8436 0
-5459 -8469 0
5460 8406 -8469 0
5460 -8469 -1339 0
-5460 8469 0
-5460 -8406 1339 0
-5461 5462 5464 0
-5461 -8473 -5262 5462 0
5461 -5462 0
5461 8473 -5464 0
5461 5262 -5464 0
-5462 8473 5463 0
-5462 -8470 5463 0
-5462 5262 5463 0
5462 -5463 0
5462 8470 -8473 -5262 0
5463 8470 -8474 -1304 0
-5463 1304 0
-5463 8474 0
-5463 -8470 0
5464 -8470 -1303 0
5464 -8470 8474 0
-5464 8470 0
-5464 -8474 1303 0
5465 5466 -5470 0
5465 -5466 5470 0
-5465 -5466 -5470 0
-5465 5466 5470 0
5466 8465 -5468 0
5466 -8465 5467 5469 0
5466 8465 -5467 0
-5466 -8465 -5467 0
-5466 -8465 -5469 0
-5466 8465 5467 5468 0
5467 -8468 -5282 0
-5467 8468 0
-5467 5282 0
5468 -8415 -1411 0
-5468 8415 0
-5468 1411 0
5469 -8415 1409 0
-5469 8415 0
-5469 -1409 0
5470 -8383 5471 0
5470 8383 -5471 0
-5470 8383 5471 0
-5470 -8383 -5471 0
-5471 8477 5472 0
-5471 5472 -5474 0
-5471 5472 -5475 0
5471 -5472 0
5471 -8477 5474 5475 0
-5472 -8477 0
-5472 1483 5473 0
-5472 8466 -1483 0
5472 8477 1483 -5473 0
5472 -8466 8477 -1483 0
5473 -8464 -1482 0
-5473 8464 0
-5473 1482 0
5474 1483 -5473 0
-5474 -1483 0
-5474 5473 0
5475 -8466 1482 0
-5475 8466 0
-5475 -1482 0
5476 -5421 -5428 0
-5476 5421 0
-5476 5428 0
-5477 5478 5591 0
5477 -5478 0
5477 -5591 0
5478 -5479 5554 0
5478 5479 -5554 0
-5478 5479 5554 0
-5478 -5479 -5554 0
5479 -5480 5553 0
5479 -5512 5553 0
-5479 -5553 0
-5479 5480 5512 0
5480 5481 -5505 -5506 0
5480 5481 -5505 -5507 0
5480 5481 -5506 -5507 0
-5480 5505 5507 0
-5480 5505 5506 0
-5480 -5481 0
-5480 5506 5507 0
5481 5482 -5485 5489 5490 0
5481 -5482 -5485 -5489 5490 0
5481 -5482 5485 5489 5490 0
5481 5482 5485 -5489 5490 0
5481 5482 5485 5489 -5490 0
5481 -5482 -5485 5489 -5490 0
5481 5482 -5485 -5489 -5490 0
5481 -5482 5485 -5489 -5490 0
-5481 -5482 -5485 -5489 -5490 0
-5481 5482 -5485 5489 -5490 0
-5481 5482 -5485 -5489 5490 0
-5481 -5482 5485 5489 -5490 0
-5481 -5482 -5485 5489 5490 0
-5481 5482 5485 -5489 -5490 0
-5481 5482 5485 5489 5490 0
-5481 -5482 5485 -5489 5490 0
5482 8469 -5483 0
5482 -8469 5483 5484 0
5482 8469 -1444 0
-5482 -8469 -5483 0
-5482 8469 1444 5483 0
-5482 -8469 -5484 0
5483 -8468 -5288 0
-5483 8468 0
-5483 5288 0
5484 -8415 1339 0
-5484 8415 0
-5484 -1339 0
-5485 -8465 8477 -5486 0
-5485 -8465 -8477 5486 0
-5485 8465 -8477 -5486 0
-5485 8465 8477 5486 0
5485 -8465 8477 5486 0
5485 -8465 -8477 -5486 0
5485 8465 -8477 5486 0
5485 8465 8477 -5486 0
-5486 8466 5487 0
-5486 1411 5487 0
-5486 -8465 5487 0
5486 -5487 0
5486 8465 -8466 -1411 0
-5487 8466 5488 0
-5487 -1409 5488 0
-5487 8465 5488 0
5487 -5488 0
5487 -8465 -8466 1409 0
5488 -8464 -5282 0
-5488 8464 0
-5488 5282 0
-5489 1500 5186 0
-5489 8384 1500 0
5489 -1500 0
5489 -8384 -5186 0
5490 -5491 5495 0
5490 5491 -5495 0
-5490 5491 5495 0
-5490 -5491 -5495 0
5491 8447 -5493 0
5491 -8447 5493 5494 0
5491 8447 -5492 0
-5491 -8447 -5493 0
-5491 8447 5492 5493 0
-5491 -8447 -5494 0
5492 -8476 -5213 0
-5492 8476 0
-5492 5213 0
5493 -8475 -5198 0
-5493 8475 0
-5493 5198 0
5494 -8476 1243 0
-5494 8476 0
-5494 -1243 0
-5495 5496 5500 0
-5495 -5496 -5500 0
5495 -5496 5500 0
5495 5496 -5500 0
-5496 5497 5499 0
-5496 -8473 -5222 5497 0
5496 -5497 0
5496 8473 -5499 0
5496 5222 -5499 0
-5497 1270 5222 0
-5497 8474 5498 0
-5497 1270 5498 0
-5497 8474 5222 0
5497 -8474 -1270 0
5497 -5222 -5498 0
5498 8393 -8473 0
-5498 -8393 0
-5498 8473 0
5499 -8393 -8470 0
5499 -8393 8474 0
5499 -8393 -8471 0
-5499 8393 0
-5499 8470 8471 -8474 0
-5500 5501 5504 0
-5500 -8436 -5262 5501 0
5500 -5501 0
5500 8436 -5504 0
5500 5262 -5504 0
-5501 -8470 5502 0
-5501 5262 5502 0
-5501 8436 5502 0
5501 -5502 0
5501 -8436 8470 -5262 0
5502 -8406 -5503 0
-5502 8406 0
-5502 5503 0
5503 8470 -1304 0
-5503 -8470 0
-5503 1304 0
5504 -8469 -8470 0
5504 -8470 -8472 0
5504 8406 -8470 0
-5504 8470 0
-5504 -8406 8469 8472 0
5505 -5451 5465 0
5505 -5442 5465 0
5505 -5442 -5451 0
-5505 5442 -5465 0
-5505 5442 5451 0
-5505 5451 -5465 0
-5506 5436 5438 0
-5506 5345 5436 0
5506 -5436 0
5506 -5345 -5438 0
-5507 -5508 -5509 0
-5507 5508 5509 0
5507 5508 -5509 0
5507 -5508 5509 0
-5508 5445 5449 0
-5508 5444 5445 0
-5508 5444 5449 0
5508 -5444 -5445 0
5508 -5445 -5449 0
5508 -5444 -5449 0
5509 5510 -5511 0
5509 -5510 5511 0
-5509 -5510 -5511 0
-5509 5510 5511 0
5510 -5452 -5461 0
5510 -5457 -5461 0
5510 -5452 -5457 0
-5510 5452 5457 0
-5510 5457 5461 0
-5510 5452 5461 0
5511 -5466 -5471 0
5511 8383 -5471 0
5511 8383 -5466 0
-5511 -8383 5471 0
-5511 -8383 5466 0
-5511 5466 5471 0
-5512 -5513 -5515 0
-5512 5513 5515 0
5512 5513 -5515 0
5512 -5513 5515 0
-5513 5514 5509 0
-5513 5508 5514 0
5513 -5514 0
5513 -5508 -5509 0
5514 -5510 -5511 0
-5514 5510 0
-5514 5511 0
5515 5516 -5552 0
-5515 -5516 0
-5515 5552 0
5516 -5517 -5546 0
-5516 5517 0
-5516 5546 0
5517 5518 5533 -5545 0
5517 5518 5533 -5544 0
-5517 -5518 0
-5517 -5533 0
-5517 5544 5545 0
-5518 5489 0
-5518 5519 -5529 0
-5518 -5519 5529 0
5518 -5489 5519 5529 0
5518 -5489 -5519 -5529 0
-5519 -5520 -5524 0
-5519 5520 5524 0
5519 5520 -5524 0
5519 -5520 5524 0
5520 5521 -5523 0
5520 -8474 -5222 5521 0
-5520 -5521 0
-5520 8474 5523 0
-5520 5222 5523 0
-5521 8474 5522 0
-5521 5222 5522 0
-5521 8393 5522 0
5521 -5522 0
5521 -8393 -8474 -5222 0
5522 -8475 -1268 0
-5522 8475 0
-5522 1268 0
-5523 8393 1271 0
-5523 8393 8475 0
5523 -8393 0
5523 -8475 -1271 0
5524 8470 -5525 5527 0
5524 -8470 5526 5527 0
5524 8470 -5526 5527 0
-5524 -5527 0
-5524 -8470 -5526 0
-5524 8470 5525 5526 0
5525 -8473 -1304 0
-5525 8473 0
-5525 1304 0
5526 -8406 -5262 0
-5526 8406 0
-5526 5262 0
5527 -8473 -5528 0
-5527 8473 0
-5527 5528 0
5528 -8470 1303 0
-5528 8470 0
-5528 -1303 0
-5529 -8447 -5530 0
-5529 -8447 -5531 0
-5529 8447 5531 5532 0
5529 8447 -5531 0
5529 -8447 5530 5531 0
5529 8447 -5532 0
5530 -8385 -5213 0
-5530 8385 0
-5530 5213 0
5531 -8476 -5198 0
-5531 8476 0
-5531 5198 0
5532 -8385 -1244 0
-5532 8385 0
-5532 1244 0
-5533 5489 0
-5533 5534 -5540 0
-5533 -5534 5540 0
5533 -5489 5534 5540 0
5533 -5489 -5534 -5540 0
-5534 5535 5536 0
-5534 -5535 -5536 0
5534 -5535 5536 0
5534 5535 -5536 0
-5535 8477 1483 0
-5535 8464 8477 0
-5535 -8464 -8477 1482 0
5535 -8477 -1482 0
5535 -8464 8477 -1483 0
5535 8464 -8477 0
-5536 5537 5539 0
-5536 -8466 -5282 5537 0
5536 -5537 0
5536 8466 -5539 0
5536 5282 -5539 0
-5537 1410 5282 0
-5537 8468 5538 0
-5537 1410 5538 0
-5537 8468 5282 0
5537 -8468 -1410 0
5537 -5282 -5538 0
5538 8465 -8466 0
-5538 -8465 0
-5538 8466 0
5539 -8386 -8465 0
5539 -8465 8468 0
5539 -8465 -8477 0
-5539 8465 0
-5539 8386 -8468 8477 0
-5540 5541 5542 -5543 0
-5540 -8469 -5541 5542 0
-5540 8469 5541 5542 0
5540 -5542 0
5540 8469 -5541 0
5540 -8469 5541 5543 0
5541 -8415 -5288 0
-5541 8415 0
-5541 5288 0
5542 -8436 8469 -1340 0
-5542 8436 0
-5542 -8469 0
-5542 1340 0
5543 -8436 1339 0
-5543 8436 0
-5543 -1339 0
5544 -5519 5529 0
5544 5519 -5529 0
-5544 5519 5529 0
-5544 -5519 -5529 0
5545 -5534 5540 0
5545 5534 -5540 0
-5545 5534 5540 0
-5545 -5534 -5540 0
5546 5547 -5548 0
5546 -5547 5548 0
-5546 -5547 -5548 0
-5546 5547 5548 0
-5547 5524 5529 0
-5547 5520 5524 0
-5547 5520 5529 0
5547 -5520 -5524 0
5547 -5524 -5529 0
5547 -5520 -5529 0
5548 -5549 5551 0
-5548 5549 0
-5548 -5551 0
-5549 5535 5536 5550 0
-5549 5535 5540 5550 0
-5549 5536 5540 5550 0
5549 -5535 -5540 0
5549 -5536 -5540 0
5549 -5550 0
5549 -5535 -5536 0
-5550 1477 5186 0
-5550 8385 1477 0
5550 -1477 0
5550 -8385 -5186 0
-5551 5535 5536 0
-5551 5536 5540 0
-5551 5550 0
-5551 5535 5540 0
5551 -5535 -5536 -5550 0
5551 -5535 -5540 -5550 0
5551 -5536 -5540 -5550 0
-5552 5517 5546 0
5552 -5517 0
5552 -5546 0
5553 -5481 5505 5506 0
5553 -5481 5505 5507 0
5553 -5481 5506 5507 0
-5553 -5505 -5506 0
-5553 -5506 -5507 0
-5553 5481 0
-5553 -5505 -5507 0
-5554 5562 -5590 0
-5554 5555 5562 0
-5554 5562 -5589 0
5554 -5562 0
5554 -5555 5589 5590 0
-5555 5556 5557 0
-5555 -5556 -5557 0
5555 -5556 5557 0
5555 5556 -5557 0
-5556 5489 5490 0
-5556 5482 -5485 5490 0
-5556 -5482 5485 5490 0
-5556 -5482 5485 5489 0
-5556 5482 -5485 5489 0
5556 -5489 -5490 0
5556 5482 5485 -5490 0
5556 5482 5485 -5489 0
5556 -5482 -5485 -5489 0
5556 -5482 -5485 -5490 0
-5557 5558 5561 0
-5557 -5558 -5561 0
5557 -5558 5561 0
5557 5558 -5561 0
-5558 5559 5560 0
-5558 -5559 -5560 0
5558 -5559 5560 0
5558 5559 -5560 0
5559 -5500 -5491 0
5559 -5496 -5500 0
5559 -5496 -5491 0
-5559 5496 5500 0
-5559 5500 5491 0
-5559 5496 5491 0
-5560 -8477 5482 0
-5560 8465 -8477 5486 0
-5560 -8465 -5486 5482 0
-5560 -8465 -8477 -5486 0
-5560 8465 5486 5482 0
5560 8477 -5482 0
5560 8465 -5486 -5482 0
5560 -8465 8477 5486 0
5560 -8465 5486 -5482 0
5560 8465 8477 -5486 0
-5561 5549 5551 0
-5561 5547 5551 0
5561 -5551 0
5561 -5547 -5549 0
5562 -5563 5555 -5586 0
-5562 5563 0
-5562 -5555 0
-5562 5586 0
5563 5516 -5564 0
5563 -5517 5564 0
5563 -5513 5564 0
-5563 -5516 -5564 0
-5563 5513 5517 5564 0
5564 -5565 5574 0
5564 5565 -5574 0
-5564 5565 5574 0
-5564 -5565 -5574 0
-5565 -5566 -5568 0
-5565 5566 5568 0
5565 5566 -5568 0
5565 -5566 5568 0
-5566 8470 5567 0
-5566 -8470 -5567 0
5566 -8470 5567 0
5566 8470 -5567 0
-5567 1405 5262 0
-5567 8415 1405 0
5567 -1405 0
5567 -8415 -5262 0
5568 -5569 5570 0
5568 5569 -5570 0
-5568 5569 5570 0
-5568 -5569 -5570 0
-5569 8465 1410 0
-5569 8464 8465 0
-5569 -8464 1409 1410 0
5569 8464 -8465 0
5569 -8464 -1410 0
5569 -8465 -1409 0
-5570 8468 5571 5573 0
-5570 5369 5571 5573 0
5570 -5573 0
5570 -5571 0
5570 -8468 -5369 0
5571 8466 -8469 5572 0
5571 -8469 5288 5572 0
-5571 8469 0
-5571 -5572 0
-5571 -8466 -5288 0
5572 -8468 1339 0
-5572 8468 0
-5572 -1339 0
5573 -8466 8469 -5288 0
-5573 8466 0
-5573 5288 0
-5573 -8469 0
-5574 5575 5576 0
-5574 -5575 -5576 0
5574 -5575 5576 0
5574 5575 -5576 0
-5575 1421 5186 0
-5575 8476 1421 0
5575 -1421 0
5575 -8476 -5186 0
-5576 5577 5581 0
-5576 -5577 -5581 0
5576 -5577 5581 0
5576 5577 -5581 0
-5577 5578 5580 0
-5577 -8406 -5222 5578 0
5577 -5578 0
5577 8406 -5580 0
5577 5222 -5580 0
-5578 8406 5579 0
-5578 -8393 5579 0
-5578 5222 5579 0
5578 -5579 0
5578 8393 -8406 -5222 0
5579 8393 -8473 -1271 0
-5579 1271 0
-5579 8473 0
-5579 -8393 0
5580 -8393 -1269 0
5580 -8393 8473 0
-5580 8393 0
-5580 -8473 1269 0
-5581 5582 5585 0
-5581 -8474 -5198 5582 0
5581 -5582 0
5581 8474 -5585 0
5581 5198 -5585 0
-5582 8474 5583 0
-5582 -8447 5583 0
-5582 5198 5583 0
5582 -5583 0
5582 8447 -8474 -5198 0
5583 -8475 -5584 0
-5583 8475 0
-5583 5584 0
5584 8447 -1244 0
-5584 -8447 0
-5584 1244 0
5585 -8447 -1243 0
5585 -8447 8475 0
-5585 8447 0
-5585 -8475 1243 0
5586 5587 -5588 0
5586 5564 -5587 0
5586 -5546 5587 0
-5586 -5564 -5587 0
-5586 5546 5587 5588 0
5587 -5513 -5552 0
-5587 5513 0
-5587 5552 0
-5588 5565 5574 0
-5588 -5565 -5574 0
5588 -5565 5574 0
5588 5565 -5574 0
-5589 -5513 -5588 0
-5589 5513 5517 5588 0
-5589 5546 5588 0
-5589 -5517 -5546 -5588 0
5589 5513 5546 -5588 0
5589 -5513 -5546 5588 0
5589 5513 5517 -5588 0
5589 -5517 -5546 5588 0
-5590 5513 -5517 0
-5590 5517 -5546 0
-5590 5517 5588 0
-5590 -5517 -5588 0
5590 -5513 -5517 5588 0
5590 5517 5546 -5588 0
5591 -5592 5594 0
-5591 5592 0
-5591 -5594 0
5592 -5512 5593 0
5592 5512 -5593 0
-5592 5512 5593 0
-5592 -5512 -5593 0
-5593 5480 5553 0
5593 -5480 0
5593 -5553 0
5594 -5595 5600 0
5594 -5597 5600 0
-5594 -5600 0
-5594 5595 5597 0
5595 -5507 5596 0
5595 5507 -5596 0
-5595 5507 5596 0
-5595 -5507 -5596 0
-5596 5505 5506 0
-5596 -5505 -5506 0
5596 -5505 5506 0
5596 5505 -5506 0
5597 5431 -5433 5598 0
5597 5431 -5434 5598 0
5597 -5433 -5434 5598 0
-5597 5433 5434 0
-5597 -5431 5433 0
-5597 -5598 0
-5597 -5431 5434 0
-5598 5489 5599 0
-5598 -5489 -5599 0
5598 -5489 5599 0
5598 5489 -5599 0
-5599 -5544 -5545 0
-5599 5544 5545 0
5599 5544 -5545 0
5599 -5544 5545 0
5600 -5431 5433 -5598 0
5600 5433 5434 -5598 0
5600 -5431 5434 -5598 0
-5600 5431 -5433 0
-5600 -5433 -5434 0
-5600 5598 0
-5600 5431 -5434 0
-5601 5602 5611 5641 0
5601 -5602 0
5601 -5641 0
5601 -5611 0
5602 -5603 5610 0
-5602 5603 0
-5602 -5610 0
5603 -5604 -5606 0
-5603 5604 0
-5603 5606 0
-5604 5595 5605 0
-5604 -5595 -5605 0
5604 -5595 5605 0
5604 5595 -5605 0
-5605 5597 5600 0
5605 -5597 0
5605 -5600 0
5606 -5430 5607 0
5606 5607 5608 -5609 0
-5606 -5607 0
-5606 5430 5609 0
-5606 5430 -5608 0
5607 -5388 -5440 5441 0
5607 -5440 5441 -5476 0
-5607 -5441 0
-5607 5440 0
-5607 5388 5476 0
5608 -5388 -5440 0
-5608 5388 0
-5608 5440 0
5609 -5441 5476 0
-5609 5441 0
-5609 -5476 0
5610 5592 -5594 0
-5610 -5592 0
-5610 5594 0
5611 5612 -5613 0
5611 -5612 5613 0
-5611 -5612 -5613 0
-5611 5612 5613 0
-5612 5564 -5555 0
-5612 5516 5564 5587 0
-5612 5516 -5555 5587 0
5612 -5516 -5564 0
5612 5555 -5587 0
5612 -5564 5555 0
5612 -5516 5555 0
5612 -5564 -5587 0
5613 -5614 5628 0
5613 5614 -5628 0
-5613 5614 5628 0
-5613 -5614 -5628 0
5614 5615 -5627 0
5614 -5615 5627 0
-5614 -5615 -5627 0
-5614 5615 5627 0
5615 -5616 5623 0
5615 5616 -5623 0
-5615 5616 5623 0
-5615 -5616 -5623 0
5616 5617 -5619 0
5616 -5617 5619 0
-5616 -5617 -5619 0
-5616 5617 5619 0
-5617 8470 5618 0
-5617 -8470 -5618 0
5617 -8470 5618 0
5617 8470 -5618 0
-5618 1373 5262 0
-5618 8468 1373 0
5618 -1373 0
5618 -8468 -5262 0
5619 8465 -5620 0
5619 -8465 5620 0
-5619 -8465 -5620 0
-5619 8465 5620 0
5620 8469 -5621 0
5620 -8469 5621 5622 0
5620 8469 -1370 0
-5620 -8469 -5621 0
-5620 8469 1370 5621 0
-5620 -8469 -5622 0
5621 -8464 -5288 0
-5621 8464 0
-5621 5288 0
5622 -8466 1339 0
-5622 8466 0
-5622 -1339 0
-5623 -5624 -5626 0
-5623 5624 5626 0
5623 5624 -5626 0
5623 -5624 5626 0
5624 -5625 -5566 0
5624 -5569 -5566 0
5624 -5625 -5569 0
-5624 5625 5569 0
-5624 5569 5566 0
-5624 5625 5566 0
-5625 8468 5571 5573 0
-5625 5369 5571 5573 0
5625 -5573 0
5625 -5571 0
5625 -8468 -5369 0
5626 -5577 -5575 0
5626 -5581 -5575 0
5626 -5577 -5581 0
-5626 5577 5581 0
-5626 5581 5575 0
-5626 5577 5575 0
5627 5558 -5561 0
5627 -5556 -5561 0
5627 -5556 5558 0
-5627 5556 5561 0
-5627 5556 -5558 0
-5627 -5558 5561 0
-5628 5629 5638 0
-5628 -5629 -5638 0
5628 -5629 5638 0
5628 5629 -5638 0
5629 5630 -5635 0
5629 -5635 -5636 0
5629 -5630 5635 5636 0
-5629 5630 5635 0
-5629 5635 -5636 0
-5629 -5630 -5635 5636 0
-5630 8447 5631 5633 0
-5630 -8447 -5631 5633 0
5630 -5633 0
5630 8447 -5631 0
5630 -8447 5631 0
-5631 5198 5632 0
-5631 8473 5632 0
5631 -5632 0
5631 -8473 -5198 0
5632 -8474 -5213 0
-5632 8474 0
-5632 5213 0
-5633 8393 5634 0
-5633 -8393 -5634 0
5633 -8393 5634 0
5633 8393 -5634 0
-5634 8406 8436 0
-5634 5221 5222 0
-5634 8406 5222 0
-5634 8436 5221 0
5634 -8406 -5221 0
5634 -8436 -5222 0
-5635 1398 5186 0
-5635 8475 1398 0
5635 -1398 0
5635 -8475 -5186 0
5636 8447 -5632 -5633 0
5636 8447 -5637 -5633 0
5636 -8447 5632 5637 -5633 0
-5636 -8447 -5632 0
-5636 -8447 -5637 0
-5636 5633 0
-5636 8447 5632 5637 0
5637 -8473 -5198 0
-5637 8473 0
-5637 5198 0
-5638 5639 5640 0
-5638 -5639 -5640 0
5638 -5639 5640 0
5638 5639 -5640 0
5639 -5565 -5574 0
-5639 5565 0
-5639 5574 0
-5640 5559 5560 0
5640 -5559 0
5640 -5560 0
5641 -5642 5643 0
5641 5642 -5643 0
-5641 5642 5643 0
-5641 -5642 -5643 0
-5642 -5615 5628 0
-5642 -5615 5627 0
-5642 5627 5628 0
5642 -5627 -5628 0
5642 5615 -5628 0
5642 5615 -5627 0
-5643 5644 5653 0
-5643 -5644 -5653 0
5643 -5644 5653 0
5643 5644 -5653 0
5644 5645 -5646 0
5644 -5645 5646 0
-5644 -5645 -5646 0
-5644 5645 5646 0
5645 -5624 -5626 0
5645 -5626 5616 0
5645 -5624 5616 0
-5645 5626 -5616 0
-5645 5624 5626 0
-5645 5624 -5616 0
5646 -5647 5651 0
5646 5647 -5651 0
-5646 5647 5651 0
-5646 -5647 -5651 0
-5647 5648 5650 0
-5647 -5648 -5650 0
5647 -5648 5650 0
5647 5648 -5650 0
-5648 8447 5649 0
-5648 -8447 -5649 0
5648 -8447 5649 0
5648 8447 -5649 0
-5649 8406 8473 0
-5649 5198 5213 0
-5649 8406 5213 0
-5649 8473 5198 0
5649 -8406 -5198 0
5649 -8473 -5213 0
-5650 1362 5186 0
-5650 8474 1362 0
5650 -1362 0
5650 -8474 -5186 0
-5651 5652 5636 0
5651 -5652 0
5651 -5636 0
5652 -5630 -5635 0
-5652 5630 0
-5652 5635 0
-5653 5654 5655 0
-5653 -5654 -5655 0
5653 -5654 5655 0
5653 5654 -5655 0
-5654 5640 5629 0
-5654 5639 5629 0
-5654 5639 5640 0
5654 -5639 -5629 0
5654 -5639 -5640 0
5654 -5640 -5629 0
-5655 -5656 -5664 0
-5655 5656 5664 0
5655 5656 -5664 0
5655 -5656 5664 0
5656 -5657 5659 0
5656 5657 -5659 0
-5656 5657 5659 0
-5656 -5657 -5659 0
-5657 8393 5658 0
-5657 -8393 -5658 0
5657 -8393 5658 0
5657 8393 -5658 0
-5658 8415 8436 0
-5658 5221 5222 0
-5658 8436 5222 0
-5658 8415 5221 0
5658 -8436 -5221 0
5658 -8415 -5222 0
-5659 5660 5663 0
-5659 -5660 -5663 0
5659 -5660 5663 0
5659 5660 -5663 0
-5660 -8470 -1343 0
-5660 -8470 -5661 0
-5660 8470 5661 5662 0
5660 8470 -5661 0
5660 -8470 1343 5661 0
5660 8470 -5662 0
5661 -8466 -5262 0
-5661 8466 0
-5661 5262 0
5662 -8468 -1304 0
-5662 8468 0
-5662 1304 0
-5663 8469 1340 0
-5663 8464 8469 0
-5663 -8464 -8469 1339 0
5663 -8469 -1339 0
5663 -8464 8469 -1340 0
5663 8464 -8469 0
5664 -5620 -5617 0
5664 8465 -5617 0
5664 8465 -5620 0
-5664 -8465 5617 0
-5664 -8465 5620 0
-5664 5620 5617 0
5665 -5666 -5740 0
-5665 5666 0
-5665 5740 0
-5666 5667 5738 0
-5666 -5667 -5738 0
5666 -5667 5738 0
5666 5667 -5738 0
-5667 5668 5737 0
5667 -5668 0
5667 -5737 0
5668 -5669 -5673 0
-5668 5669 0
-5668 5673 0
-5669 -5232 5672 0
-5669 5335 5670 5672 0
5669 -5672 0
5669 5232 -5670 0
5669 -5335 5232 0
-5670 5233 5319 0
-5670 5233 5671 0
5670 -5233 0
5670 -5319 -5671 0
5671 5291 -5304 0
5671 -5291 5304 0
-5671 -5291 -5304 0
-5671 5291 5304 0
5672 -5335 -5341 -5342 0
-5672 5335 0
-5672 5342 0
-5672 5341 0
-5673 5674 5676 0
-5673 -5674 -5676 0
5673 -5674 5676 0
5673 5674 -5676 0
-5674 -5426 -5675 0
-5674 5426 5675 0
5674 5426 -5675 0
5674 -5426 5675 0
5675 -5422 5424 0
5675 5422 -5424 0
-5675 5422 5424 0
-5675 -5422 -5424 0
-5676 5734 5736 0
-5676 5677 5729 5736 0
5676 -5736 0
5676 -5729 -5734 0
5676 -5677 -5734 0
-5677 5678 5723 0
5677 -5678 0
5677 -5723 0
5678 -5679 -5698 0
-5678 5679 0
-5678 5698 0
-5679 5683 5696 0
-5679 5680 5696 0
5679 -5696 0
5679 -5680 -5683 0
5680 5246 -5681 0
5680 -5246 5681 0
-5680 -5246 -5681 0
-5680 5246 5681 0
5681 5238 -5682 0
5681 -5238 5682 0
-5681 -5238 -5682 0
-5681 5238 5682 0
5682 8379 -5242 0
5682 -8379 5242 0
-5682 -8379 -5242 0
-5682 8379 5242 0
-5683 5684 5693 5695 0
-5683 5687 5693 5695 0
5683 -5695 0
5683 -5693 0
5683 -5684 -5687 0
5684 8383 -5685 0
5684 -8383 5685 5686 0
5684 8383 -1827 0
-5684 -8383 -5685 0
-5684 8383 1827 5685 0
-5684 -8383 -5686 0
5685 -8436 -5248 0
-5685 8436 0
-5685 5248 0
5686 -8406 1545 0
-5686 8406 0
-5686 -1545 0
-5687 5688 5690 5691 0
5687 -5688 0
5687 -5690 0
5687 -5691 0
-5688 8468 5689 0
-5688 -8379 5689 0
-5688 5241 5689 0
5688 -5689 0
5688 8379 -8468 -5241 0
5689 8379 -8415 -1657 0
-5689 1657 0
-5689 8415 0
-5689 -8379 0
-5690 8376 8464 0
-5690 8371 8376 0
-5690 8371 -8466 0
-5690 -8371 -8376 -8464 0
5690 -8371 8376 -8464 0
5690 8371 -8376 8466 0
5690 -8371 -8376 8464 0
5691 -8379 8468 5692 0
5691 -8379 5241 5692 0
-5691 8379 0
-5691 -5692 0
-5691 -8468 -5241 0
5692 -8415 1656 0
-5692 8415 0
-5692 -1656 0
5693 -5690 -5694 0
-5693 5690 0
-5693 5694 0
-5694 5688 5691 0
5694 -5688 0
5694 -5691 0
-5695 1818 5186 0
-5695 8372 1818 0
5695 -1818 0
5695 -8372 -5186 0
5696 -5684 -5695 -5697 0
5696 -5693 -5695 -5697 0
-5696 5697 0
-5696 5695 0
-5696 5684 5693 0
-5697 5690 5694 0
5697 -5690 0
5697 -5694 0
-5698 -5699 -5711 0
-5698 5699 5711 0
5698 5699 -5711 0
5698 -5699 5711 0
5699 -5700 -5704 0
5699 -5704 -5708 0
5699 -5700 -5708 0
-5699 5700 5708 0
-5699 5704 5708 0
-5699 5700 5704 0
5700 5701 -5702 0
5700 8473 1482 -5702 0
-5700 5702 0
-5700 -8473 -5701 0
-5700 -1482 -5701 0
5701 -8406 -8477 1483 0
5701 -8477 1482 1483 0
-5701 8477 0
-5701 -1483 0
-5701 8406 -1482 0
-5702 8406 8477 5703 0
-5702 8477 5276 5703 0
5702 -5703 0
5702 -8477 0
5702 -8406 -5276 0
5703 -8473 -1483 0
-5703 8473 0
-5703 1483 0
5704 5705 -5707 0
5704 -8474 -5282 5705 0
-5704 -5705 0
-5704 8474 5707 0
-5704 5282 5707 0
-5705 8474 5706 0
-5705 5282 5706 0
-5705 8465 5706 0
5705 -5706 0
5705 -8465 -8474 -5282 0
5706 8386 -8465 -8475 8477 0
-5706 -8386 0
-5706 -8477 0
-5706 8475 0
-5706 8465 0
-5707 8465 1411 0
-5707 8465 8475 0
5707 -8465 0
5707 -8475 -1411 0
5708 8469 -5709 0
5708 -8469 5709 5710 0
5708 8469 -1802 0
-5708 -8469 -5709 0
-5708 8469 1802 5709 0
-5708 -8469 -5710 0
5709 -8476 -5288 0
-5709 8476 0
-5709 5288 0
5710 -8385 1339 0
-5710 8385 0
-5710 -1339 0
5711 -5712 -5716 0
5711 -5716 -5720 0
5711 -5712 -5720 0
-5711 5712 5720 0
-5711 5716 5720 0
-5711 5712 5716 0
5712 -5713 5714 0
5712 -8380 -5222 5714 0
-5712 -5714 0
-5712 5222 5713 0
-5712 8380 5713 0
-5713 8393 1271 0
-5713 8377 8393 0
5713 -8393 0
5713 -8377 -1271 0
-5714 8393 5715 0
-5714 5222 5715 0
-5714 8380 5715 0
5714 -5715 0
5714 -8380 -8393 -5222 0
5715 -8377 -1268 0
-5715 8377 0
-5715 1268 0
5716 5717 -5719 0
5716 -8384 -5262 5717 0
-5716 -5717 0
-5716 8384 5719 0
-5716 5262 5719 0
-5717 8470 5718 0
-5717 5262 5718 0
-5717 8384 5718 0
5717 -5718 0
5717 -8384 -8470 -5262 0
5718 -8381 -5528 0
-5718 8381 0
-5718 5528 0
-5719 8470 1304 0
-5719 8381 8470 0
5719 -8470 0
5719 -8381 -1304 0
5720 8447 -5721 0
5720 -8447 5721 5722 0
5720 8447 -1812 0
-5720 -8447 -5721 0
-5720 8447 1812 5721 0
-5720 -8447 -5722 0
5721 -8375 -5198 0
-5721 8375 0
-5721 5198 0
5722 -8373 1243 0
-5722 8373 0
-5722 -1243 0
-5723 5724 5725 0
5723 -5724 0
5723 -5725 0
5724 -5699 -5711 0
-5724 5699 0
-5724 5711 0
5725 -5726 -5728 0
-5725 5726 0
-5725 5728 0
-5726 -5727 -5271 0
-5726 5727 5271 0
5726 5727 -5271 0
5726 -5727 5271 0
-5727 5261 5267 0
-5727 -5261 -5267 0
5727 -5261 5267 0
5727 5261 -5267 0
5728 5274 -5286 0
5728 -5274 5286 0
-5728 -5274 -5286 0
-5728 5274 5286 0
5729 -5730 -5733 0
-5729 5730 0
-5729 5733 0
5730 5250 -5731 0
5730 -5250 5731 0
-5730 -5250 -5731 0
-5730 5250 5731 0
5731 -5244 5258 0
5731 5258 -5732 0
5731 -5243 5258 0
-5731 -5258 0
-5731 5243 5244 5732 0
-5732 5242 0
-5732 -8379 -5238 0
-5732 8379 5238 0
5732 -8379 5238 -5242 0
5732 8379 -5238 -5242 0
5733 5726 -5728 0
5733 -5726 5728 0
-5733 -5726 -5728 0
-5733 5726 5728 0
-5734 -5235 -5735 0
-5734 5235 5735 0
5734 5235 -5735 0
5734 -5235 5735 0
5735 -5259 5317 0
-5735 5259 0
-5735 -5317 0
5736 -5724 -5725 0
5736 -5678 -5729 0
5736 -5678 -5725 0
5736 -5724 -5729 0
-5736 5725 5729 0
-5736 5678 5724 0
5737 -5674 -5676 0
-5737 5674 0
-5737 5676 0
-5738 5387 5739 0
-5738 -5387 -5739 0
5738 -5387 5739 0
5738 5387 -5739 0
-5739 5232 5343 0
-5739 -5232 -5343 0
5739 -5232 5343 0
5739 5232 -5343 0
5740 -5741 5794 0
5740 5741 -5794 0
-5740 5741 5794 0
-5740 -5741 -5794 0
-5741 5745 5793 0
-5741 5742 5793 0
5741 -5793 0
5741 -5742 -5745 0
5742 5734 -5743 0
5742 -5734 5743 0
-5742 -5734 -5743 0
-5742 5734 5743 0
5743 -5677 5736 0
5743 -5730 5736 -5744 0
-5743 -5736 0
-5743 5677 5730 0
-5743 5677 5744 0
-5744 -5726 -5728 0
-5744 5726 5728 0
5744 5726 -5728 0
5744 -5726 5728 0
-5745 5746 5753 5791 0
-5745 5746 5791 5792 0
-5745 5753 5791 5792 0
5745 -5753 -5792 0
5745 -5746 -5792 0
5745 -5791 0
5745 -5746 -5753 0
5746 -5747 -5749 0
5746 -5749 -5751 0
5746 -5747 -5751 0
-5746 5749 5751 0
-5746 5747 5749 0
-5746 5747 5751 0
5747 5680 -5748 0
5747 -5680 5748 0
-5747 -5680 -5748 0
-5747 5680 5748 0
5748 -5683 5696 0
-5748 5683 0
-5748 -5696 0
5749 -5720 5750 0
5749 5720 -5750 0
-5749 5720 5750 0
-5749 -5720 -5750 0
-5750 -5712 -5716 0
-5750 5712 5716 0
5750 5712 -5716 0
5750 -5712 5716 0
-5751 5708 5752 0
-5751 -5708 -5752 0
5751 -5708 5752 0
5751 5708 -5752 0
-5752 -5700 -5704 0
-5752 5700 5704 0
5752 5700 -5704 0
5752 -5700 5704 0
-5753 5754 5765 0
-5753 5765 5777 0
-5753 5754 5777 0
5753 -5754 -5777 0
5753 -5765 -5777 0
5753 -5754 -5765 0
-5754 5755 5759 0
-5754 5759 5763 0
-5754 5755 5763 0
5754 -5755 -5763 0
5754 -5759 -5763 0
5754 -5755 -5759 0
-5755 5756 5758 0
-5755 -8473 -5276 5756 0
5755 -5756 0
5755 8473 -5758 0
5755 5276 -5758 0
-5756 -8477 0
-5756 1483 5757 0
-5756 8474 -1483 0
5756 8477 1483 -5757 0
5756 -8474 8477 -1483 0
5757 -8473 -1482 0
-5757 8473 0
-5757 1482 0
5758 8474 -8477 0
5758 -8477 -1482 0
-5758 8477 0
-5758 -8474 1482 0
-5759 5760 5762 0
-5759 -8475 -5282 5760 0
5759 -5760 0
5759 8475 -5762 0
5759 5282 -5762 0
-5760 8475 5761 0
-5760 -8465 5761 0
-5760 5282 5761 0
5760 -5761 0
5760 8465 -8475 -5282 0
5761 -8476 -1410 0
-5761 8476 0
-5761 1410 0
5762 -8465 -1409 0
5762 -8465 8476 0
-5762 8465 0
-5762 -8476 1409 0
-5763 8469 5764 0
-5763 -8469 -5764 0
5763 -8469 5764 0
5763 8469 -5764 0
-5764 1862 5288 0
-5764 8385 1862 0
5764 -1862 0
5764 -8385 -5288 0
-5765 5766 5768 0
-5765 5768 5773 0
-5765 5766 5773 0
5765 -5766 -5773 0
5765 -5768 -5773 0
5765 -5766 -5768 0
-5766 8447 5767 0
-5766 -8447 -5767 0
5766 -8447 5767 0
5766 8447 -5767 0
-5767 1872 5198 0
-5767 8373 1872 0
5767 -1872 0
5767 -8373 -5198 0
-5768 5769 5772 0
-5768 -8381 -5262 5769 0
5768 -5769 0
5768 8381 -5772 0
5768 5262 -5772 0
-5769 1304 5262 0
-5769 5770 5771 0
-5769 5262 5770 0
-5769 1304 5771 0
5769 -5262 -5771 0
5769 -1304 -5770 0
5770 -8380 8470 0
-5770 8380 0
-5770 -8470 0
5771 -8381 8470 0
-5771 8381 0
-5771 -8470 0
5772 8380 -8470 0
5772 -8470 -1303 0
-5772 8470 0
-5772 -8380 1303 0
-5773 5774 5776 0
-5773 -8377 -5222 5774 0
5773 -5774 0
5773 8377 -5776 0
5773 5222 -5776 0
-5774 -8393 5775 0
-5774 5222 5775 0
-5774 8377 5775 0
5774 -5775 0
5774 -8377 8393 -5222 0
5775 -8375 8393 -1271 0
-5775 8375 0
-5775 -8393 0
-5775 1271 0
5776 8375 -8393 0
5776 -8393 -1269 0
-5776 8393 0
-5776 -8375 1269 0
-5777 5780 5790 0
-5777 5778 5790 0
5777 -5790 0
5777 -5778 -5780 0
5778 5684 -5779 0
5778 -5684 5779 0
-5778 -5684 -5779 0
-5778 5684 5779 0
5779 -5690 5694 0
5779 5690 -5694 0
-5779 5690 5694 0
-5779 -5690 -5694 0
-5780 5781 5784 5789 0
-5780 5784 5788 5789 0
-5780 5781 5788 5789 0
5780 -5784 -5788 0
5780 -5781 -5784 0
5780 -5789 0
5780 -5781 -5788 0
5781 8383 -5782 0
5781 -8383 5782 5783 0
5781 8383 -1884 0
-5781 -8383 -5782 0
-5781 8383 1884 5782 0
-5781 -8383 -5783 0
5782 -8406 -5248 0
-5782 8406 0
-5782 5248 0
5783 -8473 1545 0
-5783 8473 0
-5783 -1545 0
-5784 5785 5787 0
-5784 -8415 -5241 5785 0
5784 -5785 0
5784 8415 -5787 0
5784 5241 -5787 0
-5785 8415 5786 0
-5785 -8379 5786 0
-5785 5241 5786 0
5785 -5786 0
5785 8379 -8415 -5241 0
5786 8379 -8436 -1657 0
-5786 1657 0
-5786 8436 0
-5786 -8379 0
5787 -8379 -1656 0
5787 -8379 8436 0
-5787 8379 0
-5787 -8436 1656 0
-5788 8376 8466 0
-5788 8371 8376 0
-5788 8371 -8468 0
-5788 -8371 -8376 -8466 0
5788 -8371 8376 -8466 0
5788 8371 -8376 8468 0
5788 -8371 -8376 8466 0
5789 -8370 -5186 0
-5789 8370 0
-5789 5186 0
5790 -5784 -5788 -5789 0
5790 -5781 -5788 -5789 0
5790 -5781 -5784 -5789 0
-5790 5781 5784 0
-5790 5784 5788 0
-5790 5789 0
-5790 5781 5788 0
-5791 -5319 -5671 0
-5791 5319 5671 0
5791 5319 -5671 0
5791 -5319 5671 0
-5792 5679 5698 0
-5792 -5679 -5698 0
5792 -5679 5698 0
5792 5679 -5698 0
-5793 5746 5792 0
-5793 5753 5792 0
-5793 5791 0
-5793 5746 5753 0
5793 -5746 -5753 -5791 0
5793 -5746 -5791 -5792 0
5793 -5753 -5791 -5792 0
-5794 5669 5673 0
-5794 -5669 -5673 0
5794 -5669 5673 0
5794 5669 -5673 0
-5795 5796 5892 0
-5795 5892 6333 0
5795 -5892 0
5795 -5796 -6333 0
-5796 5797 5891 0
-5796 5848 5891 0
5796 -5891 0
5796 -5797 -5848 0
-5797 5798 5800 0
5797 -5798 0
5797 -5800 0
5798 5742 -5799 0
5798 -5742 5799 0
-5798 -5742 -5799 0
-5798 5742 5799 0
5799 -5745 5793 0
-5799 5745 0
-5799 -5793 0
-5800 5845 5847 0
-5800 5801 5845 0
-5800 5801 5847 0
5800 -5801 -5845 0
5800 -5845 -5847 0
5800 -5801 -5847 0
-5801 5802 5844 0
-5801 5842 5844 0
5801 -5844 0
5801 -5802 -5842 0
-5802 5803 5808 5812 0
5802 -5803 0
5802 -5812 0
5802 -5808 0
5803 -5804 -5806 0
-5803 5804 0
-5803 5806 0
-5804 5766 5805 0
-5804 -5766 -5805 0
5804 -5766 5805 0
5804 5766 -5805 0
-5805 5768 5773 0
-5805 -5768 -5773 0
5805 -5768 5773 0
5805 5768 -5773 0
-5806 5807 5763 0
-5806 -5807 -5763 0
5806 -5807 5763 0
5806 5807 -5763 0
-5807 5755 5759 0
-5807 -5755 -5759 0
5807 -5755 5759 0
5807 5755 -5759 0
5808 -5809 -5811 0
-5808 5809 0
-5808 5811 0
-5809 -5778 -5810 0
-5809 5778 5810 0
5809 5778 -5810 0
5809 -5778 5810 0
5810 -5780 5790 0
-5810 5780 0
-5810 -5790 0
-5811 5804 5806 0
5811 -5804 0
5811 -5806 0
5812 -5817 -5830 0
5812 -5813 -5817 0
5812 -5813 -5830 0
-5812 5813 5817 0
-5812 5817 5830 0
-5812 5813 5830 0
5813 -5781 5814 -5815 0
5813 5781 -5814 -5815 0
-5813 5815 0
-5813 -5781 -5814 0
-5813 5781 5814 0
-5814 5784 5788 0
-5814 -5784 -5788 0
5814 -5784 5788 0
5814 5784 -5788 0
5815 -8447 5816 0
-5815 8447 0
-5815 -5816 0
5816 -8370 -5198 0
-5816 8370 0
-5816 5198 0
-5817 5818 5821 0
-5817 5821 5826 0
-5817 5818 5826 0
5817 -5821 -5826 0
5817 -5818 -5821 0
5817 -5818 -5826 0
5818 8469 -5819 0
5818 -8469 5819 5820 0
5818 8469 -1919 0
-5818 -8469 -5819 0
-5818 8469 1919 5819 0
-5818 -8469 -5820 0
5819 -8384 -5288 0
-5819 8384 0
-5819 5288 0
5820 -8381 1339 0
-5820 8381 0
-5820 -1339 0
-5821 5822 5825 0
-5821 -8474 -5276 5822 0
5821 -5822 0
5821 8474 -5825 0
5821 5276 -5825 0
-5822 1483 5823 0
-5822 5276 5824 0
-5822 1483 5276 0
-5822 5823 5824 0
5822 -1483 -5824 0
5822 -5276 -5823 0
5823 -8474 8477 0
-5823 8474 0
-5823 -8477 0
5824 -8475 8477 0
-5824 8475 0
-5824 -8477 0
5825 8475 -8477 0
5825 -8477 -1482 0
-5825 8477 0
-5825 -8475 1482 0
-5826 5827 5829 0
-5826 -8476 -5282 5827 0
5826 -5827 0
5826 8476 -5829 0
5826 5282 -5829 0
-5827 8476 5828 0
-5827 -8465 5828 0
-5827 5282 5828 0
5827 -5828 0
5827 8465 -8476 -5282 0
5828 -8385 -1410 0
-5828 8385 0
-5828 1410 0
5829 8385 -8465 0
5829 -8465 -1409 0
-5829 8465 0
-5829 -8385 1409 0
-5830 5831 5835 0
-5830 5835 5838 0
-5830 5831 5838 0
5830 -5835 -5838 0
5830 -5831 -5835 0
5830 -5831 -5838 0
5831 8447 -5833 0
5831 -8447 5833 5834 0
5831 8447 -5832 0
-5831 -8447 -5833 0
-5831 8447 5832 5833 0
-5831 -8447 -5834 0
5832 -8370 -5213 0
-5832 8370 0
-5832 5213 0
5833 -8372 -5198 0
-5833 8372 0
-5833 5198 0
5834 -8370 1243 0
-5834 8370 0
-5834 -1243 0
-5835 5836 5837 0
-5835 -8380 -5262 5836 0
5835 -5836 0
5835 8380 -5837 0
5835 5262 -5837 0
-5836 5503 5262 0
-5836 8377 5770 0
-5836 5503 5770 0
-5836 8377 5262 0
5836 -8377 -5503 0
5836 -5262 -5770 0
5837 8377 -8470 0
5837 -8470 -1303 0
-5837 8470 0
-5837 -8377 1303 0
-5838 5839 5841 0
-5838 -8375 -5222 5839 0
5838 -5839 0
5838 8375 -5841 0
5838 5222 -5841 0
-5839 1270 5222 0
-5839 8373 5840 0
-5839 1270 5840 0
-5839 8373 5222 0
5839 -8373 -1270 0
5839 -5222 -5840 0
5840 -8375 8393 0
-5840 8375 0
-5840 -8393 0
5841 8373 -8393 0
5841 -8393 -1269 0
-5841 8393 0
-5841 -8373 1269 0
-5842 5843 5777 0
-5842 -5843 -5777 0
5842 -5843 5777 0
5842 5843 -5777 0
-5843 5754 5765 0
-5843 -5754 -5765 0
5843 -5754 5765 0
5843 5754 -5765 0
5844 -5808 -5812 0
5844 -5803 -5812 0
-5844 5812 0
-5844 5803 5808 0
5845 -5792 5846 0
5845 5792 -5846 0
-5845 5792 5846 0
-5845 -5792 -5846 0
-5846 5746 5753 0
-5846 -5746 -5753 0
5846 -5746 5753 0
5846 5746 -5753 0
5847 5730 -5733 0
5847 -5730 5733 0
-5847 -5730 -5733 0
-5847 5730 5733 0
-5848 5849 5851 0
5848 -5849 0
5848 -5851 0
-5849 5845 5850 0
-5849 -5845 -5850 0
5849 -5845 5850 0
5849 5845 -5850 0
-5850 -5801 -5847 0
-5850 5801 5847 0
5850 5801 -5847 0
5850 -5801 5847 0
5851 -5854 -5890 0
5851 -5852 -5854 0
5851 -5852 -5890 0
-5851 5852 5854 0
-5851 5854 5890 0
-5851 5852 5890 0
5852 -5747 5853 0
5852 5747 -5853 0
-5852 5747 5853 0
-5852 -5747 -5853 0
-5853 5749 5751 0
-5853 -5749 -5751 0
5853 -5749 5751 0
5853 5749 -5751 0
-5854 5857 5883 0
-5854 5855 5857 0
-5854 5855 5883 0
5854 -5855 -5857 0
5854 -5857 -5883 0
5854 -5855 -5883 0
-5855 5813 5856 0
-5855 -5813 -5856 0
5855 -5813 5856 0
5855 5813 -5856 0
-5856 5817 5830 0
-5856 -5817 -5830 0
5856 -5817 5830 0
5856 5817 -5830 0
5857 -5858 -5873 0
5857 -5865 -5873 0
5857 -5858 -5865 0
-5857 5858 5865 0
-5857 5865 5873 0
-5857 5858 5873 0
-5858 5816 5859 0
-5858 5859 5862 0
-5858 5816 5862 0
5858 -5859 -5862 0
5858 -5816 -5859 0
5858 -5816 -5862 0
-5859 -8470 -1979 0
-5859 -8470 -5860 0
-5859 8470 5860 5861 0
5859 8470 -5860 0
5859 -8470 1979 5860 0
5859 8470 -5861 0
5860 -8377 -5262 0
-5860 8377 0
-5860 5262 0
5861 -8375 -1304 0
-5861 8375 0
-5861 1304 0
-5862 -8393 -1982 0
-5862 -8393 -5863 0
-5862 8393 5863 5864 0
5862 8393 -5863 0
5862 -8393 1982 5863 0
5862 8393 -5864 0
5863 -8373 -5222 0
-5863 8373 0
-5863 5222 0
5864 -8372 -1271 0
-5864 8372 0
-5864 1271 0
-5865 5866 5867 0
-5865 5867 5871 0
-5865 5866 5871 0
5865 -5866 -5871 0
5865 -5867 -5871 0
5865 -5866 -5867 0
-5866 8376 8468 0
-5866 8371 8376 0
-5866 8371 -8415 0
-5866 -8371 -8376 -8468 0
5866 8371 -8376 8415 0
5866 -8371 -8376 8468 0
5866 -8371 8376 -8468 0
-5867 5868 5870 0
-5867 -8436 -5241 5868 0
5867 -5868 0
5867 8436 -5870 0
5867 5241 -5870 0
-5868 8436 5869 0
-5868 -8379 5869 0
-5868 5241 5869 0
5868 -5869 0
5868 8379 -8436 -5241 0
5869 8379 -8406 -1657 0
-5869 1657 0
-5869 8406 0
-5869 -8379 0
5870 -8379 -1656 0
5870 -8379 8406 0
-5870 8379 0
-5870 -8406 1656 0
-5871 8383 5872 0
-5871 -8383 -5872 0
5871 -8383 5872 0
5871 8383 -5872 0
-5872 1963 5248 0
-5872 8473 1963 0
5872 -1963 0
5872 -8473 -5248 0
-5873 5874 5877 0
-5873 5877 5881 0
-5873 5874 5881 0
5873 -5874 -5881 0
5873 -5877 -5881 0
5873 -5874 -5877 0
-5874 5875 5876 0
-5874 -8475 -5276 5875 0
5874 -5875 0
5874 8475 -5876 0
5874 5276 -5876 0
-5875 5278 5276 0
-5875 8476 5824 0
-5875 5278 5824 0
-5875 8476 5276 0
5875 -8476 -5278 0
5875 -5276 -5824 0
5876 8476 -8477 0
5876 -8477 -1482 0
-5876 8477 0
-5876 -8476 1482 0
-5877 5878 5880 0
-5877 -8385 -5282 5878 0
5877 -5878 0
5877 8385 -5880 0
5877 5282 -5880 0
-5878 -8465 5879 0
-5878 5282 5879 0
-5878 8385 5879 0
5878 -5879 0
5878 -8385 8465 -5282 0
5879 -8384 -1410 0
-5879 8384 0
-5879 1410 0
5880 8384 -8465 0
5880 -8465 -1409 0
-5880 8465 0
-5880 -8384 1409 0
-5881 8469 5882 0
-5881 -8469 -5882 0
5881 -8469 5882 0
5881 8469 -5882 0
-5882 1973 5288 0
-5882 8381 1973 0
5882 -1973 0
5882 -8381 -5288 0
5883 -5884 -5886 0
5883 -5886 -5888 0
5883 -5884 -5888 0
-5883 5884 5888 0
-5883 5886 5888 0
-5883 5884 5886 0
5884 -5814 5885 0
5884 5814 -5885 0
-5884 5814 5885 0
-5884 -5814 -5885 0
-5885 -5781 -5815 0
-5885 5781 5815 0
5885 5781 -5815 0
5885 -5781 5815 0
5886 -5831 5887 0
5886 5831 -5887 0
-5886 5831 5887 0
-5886 -5831 -5887 0
-5887 5835 5838 0
-5887 -5835 -5838 0
5887 -5835 5838 0
5887 5835 -5838 0
5888 -5818 5889 0
5888 5818 -5889 0
-5888 5818 5889 0
-5888 -5818 -5889 0
-5889 5821 5826 0
-5889 -5821 -5826 0
5889 -5821 5826 0
5889 5821 -5826 0
-5890 5802 5842 0
-5890 5842 -5844 0
-5890 -5802 -5842 5844 0
5890 5802 -5842 0
5890 -5842 -5844 0
5890 -5802 5842 5844 0
5891 -5798 -5800 0
-5891 5798 0
-5891 5800 0
5892 -5893 -5796 -6031 0
-5892 5893 0
-5892 5796 0
-5892 6031 0
5893 -5894 -6027 0
-5893 5894 0
-5893 6027 0
5894 -5895 -5984 0
-5894 5895 0
-5894 5984 0
5895 5896 -5983 0
-5895 -5896 0
-5895 5983 0
5896 -5897 -5975 0
-5896 5897 0
-5896 5975 0
-5897 5900 5963 0
-5897 5898 5963 0
-5897 5898 5900 0
5897 -5898 -5963 0
5897 -5898 -5900 0
5897 -5900 -5963 0
5898 5884 -5899 0
5898 -5884 5899 0
-5898 -5884 -5899 0
-5898 5884 5899 0
5899 5886 -5888 0
5899 -5886 5888 0
-5899 -5886 -5888 0
-5899 5886 5888 0
-5900 5901 5958 0
-5900 5935 5958 0
-5900 5901 5935 0
5900 -5901 -5935 0
5900 -5935 -5958 0
5900 -5901 -5958 0
5901 -5902 -5934 0
-5901 5902 0
-5901 5934 0
-5902 5903 5924 0
-5902 5912 5924 0
5902 -5924 0
5902 -5903 -5912 0
5903 -5904 -5911 0
5903 -5907 -5911 0
5903 -5904 -5907 0
-5903 5904 5907 0
-5903 5907 5911 0
-5903 5904 5911 0
-5904 -8383 -2073 0
-5904 -8383 -5905 0
-5904 8383 5905 5906 0
5904 8383 -5905 0
5904 -8383 2073 5905 0
5904 8383 -5906 0
5905 -8475 -5248 0
-5905 8475 0
-5905 5248 0
5906 -8476 -1546 0
-5906 8476 0
-5906 1546 0
-5907 5908 5910 0
-5907 -8473 -5241 5908 0
5907 -5908 0
5907 8473 -5910 0
5907 5241 -5910 0
5908 -8473 1657 -5909 0
5908 -8474 -1657 -5909 0
-5908 5909 0
-5908 8473 1657 0
-5908 8474 -1657 0
5909 8379 -1656 0
-5909 -8379 0
-5909 1656 0
5910 -8379 -1656 0
5910 -8379 8474 0
-5910 8379 0
-5910 -8474 1656 0
-5911 8376 8436 0
-5911 8371 8376 0
-5911 8371 -8406 0
-5911 -8371 -8376 -8436 0
5911 8371 -8376 8406 0
5911 -8371 -8376 8436 0
5911 -8371 8376 -8436 0
5912 -5913 -5921 0
5912 -5917 -5921 0
5912 -5913 -5917 0
-5912 5913 5917 0
-5912 5917 5921 0
-5912 5913 5921 0
-5913 5914 5915 0
-5913 -8381 -5282 5915 0
5913 -5915 0
5913 5282 -5914 0
5913 8381 -5914 0
5914 -8386 -8465 0
5914 -8465 -8477 0
5914 8380 -8465 0
-5914 8465 0
-5914 -8380 8386 8477 0
-5915 1410 5282 0
-5915 8380 5916 0
-5915 1410 5916 0
-5915 8380 5282 0
5915 -8380 -1410 0
5915 -5282 -5916 0
5916 -8381 8465 0
-5916 8381 0
-5916 -8465 0
-5917 5918 5920 0
-5917 -8385 -5276 5918 0
5917 -5918 0
5917 5276 -5920 0
5917 8385 -5920 0
-5918 -8477 0
-5918 1483 5919 0
-5918 8384 -1483 0
5918 8477 1483 -5919 0
5918 -8384 8477 -1483 0
5919 -8385 -1482 0
-5919 8385 0
-5919 1482 0
-5920 8477 0
-5920 -8384 1482 0
5920 8384 -8477 0
5920 -8477 -1482 0
-5921 -8469 -2083 0
-5921 -8469 -5923 0
-5921 8469 5922 5923 0
5921 8469 -5922 0
5921 -8469 2083 5923 0
5921 8469 -5923 0
5922 -8375 -1340 0
-5922 8375 0
-5922 1340 0
5923 -8377 -5288 0
-5923 8377 0
-5923 5288 0
5924 -5925 5928 0
5924 5925 -5928 0
-5924 5925 5928 0
-5924 -5925 -5928 0
5925 8383 -5926 0
5925 -8383 5926 5927 0
5925 8383 -2015 0
-5925 -8383 -5926 0
-5925 8383 2015 5926 0
-5925 -8383 -5927 0
5926 -8474 -5248 0
-5926 8474 0
-5926 5248 0
5927 -8475 1545 0
-5927 8475 0
-5927 -1545 0
-5928 5929 5930 0
-5928 -5929 -5930 0
5928 -5929 5930 0
5928 5929 -5930 0
-5929 8376 8415 0
-5929 8371 8376 0
-5929 8371 -8436 0
-5929 -8371 -8376 -8415 0
5929 -8371 8376 -8415 0
5929 8371 -8376 8436 0
5929 -8371 -8376 8415 0
-5930 5931 5933 0
-5930 -8406 -5241 5931 0
5930 -5931 0
5930 8406 -5933 0
5930 5241 -5933 0
-5931 8473 5241 0
-5931 5257 5932 0
-5931 5241 5257 0
-5931 8473 5932 0
5931 -5241 -5932 0
5931 -8473 -5257 0
5932 8379 -8406 0
-5932 -8379 0
-5932 8406 0
5933 -8379 -1656 0
5933 -8379 8473 0
-5933 8379 0
-5933 -8473 1656 0
-5934 5903 5912 0
5934 -5903 0
5934 -5912 0
5935 -5936 -5946 0
-5935 5936 0
-5935 5946 0
-5936 -5937 -5939 0
-5936 5937 5939 0
5936 5937 -5939 0
5936 -5937 5939 0
5937 -8393 5938 0
-5937 8393 0
-5937 -5938 0
5938 -8370 -5222 0
-5938 8370 0
-5938 5222 0
5939 -5940 5943 0
5939 5940 -5943 0
-5939 5940 5943 0
-5939 -5940 -5943 0
-5940 -8470 -2031 0
-5940 -8470 -5941 0
-5940 8470 5941 5942 0
5940 8470 -5941 0
5940 -8470 2031 5941 0
5940 8470 -5942 0
5941 -8375 -5262 0
-5941 8375 0
-5941 5262 0
5942 -8373 -1304 0
-5942 8373 0
-5942 1304 0
-5943 -8393 -2034 0
-5943 -8393 -5944 0
-5943 8393 5944 5945 0
5943 8393 -5944 0
5943 -8393 2034 5944 0
5943 8393 -5945 0
5944 -8372 -5222 0
-5944 8372 0
-5944 5222 0
5945 -8370 -1271 0
-5945 8370 0
-5945 1271 0
5946 -5947 5950 0
5946 5947 -5950 0
-5946 5947 5950 0
-5946 -5947 -5950 0
-5947 -8469 -2025 0
-5947 -8469 -5948 0
-5947 8469 5948 5949 0
5947 8469 -5948 0
5947 -8469 2025 5948 0
5947 8469 -5949 0
5948 -8380 -5288 0
-5948 8380 0
-5948 5288 0
5949 -8377 -1340 0
-5949 8377 0
-5949 1340 0
-5950 5951 5955 0
-5950 -5951 -5955 0
5950 -5951 5955 0
5950 5951 -5955 0
-5951 5952 5953 0
-5951 -8476 -5276 5953 0
5951 -5953 0
5951 5276 -5952 0
5951 8476 -5952 0
5952 8385 -8477 0
5952 -8477 -1482 0
-5952 8477 0
-5952 -8385 1482 0
-5953 -8477 0
-5953 1483 5954 0
-5953 8385 -1483 0
5953 8477 1483 -5954 0
5953 -8385 8477 -1483 0
5954 -8476 -1482 0
-5954 8476 0
-5954 1482 0
-5955 5956 5957 0
-5955 -8384 -5282 5956 0
5955 -5956 0
5955 8384 -5957 0
5955 5282 -5957 0
-5956 1411 5360 0
-5956 8384 5916 0
-5956 5360 5916 0
-5956 8384 1411 0
5956 -8384 -5360 0
5956 -1411 -5916 0
5957 8381 -8465 0
5957 -8465 -1409 0
-5957 8465 0
-5957 -8381 1409 0
5958 -5959 5960 0
5958 5959 -5960 0
-5958 5959 5960 0
-5958 -5959 -5960 0
-5959 5937 5940 0
-5959 5940 5943 0
-5959 5937 5943 0
5959 -5940 -5943 0
5959 -5937 -5940 0
5959 -5937 -5943 0
-5960 5961 5962 0
-5960 -5961 -5962 0
5960 -5961 5962 0
5960 5961 -5962 0
-5961 5925 5929 0
-5961 5929 5930 0
-5961 5925 5930 0
5961 -5929 -5930 0
5961 -5925 -5929 0
5961 -5925 -5930 0
-5962 5947 5951 0
-5962 5951 5955 0
-5962 5947 5955 0
5962 -5947 -5955 0
5962 -5951 -5955 0
5962 -5947 -5951 0
5963 -5964 5966 0
5963 5964 -5966 0
-5963 5964 5966 0
-5963 -5964 -5966 0
-5964 -5858 -5965 0
-5964 5858 5965 0
5964 5858 -5965 0
5964 -5858 5965 0
5965 -5865 5873 0
5965 5865 -5873 0
-5965 5865 5873 0
-5965 -5865 -5873 0
-5966 -5967 -5968 0
-5966 5967 5968 0
5966 5967 -5968 0
5966 -5967 5968 0
5967 -5959 -5962 0
5967 -5961 -5962 0
5967 -5959 -5961 0
-5967 5959 5961 0
-5967 5961 5962 0
-5967 5959 5962 0
5968 -5971 -5973 0
5968 -5969 -5971 0
5968 -5969 -5973 0
-5968 5969 5971 0
-5968 5971 5973 0
-5968 5969 5973 0
5969 -5970 5881 0
5969 5970 -5881 0
-5969 5970 5881 0
-5969 -5970 -5881 0
-5970 5874 5877 0
-5970 -5874 -5877 0
5970 -5874 5877 0
5970 5874 -5877 0
-5971 5972 5871 0
-5971 -5972 -5871 0
5971 -5972 5871 0
5971 5972 -5871 0
-5972 5866 5867 0
-5972 -5866 -5867 0
5972 -5866 5867 0
5972 5866 -5867 0
-5973 5816 5974 0
-5973 -5816 -5974 0
5973 -5816 5974 0
5973 5816 -5974 0
-5974 5859 5862 0
-5974 -5859 -5862 0
5974 -5859 5862 0
5974 5859 -5862 0
5975 5976 -5978 0
5975 -5976 5978 0
-5975 -5976 -5978 0
-5975 5976 5978 0
-5976 5855 5977 0
-5976 -5855 -5977 0
5976 -5855 5977 0
5976 5855 -5977 0
-5977 -5857 -5883 0
-5977 5857 5883 0
5977 5857 -5883 0
5977 -5857 5883 0
5978 -5979 5982 0
-5978 5979 0
-5978 -5982 0
-5979 5964 5967 5980 0
-5979 5964 5968 5980 0
-5979 5967 5968 5980 0
5979 -5964 -5967 0
5979 -5967 -5968 0
5979 -5980 0
5979 -5964 -5968 0
5980 5809 -5981 0
5980 -5809 5981 0
-5980 -5809 -5981 0
-5980 5809 5981 0
5981 5803 -5811 0
-5981 -5803 0
-5981 5811 0
5982 -5964 -5967 -5980 0
5982 -5964 -5968 -5980 0
5982 -5967 -5968 -5980 0
-5982 5967 5968 0
-5982 5964 5967 0
-5982 5980 0
-5982 5964 5968 0
-5983 5897 5975 0
5983 -5897 0
5983 -5975 0
-5984 5985 6025 0
-5984 -5985 -6025 0
5984 -5985 6025 0
5984 5985 -6025 0
-5985 5986 6024 0
-5985 6022 6024 0
-5985 5986 6022 0
5985 -5986 -6022 0
5985 -6022 -6024 0
5985 -5986 -6024 0
5986 -6000 -6014 0
5986 -6014 -6021 0
5986 -5987 -6014 0
-5986 6014 0
-5986 5987 6000 6021 0
-5987 5988 5997 0
-5987 5938 5988 0
-5987 5938 5997 0
5987 -5938 -5988 0
5987 -5988 -5997 0
5987 -5938 -5997 0
5988 -5993 -5994 0
5988 -5989 -5993 0
5988 -5989 -5994 0
-5988 5989 5993 0
-5988 5993 5994 0
-5988 5989 5994 0
5989 5990 -5992 0
5989 -8474 -5241 5990 0
-5989 -5990 0
-5989 8474 5992 0
-5989 5241 5992 0
5990 -1656 1657 -5991 0
5990 -8475 1657 -5991 0
-5990 5991 0
-5990 -1657 0
-5990 8475 1656 0
5991 -8379 -8474 0
5991 -8379 1656 0
-5991 8379 0
-5991 8474 -1656 0
-5992 8379 1657 0
-5992 8379 8475 0
5992 -8379 0
5992 -8475 -1657 0
-5993 8376 8406 0
-5993 8371 8376 0
-5993 8371 -8473 0
-5993 -8371 -8376 -8406 0
5993 -8371 8376 -8406 0
5993 8371 -8376 8473 0
5993 -8371 -8376 8406 0
-5994 -8383 -2115 0
-5994 -8383 -5996 0
-5994 8383 5995 5996 0
5994 8383 -5995 0
5994 -8383 2115 5996 0
5994 8383 -5996 0
5995 -8385 -1546 0
-5995 8385 0
-5995 1546 0
5996 -8476 -5248 0
-5996 8476 0
-5996 5248 0
-5997 -8470 -2104 0
-5997 -8470 -5998 0
-5997 8470 5998 5999 0
5997 8470 -5998 0
5997 -8470 2104 5998 0
5997 8470 -5999 0
5998 -8373 -5262 0
-5998 8373 0
-5998 5262 0
5999 -8372 -1304 0
-5999 8372 0
-5999 1304 0
6000 -6001 -6012 0
-6000 6001 0
-6000 6012 0
6001 -6002 -6006 0
6001 -6006 -6010 0
6001 -6002 -6010 0
-6001 6002 6010 0
-6001 6006 6010 0
-6001 6002 6006 0
6002 8465 -6005 0
6002 -8465 6003 6004 0
6002 8465 -6003 0
-6002 -8465 -6003 0
-6002 -8465 -6004 0
-6002 8465 6003 6005 0
6003 -8380 -5282 0
-6003 8380 0
-6003 5282 0
6004 -8377 1409 0
-6004 8377 0
-6004 -1409 0
6005 -8377 -1411 0
-6005 8377 0
-6005 1411 0
6006 8477 -6009 0
6006 -8477 6007 6008 0
6006 8477 -6007 0
-6006 -8477 -6007 0
-6006 -8477 -6008 0
-6006 8477 6007 6009 0
6007 -8384 -5276 0
-6007 8384 0
-6007 5276 0
6008 -8381 1482 0
-6008 8381 0
-6008 -1482 0
6009 -8381 -1483 0
-6009 8381 0
-6009 1483 0
6010 -8469 6011 0
6010 8469 -6011 0
-6010 8469 6011 0
-6010 -8469 -6011 0
-6011 2127 5288 0
-6011 8375 2127 0
6011 -2127 0
6011 -8375 -5288 0
6012 -5904 6013 0
6012 5904 -6013 0
-6012 5904 6013 0
-6012 -5904 -6013 0
-6013 5907 5911 0
-6013 -5907 -5911 0
6013 -5907 5911 0
6013 5907 -5911 0
-6014 6015 6019 0
6014 -6015 0
6014 -6019 0
6015 -6016 -5987 -6017 0
6015 -6016 -5987 -6000 0
-6015 6016 0
-6015 5987 0
-6015 6000 6017 0
-6016 6001 6012 0
6016 -6001 0
6016 -6012 0
-6017 5921 6018 0
-6017 -5921 -6018 0
6017 -5921 6018 0
6017 5921 -6018 0
-6018 5913 5917 0
-6018 -5913 -5917 0
6018 -5913 5917 0
6018 5913 -5917 0
6019 -5924 6020 0
6019 5924 -6020 0
-6019 5924 6020 0
-6019 -5924 -6020 0
-6020 -5903 -5912 0
-6020 5903 5912 0
6020 5903 -5912 0
6020 -5903 5912 0
6021 -6016 -6017 0
-6021 6016 0
-6021 6017 0
6022 -5973 6023 0
6022 5973 -6023 0
-6022 5973 6023 0
-6022 -5973 -6023 0
-6023 5969 5971 0
-6023 -5969 -5971 0
6023 -5969 5971 0
6023 5969 -5971 0
6024 5902 5935 -5958 0
6024 5902 -5935 5958 0
6024 -5902 -5934 -5935 -5958 0
6024 5934 5935 -5958 0
6024 5934 -5935 5958 0
6024 -5902 -5934 5935 5958 0
-6024 5902 5935 5958 0
-6024 5902 -5935 -5958 0
-6024 -5902 -5934 5935 -5958 0
-6024 5934 -5935 -5958 0
-6024 5934 5935 5958 0
-6024 -5902 -5934 -5935 5958 0
-6025 -6026 -5963 0
-6025 6026 5963 0
6025 6026 -5963 0
6025 -6026 5963 0
-6026 5898 5900 0
-6026 -5898 -5900 0
6026 -5898 5900 0
6026 5898 -5900 0
6027 -6028 6029 0
6027 6028 -6029 0
-6027 6028 6029 0
-6027 -6028 -6029 0
-6028 5976 5982 0
-6028 5979 5982 0
6028 -5982 0
6028 -5976 -5979 0
-6029 6030 5890 0
-6029 -6030 -5890 0
6029 -6030 5890 0
6029 6030 -5890 0
-6030 5852 5854 0
-6030 -5852 -5854 0
6030 -5852 5854 0
6030 5852 -5854 0
6031 -6191 -6331 0
6031 -6032 -6331 0
-6031 6331 0
-6031 6032 6191 0
-6032 6033 6120 6124 0
6032 -6033 0
6032 -6124 0
6032 -6120 0
-6033 6034 6095 0
6033 -6034 0
6033 -6095 0
6034 -6035 -6090 6093 0
6034 -6035 6090 -6093 0
-6034 6035 0
-6034 -6090 -6093 0
-6034 6090 6093 0
-6035 6058 6060 0
-6035 6036 6060 0
-6035 6036 6058 0
6035 -6036 -6060 0
6035 -6036 -6058 0
6035 -6058 -6060 0
6036 -6037 6042 0
6036 6037 -6042 0
-6036 6037 6042 0
-6036 -6037 -6042 0
6037 -6038 -6040 0
-6037 6038 0
-6037 6040 0
-6038 5994 6039 0
-6038 -5994 -6039 0
6038 -5994 6039 0
6038 5994 -6039 0
-6039 5989 5993 0
-6039 -5989 -5993 0
6039 -5989 5993 0
6039 5989 -5993 0
-6040 6010 6041 0
-6040 -6010 -6041 0
6040 -6010 6041 0
6040 6010 -6041 0
-6041 -6002 -6006 0
-6041 6002 6006 0
6041 6002 -6006 0
6041 -6002 6006 0
-6042 6043 6056 0
-6042 -6043 -6056 0
6042 -6043 6056 0
6042 6043 -6056 0
-6043 -2152 6053 0
-6043 6044 6055 0
-6043 -2152 6044 0
-6043 6053 6055 0
6043 2152 -6055 0
6043 -6044 -6053 0
-6044 6045 6049 0
-6044 6049 6050 0
-6044 6045 6050 0
6044 -6045 -6050 0
6044 -6049 -6050 0
6044 -6045 -6049 0
-6045 6046 6048 0
-6045 -8475 -5241 6046 0
6045 -6046 0
6045 8475 -6048 0
6045 5241 -6048 0
-6046 8475 6047 0
-6046 -8379 6047 0
-6046 5241 6047 0
6046 -6047 0
6046 8379 -8475 -5241 0
6047 8379 -8476 -1657 0
-6047 1657 0
-6047 8476 0
-6047 -8379 0
6048 -8379 -1656 0
6048 -8379 8476 0
-6048 8379 0
-6048 -8476 1656 0
-6049 8376 8473 0
-6049 8371 8376 0
-6049 8371 -8474 0
-6049 -8371 -8376 -8473 0
6049 -8371 8376 -8473 0
6049 8371 -8376 8474 0
6049 -8371 -8376 8473 0
-6050 -8383 -2163 0
-6050 -8383 -6052 0
-6050 8383 6051 6052 0
6050 8383 -6051 0
6050 -8383 2163 6052 0
6050 8383 -6052 0
6051 -8384 -1546 0
-6051 8384 0
-6051 1546 0
6052 -8385 -5248 0
-6052 8385 0
-6052 5248 0
-6053 2152 6054 0
6053 -2152 0
6053 -6054 0
6054 8370 -8372 -5262 0
6054 -8372 8470 -5262 0
6054 -8370 8372 -8470 -5262 0
-6054 8372 8470 0
-6054 8370 8372 0
-6054 5262 0
-6054 -8370 -8372 -8470 0
6055 -8470 5262 0
6055 8370 8372 -8470 0
-6055 8470 0
-6055 -8370 -5262 0
-6055 -8372 -5262 0
-6056 5988 6057 0
-6056 -5988 -6057 0
6056 -5988 6057 0
6056 5988 -6057 0
-6057 5938 5997 0
-6057 -5938 -5997 0
6057 -5938 5997 0
6057 5938 -5997 0
-6058 6017 6059 0
-6058 -6017 -6059 0
6058 -6017 6059 0
6058 6017 -6059 0
-6059 -6001 -6012 0
-6059 6001 6012 0
6059 6001 -6012 0
6059 -6001 6012 0
6060 -6061 -6078 0
6060 -6077 -6078 0
6060 -6061 -6077 0
6060 -6072 -6077 0
6060 -6072 -6078 0
-6060 6077 6078 0
-6060 6061 6072 6077 0
-6060 6061 6072 6078 0
-6061 6062 6067 0
-6061 6067 6071 0
-6061 6066 0
-6061 6062 6071 0
6061 -6062 -6066 -6067 0
6061 -6062 -6066 -6071 0
6061 -6066 -6067 -6071 0
-6062 6063 6064 0
-6062 -8384 -5248 6064 0
6062 -6064 0
6062 5248 -6063 0
6062 8384 -6063 0
6063 8381 -8383 0
6063 -8383 -1545 0
-6063 8383 0
-6063 -8381 1545 0
-6064 8384 6065 0
-6064 -8383 6065 0
-6064 5248 6065 0
6064 -6065 0
6064 8383 -8384 -5248 0
6065 -8381 -5326 0
-6065 8381 0
-6065 5326 0
6066 -8370 -5262 0
-6066 8370 0
-6066 5262 0
-6067 6068 6070 0
-6067 -8476 -5241 6068 0
6067 -6068 0
6067 8476 -6070 0
6067 5241 -6070 0
-6068 8476 6069 0
-6068 -8379 6069 0
-6068 5241 6069 0
6068 -6069 0
6068 8379 -8476 -5241 0
6069 8379 -8385 -1657 0
-6069 1657 0
-6069 8385 0
-6069 -8379 0
6070 -8379 -1656 0
6070 -8379 8385 0
-6070 8379 0
-6070 -8385 1656 0
-6071 8376 8474 0
-6071 8371 8376 0
-6071 8371 -8475 0
-6071 -8371 -8376 -8474 0
6071 -8371 8376 -8474 0
6071 8371 -8376 8475 0
6071 -8371 -8376 8474 0
6072 -6073 -6075 0
-6072 6073 0
-6072 6075 0
6073 6061 -6074 0
-6073 -6061 0
-6073 6074 0
-6074 6062 6066 6067 0
-6074 6062 6066 6071 0
-6074 6066 6067 6071 0
6074 -6067 -6071 0
6074 -6062 -6067 0
6074 -6066 0
6074 -6062 -6071 0
6075 -6050 6076 0
6075 6050 -6076 0
-6075 6050 6076 0
-6075 -6050 -6076 0
-6076 6045 6049 0
-6076 -6045 -6049 0
6076 -6045 6049 0
6076 6045 -6049 0
-6077 6044 6053 0
-6077 -6044 -6053 0
6077 -6044 6053 0
6077 6044 -6053 0
6078 -6079 -6087 0
6078 -6083 -6087 0
6078 -6079 -6083 0
-6078 6079 6083 0
-6078 6083 6087 0
-6078 6079 6087 0
-6079 6080 6081 -6082 0
-6079 -8465 -6080 6081 0
-6079 8465 6080 6081 0
6079 -6081 0
6079 8465 -6080 0
6079 -8465 6080 6082 0
6080 -8377 -5282 0
-6080 8377 0
-6080 5282 0
6081 -8375 8465 -1411 0
-6081 8375 0
-6081 -8465 0
-6081 1411 0
6082 -8375 8386 8477 0
-6082 8375 0
-6082 -8477 0
-6082 -8386 0
-6083 -8477 -6084 0
-6083 -8477 -6086 0
-6083 8477 6084 6085 0
6083 8477 -6085 0
6083 -8477 6084 6086 0
6083 8477 -6084 0
6084 -8381 -5276 0
-6084 8381 0
-6084 5276 0
6085 -8380 -1483 0
-6085 8380 0
-6085 1483 0
6086 -8380 1482 0
-6086 8380 0
-6086 -1482 0
-6087 -8469 -2187 0
-6087 -8469 -6088 0
-6087 8469 6088 6089 0
6087 8469 -6088 0
6087 -8469 2187 6088 0
6087 8469 -6089 0
6088 -8373 -5288 0
-6088 8373 0
-6088 5288 0
6089 -8372 -1340 0
-6089 8372 0
-6089 1340 0
6090 6091 -6092 0
6090 -6091 6092 0
-6090 -6091 -6092 0
-6090 6091 6092 0
-6091 -5936 -5946 0
-6091 5936 5946 0
6091 5936 -5946 0
6091 -5936 5946 0
6092 -6043 -6056 0
6092 -6037 -6043 0
6092 -6037 -6056 0
-6092 6037 6043 0
-6092 6043 6056 0
-6092 6037 6056 0
6093 6019 -6094 0
6093 -6019 6094 0
-6093 -6019 -6094 0
-6093 6019 6094 0
6094 6016 -5987 0
6094 -6016 5987 -6017 0
6094 5987 -6000 0
6094 -5987 6000 6017 0
-6094 5987 6000 6017 0
-6094 -6016 -5987 -6000 0
-6094 -6016 -5987 -6017 0
-6094 6016 5987 6000 0
6095 -6096 -6098 0
-6095 6096 0
-6095 6098 0
6096 -6036 6097 0
6096 6036 -6097 0
-6096 6036 6097 0
-6096 -6036 -6097 0
-6097 -6058 -6060 0
-6097 6058 6060 0
6097 6058 -6060 0
6097 -6058 6060 0
-6098 6099 6101 0
-6098 6101 6102 0
-6098 6099 6102 0
6098 -6101 -6102 0
6098 -6099 -6101 0
6098 -6099 -6102 0
6099 -6077 6100 0
6099 6077 -6100 0
-6099 6077 6100 0
-6099 -6077 -6100 0
-6100 6074 6078 0
-6100 -6074 -6075 -6078 0
-6100 -6061 -6078 0
-6100 6061 6075 6078 0
6100 6061 6075 -6078 0
6100 -6061 -6074 6078 0
6100 6061 6074 -6078 0
6100 -6074 -6075 6078 0
-6101 6038 6040 0
-6101 -6038 -6040 0
6101 -6038 6040 0
6101 6038 -6040 0
-6102 6103 6118 0
-6102 6103 6114 0
-6102 6114 6118 0
6102 -6114 -6118 0
6102 -6103 -6118 0
6102 -6103 -6114 0
-6103 6104 6108 0
-6103 6108 6112 0
-6103 6104 6112 0
6103 -6108 -6112 0
6103 -6104 -6108 0
6103 -6104 -6112 0
-6104 6105 6106 0
-6104 -8375 -5282 6106 0
6104 -6106 0
6104 5282 -6105 0
6104 8375 -6105 0
6105 -8386 -8465 0
6105 -8465 -8477 0
6105 8373 -8465 0
-6105 8465 0
-6105 -8373 8386 8477 0
-6106 1410 5282 0
-6106 8373 6107 0
-6106 1410 6107 0
-6106 8373 5282 0
6106 -8373 -1410 0
6106 -5282 -6107 0
6107 -8375 8465 0
-6107 8375 0
-6107 -8465 0
-6108 6109 6110 0
-6108 -8380 -5276 6110 0
6108 -6110 0
6108 5276 -6109 0
6108 8380 -6109 0
6109 8377 -8477 0
6109 -8477 -1482 0
-6109 8477 0
-6109 -8377 1482 0
-6110 -8477 6111 0
-6110 5276 6111 0
-6110 8380 6111 0
6110 -6111 0
6110 -8380 8477 -5276 0
6111 -8377 8477 -1483 0
-6111 8377 0
-6111 -8477 0
-6111 1483 0
6112 -8469 6113 0
6112 8469 -6113 0
-6112 8469 6113 0
-6112 -8469 -6113 0
-6113 2223 5288 0
-6113 8372 2223 0
6113 -2223 0
6113 -8372 -5288 0
6114 -6062 6115 -6116 0
6114 6062 -6115 -6116 0
-6114 6116 0
-6114 -6062 -6115 0
-6114 6062 6115 0
-6115 6067 6071 0
-6115 -6067 -6071 0
6115 -6067 6071 0
6115 6067 -6071 0
6116 -8469 6117 0
-6116 8469 0
-6116 -6117 0
6117 -8370 -5288 0
-6117 8370 0
-6117 5288 0
-6118 6087 6119 0
-6118 -6087 -6119 0
6118 -6087 6119 0
6118 6087 -6119 0
-6119 6079 6083 0
-6119 -6079 -6083 0
6119 -6079 6083 0
6119 6079 -6083 0
6120 -6121 -6123 0
-6120 6121 0
-6120 6123 0
-6121 6024 6122 0
-6121 -6024 -6122 0
6121 -6024 6122 0
6121 6024 -6122 0
-6122 -5986 -6022 0
-6122 5986 6022 0
6122 5986 -6022 0
6122 -5986 6022 0
-6123 6092 6093 0
-6123 6091 6092 0
-6123 6091 6093 0
6123 -6091 -6092 0
6123 -6092 -6093 0
6123 -6091 -6093 0
6124 -6125 -6189 0
-6124 6125 0
-6124 6189 0
6125 -6126 -6188 0
-6125 6126 0
-6125 6188 0
-6126 6127 6156 0
6126 -6127 0
6126 -6156 0
6127 -6128 -6130 0
-6127 6128 0
-6127 6130 0
-6128 6099 6129 0
-6128 -6099 -6129 0
6128 -6099 6129 0
6128 6099 -6129 0
-6129 6101 6102 0
-6129 -6101 -6102 0
6129 -6101 6102 0
6129 6101 -6102 0
-6130 6131 6154 0
-6130 6131 6132 0
-6130 6132 6154 0
6130 -6132 -6154 0
6130 -6131 -6154 0
6130 -6131 -6132 0
-6131 -6073 -6075 0
-6131 6073 6075 0
6131 6073 -6075 0
6131 -6073 6075 0
6132 -6142 -6152 0
6132 -6133 -6152 0
6132 -6133 -6142 0
-6132 6133 6152 0
-6132 6133 6142 0
-6132 6142 6152 0
-6133 6134 6137 0
-6133 6137 6141 0
-6133 6134 6141 0
6133 -6134 -6141 0
6133 -6137 -6141 0
6133 -6134 -6137 0
-6134 -8383 -2249 0
-6134 -8383 -6135 0
-6134 8383 6135 6136 0
6134 8383 -6135 0
6134 -8383 2249 6135 0
6134 8383 -6136 0
6135 -8381 -5248 0
-6135 8381 0
-6135 5248 0
6136 -8380 -1546 0
-6136 8380 0
-6136 1546 0
-6137 8384 6138 6140 0
-6137 5257 6138 6140 0
6137 -6140 0
6137 -6138 0
6137 -8384 -5257 0
6138 -8379 8385 6139 0
6138 -8379 5241 6139 0
-6138 8379 0
-6138 -6139 0
-6138 -8385 -5241 0
6139 -8384 1656 0
-6139 8384 0
-6139 -1656 0
6140 8379 -8385 -5241 0
-6140 -8379 0
-6140 8385 0
-6140 5241 0
-6141 8376 8475 0
-6141 8371 8376 0
-6141 8371 -8476 0
-6141 -8371 -8376 -8475 0
6141 -8371 8376 -8475 0
6141 8371 -8376 8476 0
6141 -8371 -8376 8475 0
6142 -6143 -6147 0
6142 -6117 -6143 0
6142 -6117 -6147 0
-6142 6117 6143 0
-6142 6143 6147 0
-6142 6117 6147 0
-6143 6144 6146 0
-6143 -8373 -5282 6144 0
6143 -6144 0
6143 8373 -6146 0
6143 5282 -6146 0
-6144 -8465 6145 0
-6144 5282 6145 0
-6144 8373 6145 0
6144 -6145 0
6144 -8373 8465 -5282 0
6145 -8372 -1410 0
-6145 8372 0
-6145 1410 0
6146 8372 -8465 0
6146 -8465 -1409 0
-6146 8465 0
-6146 -8372 1409 0
-6147 6148 6151 0
-6147 -8377 -5276 6148 0
6147 -6148 0
6147 8377 -6151 0
6147 5276 -6151 0
-6148 1483 5276 0
-6148 6149 6150 0
-6148 5276 6149 0
-6148 1483 6150 0
6148 -5276 -6150 0
6148 -1483 -6149 0
6149 -8375 8477 0
-6149 8375 0
-6149 -8477 0
6150 -8377 8477 0
-6150 8377 0
-6150 -8477 0
6151 8375 -8477 0
6151 -8477 -1482 0
-6151 8477 0
-6151 -8375 1482 0
-6152 -6153 -6112 0
-6152 6153 6112 0
6152 6153 -6112 0
6152 -6153 6112 0
-6153 6104 6108 0
-6153 -6104 -6108 0
6153 -6104 6108 0
6153 6104 -6108 0
-6154 6118 6155 0
-6154 -6118 -6155 0
6154 -6118 6155 0
6154 6118 -6155 0
-6155 -6103 -6114 0
-6155 6103 6114 0
6155 6103 -6114 0
6155 -6103 6114 0
6156 -6157 -6159 0
-6156 6157 0
-6156 6159 0
-6157 6158 6154 0
-6157 -6158 -6154 0
6157 -6158 6154 0
6157 6158 -6154 0
-6158 -6131 -6132 0
-6158 6131 6132 0
6158 6131 -6132 0
6158 -6131 6132 0
6159 -6160 -6187 0
6159 -6185 -6187 0
-6159 6187 0
-6159 6160 6185 0
6160 -6161 -6181 -6183 0
6160 -6172 -6181 -6183 0
6160 -6161 -6172 -6181 0
-6160 6172 6183 0
-6160 6161 6172 0
-6160 6181 0
-6160 6161 6183 0
6161 -6166 -6170 0
6161 -6162 -6166 0
6161 -6162 -6170 0
-6161 6162 6166 0
-6161 6166 6170 0
-6161 6162 6170 0
-6162 6163 6165 0
-6162 -8375 -5276 6163 0
6162 -6163 0
6162 8375 -6165 0
6162 5276 -6165 0
-6163 1483 6149 0
-6163 5276 6164 0
-6163 1483 5276 0
-6163 6149 6164 0
6163 -1483 -6164 0
6163 -5276 -6149 0
6164 -8373 8477 0
-6164 8373 0
-6164 -8477 0
6165 8373 -8477 0
6165 -8477 -1482 0
-6165 8477 0
-6165 -8373 1482 0
-6166 6167 6169 0
-6166 -8372 -5282 6167 0
6166 -6167 0
6166 8372 -6169 0
6166 5282 -6169 0
-6167 -8465 6168 0
-6167 5282 6168 0
-6167 8372 6168 0
6167 -6168 0
6167 -8372 8465 -5282 0
6168 -8370 -1410 0
-6168 8370 0
-6168 1410 0
6169 8370 -8465 0
6169 -8465 -1409 0
-6169 8465 0
-6169 -8370 1409 0
6170 -8465 6171 0
-6170 8465 0
-6170 -6171 0
6171 -8370 -5282 0
-6171 8370 0
-6171 5282 0
6172 -6177 -6178 0
6172 -6173 -6178 0
6172 -6173 -6177 0
-6172 6173 6178 0
-6172 6173 6177 0
-6172 6177 6178 0
-6173 6174 6176 0
-6173 -8384 -5241 6174 0
6173 -6174 0
6173 8384 -6176 0
6173 5241 -6176 0
-6174 8381 6175 0
-6174 5257 6175 0
6174 -6175 0
6174 -8381 -5257 0
6175 8379 -8384 -1656 1657 0
-6175 8384 0
-6175 -1657 0
-6175 -8379 0
-6175 1656 0
6176 -8379 -1656 0
6176 -8379 8381 0
-6176 8379 0
-6176 -8381 1656 0
6177 8371 -8376 8385 0
6177 -8371 -8376 8476 0
6177 -8371 8376 -8476 0
-6177 8376 8476 0
-6177 8371 8376 0
-6177 8371 -8385 0
-6177 -8371 -8376 -8476 0
-6178 -8383 -2280 0
-6178 -8383 -6180 0
-6178 8383 6179 6180 0
6178 8383 -6179 0
6178 -8383 2280 6180 0
6178 8383 -6180 0
6179 -8377 -1546 0
-6179 8377 0
-6179 1546 0
6180 -8380 -5248 0
-6180 8380 0
-6180 5248 0
-6181 -6115 -6182 0
-6181 6115 6182 0
6181 6115 -6182 0
6181 -6115 6182 0
6182 6062 -6116 0
6182 -6062 6116 0
-6182 -6062 -6116 0
-6182 6062 6116 0
6183 -6134 6184 0
6183 6134 -6184 0
-6183 6134 6184 0
-6183 -6134 -6184 0
-6184 6137 6141 0
-6184 -6137 -6141 0
6184 -6137 6141 0
6184 6137 -6141 0
-6185 6152 6186 0
-6185 -6152 -6186 0
6185 -6152 6186 0
6185 6152 -6186 0
-6186 -6133 -6142 0
-6186 6133 6142 0
6186 6133 -6142 0
6186 -6133 6142 0
-6187 6172 6181 6183 0
-6187 6161 6181 6183 0
-6187 6161 6172 6181 0
6187 -6161 -6172 0
6187 -6172 -6183 0
6187 -6181 0
6187 -6161 -6183 0
-6188 6128 6130 0
6188 -6128 0
6188 -6130 0
6189 6095 -6190 0
-6189 -6095 0
-6189 6190 0
-6190 6096 6098 0
6190 -6096 0
6190 -6098 0
6191 -6189 -6192 0
-6191 6189 0
-6191 6192 0
6192 -6193 -6328 0
-6192 6193 0
-6192 6328 0
6193 -6194 -6216 0
6193 -6216 -6325 0
-6193 6216 0
-6193 6194 6325 0
6194 -6195 -6197 0
-6194 6195 0
-6194 6197 0
6195 6185 -6196 0
6195 -6185 6196 0
-6195 -6185 -6196 0
-6195 6185 6196 0
6196 6160 -6187 0
-6196 -6160 0
-6196 6187 0
6197 -6198 -6215 0
6197 -6200 -6215 0
-6197 6215 0
-6197 6198 6200 0
6198 -6183 6199 0
6198 6183 -6199 0
-6198 6183 6199 0
-6198 -6183 -6199 0
-6199 -6161 -6172 0
-6199 6161 6172 0
6199 6161 -6172 0
6199 -6161 6172 0
-6200 6203 6213 0
-6200 6201 6203 0
-6200 6211 0
-6200 6201 6213 0
6200 -6201 -6211 -6213 0
6200 -6201 -6203 -6211 0
6200 -6203 -6211 -6213 0
6201 -6178 6202 0
6201 6178 -6202 0
-6201 6178 6202 0
-6201 -6178 -6202 0
-6202 -6173 -6177 0
-6202 6173 6177 0
6202 6173 -6177 0
6202 -6173 6177 0
6203 -6206 -6210 0
6203 -6204 -6210 0
6203 -6204 -6206 0
-6203 6204 6210 0
-6203 6204 6206 0
-6203 6206 6210 0
-6204 8383 6205 0
-6204 -8383 -6205 0
6204 -8383 6205 0
6204 8383 -6205 0
-6205 2312 5248 0
-6205 8377 2312 0
6205 -2312 0
6205 -8377 -5248 0
6206 8379 -6209 0
6206 -8379 6207 6208 0
6206 8379 -6207 0
-6206 -8379 -6207 0
-6206 -8379 -6208 0
-6206 8379 6207 6209 0
6207 -8381 -5241 0
-6207 8381 0
-6207 5241 0
6208 -8380 1656 0
-6208 8380 0
-6208 -1656 0
6209 -8380 -1657 0
-6209 8380 0
-6209 1657 0
-6210 8376 8385 0
-6210 8371 8376 0
-6210 8371 -8384 0
-6210 -8371 -8376 -8385 0
6210 8371 -8376 8384 0
6210 -8371 -8376 8385 0
6210 -8371 8376 -8385 0
6211 -6117 6212 0
6211 6117 -6212 0
-6211 6117 6212 0
-6211 -6117 -6212 0
-6212 6143 6147 0
-6212 -6143 -6147 0
6212 -6143 6147 0
6212 6143 -6147 0
6213 -6170 6214 0
6213 6170 -6214 0
-6213 6170 6214 0
-6213 -6170 -6214 0
-6214 6162 6166 0
-6214 -6162 -6166 0
6214 -6162 6166 0
6214 6162 -6166 0
-6215 6201 6211 6213 0
-6215 6203 6211 6213 0
-6215 6201 6203 6211 0
6215 -6201 -6203 0
6215 -6203 -6213 0
6215 -6211 0
6215 -6201 -6213 0
-6216 6194 6217 6248 6252 0
6216 -6252 0
6216 -6248 0
6216 -6194 0
6216 -6217 0
6217 -6218 -6235 0
-6217 6218 0
-6217 6235 0
-6218 -6219 -6220 0
-6218 6219 6220 0
6218 6219 -6220 0
6218 -6219 6220 0
-6219 -6201 -6203 0
-6219 6201 6203 0
6219 6201 -6203 0
6219 -6201 6203 0
6220 -6213 6221 0
6220 6213 -6221 0
-6220 6213 6221 0
-6220 -6213 -6221 0
-6221 6171 6231 0
-6221 6222 6231 0
-6221 6171 6222 0
-6221 6222 6225 0
-6221 6171 6225 0
6221 -6171 -6222 0
6221 -6171 -6225 -6231 0
6221 -6222 -6225 -6231 0
-6222 6223 6224 0
-6222 -8373 -5276 6223 0
6222 -6223 0
6222 8373 -6224 0
6222 5276 -6224 0
-6223 5278 5276 0
-6223 8372 6164 0
-6223 5278 6164 0
-6223 8372 5276 0
6223 -8372 -5278 0
6223 -5276 -6164 0
6224 8372 -8477 0
6224 -8477 -1482 0
-6224 8477 0
-6224 -8372 1482 0
-6225 6226 6230 0
6225 -6226 0
6225 -6230 0
-6226 6227 6229 0
-6226 -8380 -5241 6227 0
6226 -6227 0
6226 8380 -6229 0
6226 5241 -6229 0
-6227 8380 6228 0
-6227 -8379 6228 0
-6227 5241 6228 0
6227 -6228 0
6227 8379 -8380 -5241 0
6228 -8377 -5257 0
-6228 8377 0
-6228 5257 0
6229 8377 -8379 0
6229 -8379 -1656 0
-6229 8379 0
-6229 -8377 1656 0
-6230 8376 8384 0
-6230 8371 8376 0
-6230 8371 -8381 0
-6230 -8371 -8376 -8384 0
6230 8371 -8376 8381 0
6230 -8371 -8376 8384 0
6230 -8371 8376 -8384 0
-6231 6230 6232 0
-6231 6226 6232 0
6231 -6232 0
6231 -6226 -6230 0
-6232 -8383 -2339 0
-6232 -8383 -6233 0
-6232 8383 6233 6234 0
6232 8383 -6233 0
6232 -8383 2339 6233 0
6232 8383 -6234 0
6233 -8375 -5248 0
-6233 8375 0
-6233 5248 0
6234 -8373 -1546 0
-6234 8373 0
-6234 1546 0
-6235 6236 6243 0
-6235 6243 6245 0
-6235 6236 6245 0
6235 -6236 -6245 0
6235 -6243 -6245 0
6235 -6236 -6243 0
-6236 6237 6242 0
-6236 6232 6241 6242 0
-6236 -6232 -6241 6242 0
6236 -6242 0
6236 -6232 -6237 6241 0
6236 6232 -6237 -6241 0
6237 -6238 -6240 0
6237 -1482 -6239 -6240 0
-6237 6240 0
-6237 6238 6239 0
-6237 1482 6238 0
-6238 8477 1483 0
-6238 -8477 -1482 -1483 0
-6238 -8372 -1482 1483 0
6238 -8477 1482 0
6238 8477 -1483 0
6238 8372 -8477 1483 0
6239 8370 -8372 0
6239 -8372 8477 0
-6239 8372 0
-6239 -8370 -8477 0
-6240 8370 8372 0
-6240 8370 5276 0
6240 -8370 0
6240 -8372 -5276 0
-6241 6226 6230 0
-6241 -6226 -6230 0
6241 -6226 6230 0
6241 6226 -6230 0
6242 -8477 -1483 0
6242 -8477 6240 0
-6242 8477 0
-6242 1483 -6240 0
-6243 6204 6244 0
-6243 -6204 -6244 0
6243 -6204 6244 0
6243 6204 -6244 0
-6244 6206 6210 0
-6244 -6206 -6210 0
6244 -6206 6210 0
6244 6206 -6210 0
-6245 6246 6247 0
-6245 -6246 -6247 0
6245 -6246 6247 0
6245 6246 -6247 0
6246 -6225 -6231 0
-6246 6225 0
-6246 6231 0
-6247 6171 6222 0
-6247 -6171 -6222 0
6247 -6171 6222 0
6247 6171 -6222 0
6248 -6249 -6251 0
-6248 6249 0
-6248 6251 0
6249 6198 -6250 0
6249 -6198 6250 0
-6249 -6198 -6250 0
-6249 6198 6250 0
6250 6200 -6215 0
-6250 -6200 0
-6250 6215 0
-6251 6221 0
-6251 -6213 -6219 0
-6251 6213 6219 0
6251 -6213 6219 -6221 0
6251 6213 -6219 -6221 0
6252 -6319 -6323 0
6252 -6322 -6323 0
6252 -6253 -6323 0
-6252 6323 0
-6252 6253 6319 6322 0
6253 -6254 -6309 -6311 0
-6253 6254 0
-6253 6311 0
-6253 6309 0
-6254 6255 6282 0
6254 -6255 0
6254 -6282 0
6255 -6256 6265 -6278 -6280 0
6255 6256 -6265 -6278 -6280 0
-6255 6280 0
-6255 -6256 -6265 0
-6255 6278 0
-6255 6256 6265 0
-6256 6257 6259 0
-6256 -6257 -6259 0
6256 -6257 6259 0
6256 6257 -6259 0
6257 -8383 6258 0
6257 8383 -6258 0
-6257 8383 6258 0
-6257 -8383 -6258 0
-6258 2374 5248 0
-6258 8373 2374 0
6258 -2374 0
6258 -8373 -5248 0
-6259 -6260 -6261 0
-6259 6260 6261 0
6259 6260 -6261 0
6259 -6260 6261 0
-6260 8376 8381 0
-6260 8371 8376 0
-6260 8371 -8380 0
-6260 -8371 -8376 -8381 0
6260 8371 -8376 8380 0
6260 -8371 -8376 8381 0
6260 -8371 8376 -8381 0
6261 8379 -6263 0
6261 -8379 6262 6263 0
6261 8379 -6264 0
-6261 -8379 -6262 0
-6261 -8379 -6263 0
-6261 8379 6263 6264 0
6262 -8375 1656 0
-6262 8375 0
-6262 -1656 0
6263 -8377 -5241 0
-6263 8377 0
-6263 5241 0
6264 -8375 -1657 0
-6264 8375 0
-6264 1657 0
-6265 -6266 -6277 0
-6265 6266 6275 6277 0
-6265 6276 6277 0
-6265 -6275 -6276 -6277 0
6265 -6266 -6276 6277 0
6265 6266 6276 -6277 0
6265 6266 6275 -6277 0
6265 -6275 -6276 6277 0
6266 -6267 -6271 0
-6266 6267 0
-6266 6271 0
6267 8379 -6270 0
6267 -8379 6268 6269 0
6267 8379 -6268 0
-6267 -8379 -6268 0
-6267 -8379 -6269 0
-6267 8379 6268 6270 0
6268 -8375 -5241 0
-6268 8375 0
-6268 5241 0
6269 -8373 1656 0
-6269 8373 0
-6269 -1656 0
6270 -8373 -1657 0
-6270 8373 0
-6270 1657 0
-6271 -8383 6274 0
-6271 6272 6273 6274 0
6271 -6274 0
6271 8383 -6272 0
6271 8383 -6273 0
6272 -8372 -5248 0
-6272 8372 0
-6272 5248 0
6273 -8370 -1546 0
-6273 8370 0
-6273 1546 0
6274 8370 -8383 6272 0
6274 -8383 -1545 6272 0
-6274 8383 0
-6274 -6272 0
-6274 -8370 1545 0
-6275 8376 8380 0
-6275 8371 8376 0
-6275 8371 -8377 0
-6275 -8371 -8376 -8380 0
6275 8371 -8376 8377 0
6275 -8371 -8376 8380 0
6275 -8371 8376 -8380 0
-6276 6267 6271 0
6276 -6267 0
6276 -6271 0
6277 -8370 -5276 0
-6277 8370 0
-6277 5276 0
6278 6271 -6279 0
6278 -6271 6279 0
-6278 -6271 -6279 0
-6278 6271 6279 0
6279 -6267 6275 0
6279 6267 -6275 0
-6279 6267 6275 0
-6279 -6267 -6275 0
6280 -8383 6281 0
-6280 8383 0
-6280 -6281 0
6281 -8370 -5248 0
-6281 8370 0
-6281 5248 0
-6282 6306 6308 0
-6282 6283 6308 0
-6282 6283 6306 0
6282 -6283 -6308 0
6282 -6283 -6306 0
6282 -6306 -6308 0
6283 -6284 -6292 0
6283 -6292 -6299 0
6283 -6284 -6299 0
-6283 6284 6299 0
-6283 6292 6299 0
-6283 6284 6292 0
6284 -6285 -6286 0
6284 -6286 -6288 0
6284 -6285 -6288 0
-6284 6286 6288 0
-6284 6285 6286 0
-6284 6285 6288 0
-6285 8371 8376 0
-6285 -8371 -8375 -8376 0
-6285 8371 -8373 0
-6285 8375 8376 0
6285 8371 8373 -8376 0
6285 -8371 8375 -8376 0
6285 -8371 -8375 8376 0
6286 -8379 6287 0
-6286 8379 0
-6286 -6287 0
6287 -8370 -5241 0
-6287 8370 0
-6287 5241 0
6288 8379 -6290 0
6288 -8379 6289 6290 0
6288 8379 -6291 0
-6288 -8379 -6289 0
-6288 -8379 -6290 0
-6288 8379 6290 6291 0
6289 -8370 1656 0
-6289 8370 0
-6289 -1656 0
6290 -8372 -5241 0
-6290 8372 0
-6290 5241 0
6291 -8370 -1657 0
-6291 8370 0
-6291 1657 0
6292 -6293 6297 0
6292 6293 -6297 0
-6292 6293 6297 0
-6292 -6293 -6297 0
6293 8379 -6295 0
6293 -8379 6294 6296 0
6293 8379 -6294 0
-6293 -8379 -6294 0
-6293 -8379 -6296 0
-6293 8379 6294 6295 0
6294 -8373 -5241 0
-6294 8373 0
-6294 5241 0
6295 -8372 -8374 -8376 0
-6295 8372 0
-6295 8374 0
-6295 8376 0
6296 -8372 1656 0
-6296 8372 0
-6296 -1656 0
-6297 6281 6298 0
-6297 -6281 -6298 0
6297 -6281 6298 0
6297 6281 -6298 0
-6298 8371 -8375 0
-6298 8371 8376 0
-6298 8376 8377 0
-6298 -8371 -8376 -8377 0
6298 -8371 8376 -8377 0
6298 -8371 -8376 8377 0
6298 8371 8375 -8376 0
6299 -6300 -6302 0
-6299 6300 0
-6299 6302 0
6300 -6288 6301 0
6300 6288 -6301 0
-6300 6288 6301 0
-6300 -6288 -6301 0
-6301 -6285 -6286 0
-6301 6285 6286 0
6301 6285 -6286 0
6301 -6285 6286 0
-6302 6287 -6303 0
-6302 6304 6305 0
-6302 -6303 6304 0
-6302 6287 6305 0
6302 -6287 -6304 0
6302 6303 -6305 0
-6303 -8371 8373 0
-6303 8371 8372 0
6303 8371 -8372 0
6303 -8371 -8373 0
-6304 8371 8376 0
-6304 -8371 -8373 -8376 0
-6304 8371 -8372 0
-6304 8373 8376 0
6304 8371 8372 -8376 0
6304 -8371 8373 -8376 0
6304 -8371 -8373 8376 0
6305 8370 -8376 2430 0
-6305 -8370 0
-6305 8376 0
-6305 -2430 0
-6306 -6279 -6307 0
-6306 6279 6307 0
6306 6279 -6307 0
6306 -6279 6307 0
6307 -6271 -6281 0
6307 6274 -6271 0
6307 -8383 6274 6281 0
-6307 -6274 6281 0
-6307 6271 -6281 0
-6307 8383 6271 0
6308 -6281 -6293 0
6308 -6293 -6298 0
6308 -6281 -6298 0
-6308 6293 6298 0
-6308 6281 6293 0
-6308 6281 6298 0
-6309 6278 6310 0
-6309 8383 6310 0
-6309 -6281 6310 0
6309 -6310 0
6309 -8383 -6278 6281 0
-6310 6256 6265 0
-6310 -6256 -6265 0
6310 -6256 6265 0
6310 6256 -6265 0
-6311 6312 6315 0
6311 -6312 0
6311 -6315 0
-6312 6277 6314 0
-6312 6313 6314 0
-6312 6276 6314 0
6312 -6314 0
6312 -6313 -6276 -6277 0
-6313 6266 6275 0
6313 -6266 0
6313 -6275 0
6314 -6256 -6265 0
-6314 6256 0
-6314 6265 0
-6315 6316 6317 0
-6315 -6316 -6317 0
6315 -6316 6317 0
6315 6316 -6317 0
-6316 6260 6261 0
-6316 6257 6261 0
-6316 6257 6260 0
6316 -6257 -6261 0
6316 -6257 -6260 0
6316 -6260 -6261 0
-6317 -6241 -6318 0
-6317 6241 6318 0
6317 6241 -6318 0
6317 -6241 6318 0
6318 6232 -6237 0
6318 -6232 6237 0
-6318 -6232 -6237 0
-6318 6232 6237 0
-6319 6321 0
-6319 -6245 -6320 0
-6319 6245 6320 0
6319 -6245 6320 -6321 0
6319 6245 -6320 -6321 0
-6320 6236 6243 0
-6320 -6236 -6243 0
6320 -6236 6243 0
6320 6236 -6243 0
6321 -6316 -6317 0
-6321 6316 0
-6321 6317 0
6322 -6312 -6315 0
-6322 6312 0
-6322 6315 0
6323 -6321 -6324 0
6323 6245 -6320 -6324 0
6323 -6245 6320 -6324 0
-6323 6324 0
-6323 6245 6320 6321 0
-6323 -6245 -6320 6321 0
-6324 6218 6235 0
-6324 -6218 -6235 0
6324 -6218 6235 0
6324 6218 -6235 0
6325 -6326 -6327 0
-6325 6326 0
-6325 6327 0
-6326 6195 6197 0
6326 -6195 0
6326 -6197 0
-6327 6249 6251 0
6327 -6249 0
6327 -6251 0
6328 -6329 -6330 0
-6328 6329 0
-6328 6330 0
6329 -6099 -6129 -6130 0
6329 -6099 6129 6130 0
6329 6099 6129 -6130 0
6329 6099 -6129 6130 0
-6329 -6099 -6129 6130 0
-6329 -6099 6129 -6130 0
-6329 6099 6129 6130 0
-6329 6099 -6129 -6130 0
-6330 -6157 -6159 0
-6330 6157 6159 0
6330 6157 -6159 0
6330 -6157 6159 0
6331 -6121 -6332 0
6331 -6123 -6332 0
6331 -6121 -6123 0
-6331 6121 6123 0
-6331 6123 6332 0
-6331 6121 6332 0
-6332 6035 6090 6093 0
-6332 6035 -6090 -6093 0
6332 -6035 0
6332 -6090 6093 0
6332 6090 -6093 0
-6333 6334 5891 6335 6336 0
6333 -6336 0
6333 -6335 0
6333 -6334 0
6333 -5891 0
6334 -6028 -6029 0
-6334 6028 0
-6334 6029 0
6335 -5849 -5851 0
-6335 5849 0
-6335 5851 0
6336 -6027 -6337 0
-6336 6027 0
-6336 6337 0
6337 -5983 -6338 0
-6337 5983 0
-6337 6338 0
-6338 5896 5985 0
-6338 5896 6025 0
6338 -5896 0
6338 -5985 -6025 0
6339 -6340 6351 0
-6339 6340 0
-6339 -6351 0
-6340 5477 5601 6341 0
6340 -5477 0
6340 -5601 0
6340 -6341 0
6341 5610 6342 6349 -6350 0
-6341 6350 0
-6341 -6349 0
-6341 -5610 0
-6341 -6342 0
6342 -6343 -6345 0
-6342 6343 0
-6342 6345 0
6343 -5230 -6344 0
-6343 5230 0
-6343 6344 0
-6344 5667 5738 0
6344 -5667 0
6344 -5738 0
-6345 6346 6347 0
6345 -6346 0
6345 -6347 0
6346 -5667 -5738 0
-6346 5667 0
-6346 5738 0
6347 -5741 -6348 0
-6347 5741 0
-6347 6348 0
6348 -5669 5673 0
6348 5669 -5673 0
-6348 5669 5673 0
-6348 -5669 -5673 0
6349 -5231 -5429 0
-6349 5231 0
-6349 5429 0
-6350 5604 5606 0
6350 -5604 0
6350 -5606 0
-6351 6352 6357 6398 0
6351 -6352 0
6351 -6357 0
6351 -6398 0
-6352 -5643 -6356 0
-6352 5642 6353 0
-6352 5642 -5643 0
-6352 5642 -6356 0
-6352 -5643 6353 0
6352 -5642 5643 0
6352 -5642 -6353 6356 0
6352 5643 -6353 6356 0
-6353 6354 6355 0
6353 -6354 0
6353 -6355 0
6354 -5479 5554 0
-6354 5479 0
-6354 -5554 0
6355 -5612 5613 0
-6355 5612 0
-6355 -5613 0
6356 5612 -5613 0
-6356 -5612 0
-6356 5613 0
-6357 6358 6395 0
6357 -6358 0
6357 -6395 0
6358 -6359 6379 0
-6358 6359 0
-6358 -6379 0
-6359 6360 6368 0
-6359 6360 -6369 0
6359 -6360 0
6359 -6368 6369 0
6360 -6361 -6367 0
-6360 6361 0
-6360 6367 0
-6361 6362 6363 0
-6361 -6362 -6363 0
6361 -6362 6363 0
6361 6362 -6363 0
6362 -5660 -5657 0
6362 -5663 -5657 0
6362 -5660 -5663 0
-6362 5660 5663 0
-6362 5663 5657 0
-6362 5660 5657 0
-6363 -6364 -6365 0
-6363 6364 6365 0
6363 6364 -6365 0
6363 -6364 6365 0
-6364 1332 5186 0
-6364 8473 1332 0
6364 -1332 0
6364 -8473 -5186 0
6365 -8447 6366 0
6365 8447 -6366 0
-6365 8447 6366 0
-6365 -8447 -6366 0
-6366 8406 8436 0
-6366 5198 5213 0
-6366 8436 5213 0
-6366 8406 5198 0
6366 -8436 -5198 0
6366 -8406 -5213 0
6367 -5645 5647 0
6367 5647 -5651 0
6367 -5645 -5651 0
-6367 -5647 5651 0
-6367 5645 -5647 0
-6367 5645 5651 0
6368 6361 -6367 0
6368 -6361 6367 0
-6368 -6361 -6367 0
-6368 6361 6367 0
6369 -6370 6376 0
6369 6370 -6376 0
-6369 6370 6376 0
-6369 -6370 -6376 0
6370 6371 -6373 0
6370 -6371 6373 0
-6370 -6371 -6373 0
-6370 6371 6373 0
-6371 8393 6372 0
-6371 -8393 -6372 0
6371 -8393 6372 0
6371 8393 -6372 0
-6372 8415 8468 0
-6372 5221 5222 0
-6372 8415 5222 0
-6372 8468 5221 0
6372 -8415 -5221 0
6372 -8468 -5222 0
6373 -8469 6374 0
6373 8469 -6374 0
-6373 8469 6374 0
-6373 -8469 -6374 0
-6374 8470 6375 0
-6374 -8470 -6375 0
6374 -8470 6375 0
6374 8470 -6375 0
-6375 1326 5262 0
-6375 8464 1326 0
6375 -1326 0
6375 -8464 -5262 0
-6376 6377 6378 0
-6376 -6377 -6378 0
6376 -6377 6378 0
6376 6377 -6378 0
6377 -5656 -5664 0
-6377 5656 0
-6377 5664 0
-6378 5648 5650 0
6378 -5648 0
6378 -5650 0
6379 -6380 6384 0
6379 6380 -6384 0
-6379 6380 6384 0
-6379 -6380 -6384 0
6380 6381 6383 -6378 0
6380 -6381 6382 -6383 0
6380 -6381 6382 6378 0
6380 6381 -6382 6383 0
-6380 -6381 -6382 0
-6380 6381 6382 6378 0
-6380 6381 -6383 0
-6380 -6381 6383 -6378 0
-6381 1308 5186 0
-6381 8406 1308 0
6381 -1308 0
6381 -8406 -5186 0
6382 6370 -5656 -5664 0
-6382 5664 0
-6382 5656 0
-6382 -6370 0
6383 -6370 6377 0
-6383 6370 0
-6383 -6377 0
-6384 6385 6392 0
-6384 -6385 -6392 0
6384 -6385 6392 0
6384 6385 -6392 0
6385 -6386 6388 0
6385 6386 -6388 0
-6385 6386 6388 0
-6385 -6386 -6388 0
6386 -8447 6387 0
6386 8447 -6387 0
-6386 8447 6387 0
-6386 -8447 -6387 0
-6387 1299 5198 0
-6387 8415 1299 0
6387 -1299 0
6387 -8415 -5198 0
-6388 6389 6391 0
-6388 -6389 -6391 0
6388 -6389 6391 0
6388 6389 -6391 0
6389 -8393 6390 0
6389 8393 -6390 0
-6389 8393 6390 0
-6389 -8393 -6390 0
-6390 8466 8468 0
-6390 5221 5222 0
-6390 8468 5222 0
-6390 8466 5221 0
6390 -8468 -5221 0
6390 -8466 -5222 0
-6391 8470 1304 0
-6391 8464 8470 0
-6391 -8464 -8470 1303 0
6391 -8470 -1303 0
6391 -8464 8470 -1304 0
6391 8464 -8470 0
-6392 6393 6394 0
-6392 -6393 -6394 0
6392 -6393 6394 0
6392 6393 -6394 0
-6393 6364 6365 0
-6393 6362 6365 0
-6393 6362 6364 0
6393 -6362 -6365 0
6393 -6362 -6364 0
6393 -6364 -6365 0
-6394 -8469 6374 0
-6394 6374 6371 0
-6394 -8469 6371 0
6394 8469 -6371 0
6394 -6374 -6371 0
6394 8469 -6374 0
6395 6396 -6397 0
-6395 -6396 0
-6395 6397 0
6396 6368 -6369 0
6396 -6368 6369 0
-6396 -6368 -6369 0
-6396 6368 6369 0
6397 5644 -5655 0
6397 -5654 -5655 0
6397 5644 -5654 0
-6397 -5644 5654 0
-6397 5654 5655 0
-6397 -5644 5655 0
6398 -6399 6419 0
6398 -6406 6419 0
6398 -6417 6419 0
-6398 -6419 0
-6398 6399 6406 6417 0
6399 6400 -6401 0
-6399 -6400 0
-6399 6401 0
6400 5203 -5225 0
6400 -5203 5225 0
-6400 -5203 -5225 0
-6400 5203 5225 0
6401 -6402 6405 0
-6401 6402 0
-6401 -6405 0
6402 -6381 -6404 0
6402 -6403 -6381 0
6402 -6403 -6404 0
-6402 6403 6381 0
-6402 6381 6404 0
-6402 6403 6404 0
-6403 1295 5186 0
-6403 8436 1295 0
6403 -1295 0
6403 -8436 -5186 0
6404 -6386 -6389 0
6404 -6389 -6391 0
6404 -6386 -6391 0
-6404 6389 6391 0
-6404 6386 6389 0
-6404 6386 6391 0
-6405 -5217 -5218 0
-6405 5217 5218 0
6405 5217 -5218 0
6405 -5217 5218 0
6406 6407 -6415 0
-6406 -6407 0
-6406 6415 0
-6407 6408 6410 0
-6407 -6408 -6410 0
6407 -6408 6410 0
6407 6408 -6410 0
-6408 -6404 -6409 0
-6408 6404 6409 0
6408 6404 -6409 0
6408 -6404 6409 0
6409 -6403 6381 0
6409 6403 -6381 0
-6409 6403 6381 0
-6409 -6403 -6381 0
-6410 6411 6414 0
6410 -6411 0
6410 -6414 0
6411 6393 6394 -6412 0
6411 6393 6385 -6412 0
6411 6394 6385 -6412 0
-6411 -6394 -6385 0
-6411 -6393 -6394 0
-6411 6412 0
-6411 -6393 -6385 0
6412 5223 -6413 0
6412 -5223 6413 0
-6412 -5223 -6413 0
-6412 5223 6413 0
6413 -8470 5219 0
6413 8470 -5219 0
-6413 8470 5219 0
-6413 -8470 -5219 0
-6414 6393 6394 0
-6414 6394 6385 0
-6414 -6412 0
-6414 6393 6385 0
6414 -6393 -6394 6412 0
6414 -6394 -6385 6412 0
6414 -6393 -6385 6412 0
-6415 -6380 6416 0
-6415 6384 6416 0
6415 -6416 0
6415 6380 -6384 0
6416 6381 6370 -6377 0
6416 6381 6370 -6378 0
6416 6381 -6377 -6378 0
-6416 -6370 6377 0
-6416 6377 6378 0
-6416 -6381 0
-6416 -6370 6378 0
6417 -6408 6411 6418 0
6417 6411 -6414 6418 0
-6417 -6418 0
-6417 -6411 0
-6417 6408 6414 0
6418 -6402 6405 0
6418 6402 -6405 0
-6418 6402 6405 0
-6418 -6402 -6405 0
-6419 6420 -6399 0
-6419 6420 6421 0
6419 -6420 0
6419 6399 -6421 0
6420 -6400 6401 0
-6420 6400 0
-6420 -6401 0
6421 6408 6414 -6418 0
6421 -6411 6414 -6418 0
-6421 6418 0
-6421 -6414 0
-6421 -6408 6411 0
6422 5191 -5180 0
-6422 -5191 0
-6422 5180 0
-6423 6424 6434 0
6423 -6424 0
6423 -6434 0
6424 -6425 6433 0
-6424 6425 0
-6424 -6433 0
-6425 6426 6427 6430 0
6425 -6426 0
6425 -6427 0
6425 -6430 0
-6426 6420 6399 0
6426 -6420 0
6426 -6399 0
-6427 6428 6429 0
6427 -6428 0
6427 -6429 0
-6428 6407 6415 0
-6428 -6407 -6415 0
6428 -6407 6415 0
6428 6407 -6415 0
-6429 6417 6421 0
6429 -6417 0
6429 -6421 0
6430 -6431 6358 0
6430 -6432 6358 0
-6430 -6358 0
-6430 6431 6432 0
6431 6359 -6379 0
-6431 -6359 0
-6431 6379 0
6432 -6396 6397 0
-6432 6396 0
-6432 -6397 0
-6433 6398 5201 0
6433 -6398 0
6433 -5201 0
-6434 6435 6436 0
6434 -6435 0
6434 -6436 0
6435 5202 -5226 0
-6435 -5202 0
-6435 5226 0
6436 5192 -5199 0
-6436 -5192 0
-6436 5199 0
6437 5795 -6340 6438 0
-6437 -5795 0
-6437 6340 0
-6437 -6438 0
-6438 6439 6433 0
-6438 6439 -6434 0
6438 -6439 0
6438 -6433 6434 0
-6439 6352 6357 0
6439 -6352 0
6439 -6357 0
-6440 -5228 6423 0
-6440 6423 -6438 0
-6440 6340 6423 0
6440 -6423 0
6440 5228 -6340 6438 0
6441 -6442 7709 7716 0
6441 -7705 7709 7716 0
-6441 -7716 0
-6441 -7709 0
-6441 6442 7705 0
-6442 -6443 7688 0
-6442 7209 7688 0
-6442 -7581 7688 0
6442 -7688 0
6442 6443 -7209 7581 0
-6443 6764 7200 0
-6443 6894 7200 0
-6443 6444 7200 0
6443 -7200 0
6443 -6444 -6764 -6894 0
6444 -6445 -6675 -6756 0
-6444 6756 0
-6444 6675 0
-6444 6445 0
-6445 -6446 -6618 0
-6445 6446 6618 0
6445 6446 -6618 0
6445 -6446 6618 0
-6446 6447 6617 0
-6446 6579 6617 0
6446 -6617 0
6446 -6447 -6579 0
-6447 6448 6510 6574 0
-6447 6448 6543 6574 0
-6447 6448 6510 6543 0
6447 -6510 -6543 0
6447 -6510 -6574 0
6447 -6448 0
6447 -6543 -6574 0
6448 -6449 6477 0
6448 6449 -6477 0
-6448 6449 6477 0
-6448 -6449 -6477 0
6449 6450 -6463 0
6449 -6450 6463 0
-6449 -6450 -6463 0
-6449 6450 6463 0
-6450 6451 6455 0
-6450 -6451 -6455 0
6450 -6451 6455 0
6450 6451 -6455 0
-6451 -8395 -616 0
-6451 -8395 -6452 0
-6451 8395 6452 6454 0
6451 8395 -6452 0
6451 -8395 616 6452 0
6451 8395 -6454 0
6452 -8442 -6453 0
-6452 8442 0
-6452 6453 0
-6453 -8426 -8446 0
-6453 8426 8446 0
6453 8426 -8446 0
6453 -8426 8446 0
6454 -8426 -8428 -8446 0
-6454 8426 0
-6454 8428 0
-6454 8446 0
-6455 -6456 -6462 0
-6455 6456 6462 0
6455 6456 -6462 0
6455 -6456 6462 0
-6456 6458 6461 0
-6456 -8424 -6457 6458 0
6456 -6458 0
6456 8424 -6461 0
6456 6457 -6461 0
-6457 -8451 -8455 0
-6457 8451 8455 0
6457 8451 -8455 0
6457 -8451 8455 0
-6458 445 6459 0
-6458 6457 6460 0
-6458 6459 6460 0
-6458 445 6457 0
6458 -445 -6460 0
6458 -6459 -6457 0
6459 -8424 8426 0
-6459 8424 0
-6459 -8426 0
6460 -8419 8426 0
-6460 8419 0
-6460 -8426 0
6461 8419 -8426 0
6461 -8426 -444 0
-6461 8426 0
-6461 -8419 444 0
6462 -8421 8451 -8461 0
6462 8421 -8451 -8461 0
6462 8423 -8451 8461 0
-6462 8451 8461 0
-6462 -8421 -8451 -8461 0
-6462 8421 8451 0
-6462 -8423 8461 0
6463 -6464 6476 0
-6463 6464 0
-6463 -6476 0
-6464 6465 6469 6474 0
-6464 6465 6470 6474 0
-6464 6469 6470 6474 0
6464 -6469 -6470 0
6464 -6465 -6469 0
6464 -6474 0
6464 -6465 -6470 0
-6465 6466 6468 0
-6465 -8419 -6457 6466 0
6465 -6466 0
6465 8419 -6468 0
6465 6457 -6468 0
-6466 -8426 6467 0
-6466 6457 6467 0
-6466 8419 6467 0
6466 -6467 0
6466 -8419 8426 -6457 0
6467 8426 -8442 -445 0
-6467 445 0
-6467 8442 0
-6467 -8426 0
6468 -8426 -444 0
6468 -8426 8442 0
-6468 8426 0
-6468 -8442 444 0
-6469 8451 8461 0
-6469 -8423 -8451 -8461 0
-6469 8423 8451 0
-6469 -8424 8461 0
6469 -8423 8451 -8461 0
6469 8423 -8451 -8461 0
6469 8424 -8451 8461 0
6470 -6471 6472 0
-6470 6471 0
-6470 -6472 0
-6471 8395 674 6453 0
-6471 8395 8428 674 0
6471 -8395 0
6471 -674 0
6471 -8428 -6453 0
6472 -8395 -6473 0
6472 -8395 -8412 332 0
-6472 8395 0
-6472 8412 6473 0
-6472 -332 6473 0
6473 -8428 -6453 0
-6473 8428 0
-6473 6453 0
6474 -8463 -6475 0
-6474 8463 0
-6474 6475 0
-6475 -8420 -8422 0
-6475 8420 8422 0
6475 8420 -8422 0
6475 -8420 8422 0
6476 -6465 -6469 -6474 0
6476 -6465 -6470 -6474 0
6476 -6469 -6470 -6474 0
-6476 6465 6469 0
-6476 6469 6470 0
-6476 6474 0
-6476 6465 6470 0
-6477 6478 6494 0
-6477 -6478 -6494 0
6477 -6478 6494 0
6477 6478 -6494 0
-6478 6479 6491 0
-6478 -6479 -6491 0
6478 -6479 6491 0
6478 6479 -6491 0
-6479 6480 6486 0
-6479 -6480 -6486 0
6479 -6480 6486 0
6479 6480 -6486 0
-6480 6482 6485 0
-6480 -8412 -6481 6482 0
6480 -6482 0
6480 8412 -6485 0
6480 6481 -6485 0
-6481 -8392 -8395 0
-6481 8392 8395 0
6481 8392 -8395 0
6481 -8392 8395 0
-6482 267 6483 0
-6482 6481 6484 0
-6482 267 6481 0
-6482 6483 6484 0
6482 -267 -6484 0
6482 -6481 -6483 0
6483 8402 -8412 0
-6483 -8402 0
-6483 8412 0
6484 8402 -8435 0
-6484 -8402 0
-6484 8435 0
6485 -8402 -266 0
6485 -8402 8435 0
-6485 8402 0
-6485 -8435 266 0
-6486 6488 6489 0
-6486 -8405 -6487 6489 0
6486 -6489 0
6486 6487 -6488 0
6486 8405 -6488 0
-6487 -8400 -8402 0
-6487 8400 8402 0
6487 8400 -8402 0
6487 -8400 8402 0
6488 -8410 -192 0
6488 -8410 8430 0
-6488 8410 0
-6488 -8430 192 0
-6489 -8410 6490 0
-6489 6487 6490 0
-6489 8405 6490 0
6489 -6490 0
6489 -8405 8410 -6487 0
6490 -8430 -193 0
-6490 8430 0
-6490 193 0
-6491 8444 6492 0
-6491 -8444 -6492 0
6491 -8444 6492 0
6491 8444 -6492 0
-6492 651 6493 0
-6492 8414 651 0
6492 -651 0
6492 -8414 -6493 0
-6493 -8408 -8410 0
-6493 8408 8410 0
6493 8408 -8410 0
6493 -8408 8410 0
-6494 -6495 -6507 0
-6494 6495 6507 0
6494 6495 -6507 0
6494 -6495 6507 0
-6495 6496 6501 0
-6495 -6496 -6501 0
6495 -6496 6501 0
6495 6496 -6501 0
-6496 6498 6499 0
-6496 -8449 -6497 6499 0
6496 -6499 0
6496 6497 -6498 0
6496 8449 -6498 0
-6497 -8438 -8440 0
-6497 8438 8440 0
6497 8438 -8440 0
6497 -8438 8440 0
6498 -8432 -44 0
6498 -8432 8453 0
-6498 8432 0
-6498 -8453 44 0
-6499 8449 6500 0
-6499 -8432 6500 0
-6499 6497 6500 0
6499 -6500 0
6499 8432 -8449 -6497 0
6500 8432 -8453 -46 0
-6500 46 0
-6500 8453 0
-6500 -8432 0
-6501 8390 6504 6506 0
-6501 6502 6504 6506 0
6501 -6506 0
6501 -6504 0
6501 -8390 -6502 0
6502 8438 -6503 0
-6502 -8438 0
-6502 6503 0
-6503 -8417 -8444 0
-6503 8417 8444 0
6503 8417 -8444 0
6503 -8417 8444 0
6504 8390 -8438 6505 0
6504 -8438 6503 6505 0
-6504 8438 0
-6504 -6505 0
-6504 -8390 -6503 0
6505 -8388 81 0
-6505 8388 0
-6505 -81 0
6506 -8388 8438 -82 0
-6506 8388 0
-6506 -8438 0
-6506 82 0
6507 -8420 6508 0
6507 8420 -6508 0
-6507 8420 6508 0
-6507 -8420 -6508 0
-6508 661 6509 0
-6508 8457 661 0
6508 -661 0
6508 -8457 -6509 0
-6509 -8432 -8433 0
-6509 8432 8433 0
6509 8432 -8433 0
6509 -8432 8433 0
6510 -6524 -6534 0
6510 -6511 -6534 0
6510 -6511 -6524 0
-6510 6511 6534 0
-6510 6511 6524 0
-6510 6524 6534 0
-6511 6512 6516 0
-6511 6516 6521 0
-6511 6512 6521 0
6511 -6512 -6521 0
6511 -6516 -6521 0
6511 -6512 -6516 0
-6512 6513 6515 0
-6512 -8398 -6487 6513 0
6512 -6513 0
6512 8398 -6515 0
6512 6487 -6515 0
-6513 -8410 6514 0
-6513 6487 6514 0
-6513 8398 6514 0
6513 -6514 0
6513 -8398 8410 -6487 0
6514 -8390 8410 -194 0
-6514 8390 0
-6514 -8410 0
-6514 194 0
6515 8390 -8410 0
6515 -8410 -192 0
-6515 8410 0
-6515 -8390 192 0
-6516 6517 6520 0
-6516 -8430 -6481 6517 0
6516 -6517 0
6516 8430 -6520 0
6516 6481 -6520 0
-6517 8430 6518 0
-6517 -8402 6518 0
-6517 6481 6518 0
6517 -6518 0
6517 8402 -8430 -6481 0
6518 -8414 -6519 0
-6518 8414 0
-6518 6519 0
6519 8402 -267 0
-6519 -8402 0
-6519 267 0
6520 -8402 -266 0
6520 -8402 8414 0
-6520 8402 0
-6520 -8414 266 0
-6521 -8444 -818 0
-6521 -8444 -6522 0
-6521 8444 6522 6523 0
6521 8444 -6522 0
6521 -8444 818 6522 0
6521 8444 -6523 0
6522 -8388 -6493 0
-6522 8388 0
-6522 6493 0
6523 -8408 -8410 -8449 0
-6523 8408 0
-6523 8410 0
-6523 8449 0
6524 -6530 -6531 0
6524 -6525 -6530 0
6524 -6525 -6531 0
-6524 6525 6530 0
-6524 6530 6531 0
-6524 6525 6531 0
-6525 6526 6527 0
-6525 -8428 -6457 6527 0
6525 -6527 0
6525 6457 -6526 0
6525 8428 -6526 0
6526 8412 -8426 0
6526 -8426 -444 0
-6526 8426 0
-6526 -8412 444 0
-6527 8412 6528 0
-6527 6457 6529 0
-6527 8412 6457 0
-6527 6528 6529 0
6527 -8412 -6529 0
6527 -6457 -6528 0
6528 8426 -8428 0
-6528 -8426 0
-6528 8428 0
6529 8426 -8451 -8455 0
-6529 8455 0
-6529 8451 0
-6529 -8426 0
-6530 8451 8461 0
-6530 -8419 -8451 -8461 0
-6530 8419 8451 0
-6530 -8442 8461 0
6530 -8419 8451 -8461 0
6530 8419 -8451 -8461 0
6530 8442 -8451 8461 0
6531 8395 -6532 0
6531 -8395 6532 6533 0
6531 8395 -807 0
-6531 -8395 -6532 0
-6531 8395 807 6532 0
-6531 -8395 -6533 0
6532 -8435 -6453 0
-6532 8435 0
-6532 6453 0
6533 -8405 332 0
-6533 8405 0
-6533 -332 0
-6534 6535 6538 0
-6534 6538 6541 0
-6534 6535 6541 0
6534 -6538 -6541 0
6534 -6535 -6538 0
6534 -6535 -6541 0
-6535 -8438 -824 0
-6535 -8438 -6536 0
-6535 8438 6536 6537 0
6535 8438 -6536 0
6535 -8438 824 6536 0
6535 8438 -6537 0
6536 -8453 -6503 0
-6536 8453 0
-6536 6503 0
6537 -8457 -82 0
-6537 8457 0
-6537 82 0
-6538 -8432 -827 0
-6538 -8432 -6539 0
-6538 8432 6539 6540 0
6538 8432 -6539 0
6538 -8432 827 6539 0
6538 8432 -6540 0
6539 -8459 -6497 0
-6539 8459 0
-6539 6497 0
6540 -8463 -46 0
-6540 8463 0
-6540 46 0
6541 -8432 6542 0
-6541 8432 0
-6541 -6542 0
6542 -8463 -6497 0
-6542 8463 0
-6542 6497 0
6543 -6553 -6565 0
6543 -6544 -6553 0
6543 -6544 -6565 0
-6543 6544 6553 0
-6543 6553 6565 0
-6543 6544 6565 0
-6544 6545 6547 0
-6544 -6545 -6547 0
6544 -6545 6547 0
6544 6545 -6547 0
-6545 8395 6546 0
-6545 -8395 -6546 0
6545 -8395 6546 0
6545 8395 -6546 0
-6546 755 6453 0
-6546 8412 755 0
6546 -755 0
6546 -8412 -6453 0
-6547 6548 6549 0
-6547 -6548 -6549 0
6547 -6548 6549 0
6547 6548 -6549 0
-6548 8451 8461 0
-6548 -8424 -8451 -8461 0
-6548 -8419 8461 0
-6548 8424 8451 0
6548 -8424 8451 -8461 0
6548 8424 -8451 -8461 0
6548 8419 -8451 8461 0
-6549 6550 6552 0
-6549 -8442 -6457 6550 0
6549 -6550 0
6549 8442 -6552 0
6549 6457 -6552 0
-6550 8442 6551 0
-6550 -8426 6551 0
-6550 6457 6551 0
6550 -6551 0
6550 8426 -8442 -6457 0
6551 8426 -8428 -445 0
-6551 445 0
-6551 8428 0
-6551 -8426 0
6552 -8426 -444 0
6552 -8426 8428 0
-6552 8426 0
-6552 -8428 444 0
-6553 6554 6556 0
-6553 -6554 -6556 0
6553 -6554 6556 0
6553 6554 -6556 0
-6554 8444 6555 0
-6554 -8444 -6555 0
6554 -8444 6555 0
6554 8444 -6555 0
-6555 765 6493 0
-6555 8390 765 0
6555 -765 0
6555 -8390 -6493 0
-6556 6557 6561 0
-6556 -6557 -6561 0
6556 -6557 6561 0
6556 6557 -6561 0
-6557 6558 6560 0
-6557 -8405 -6481 6558 0
6557 -6558 0
6557 8405 -6560 0
6557 6481 -6560 0
-6558 6519 6481 0
-6558 8430 6559 0
-6558 6519 6559 0
-6558 8430 6481 0
6558 -8430 -6519 0
6558 -6481 -6559 0
6559 8402 -8405 0
-6559 -8402 0
-6559 8405 0
6560 -8402 -266 0
6560 -8402 8430 0
-6560 8402 0
-6560 -8430 266 0
-6561 6562 6564 0
-6561 -8414 -6487 6562 0
6561 -6562 0
6561 8414 -6564 0
6561 6487 -6564 0
-6562 8414 6563 0
-6562 -8410 6563 0
-6562 6487 6563 0
6562 -6563 0
6562 8410 -8414 -6487 0
6563 -8398 -193 0
-6563 8398 0
-6563 193 0
6564 8398 -8410 0
6564 -8410 -192 0
-6564 8410 0
-6564 -8398 192 0
6565 -6566 6567 0
6565 6566 -6567 0
-6565 6566 6567 0
-6565 -6566 -6567 0
6566 -8463 -6509 0
-6566 8463 0
-6566 6509 0
-6567 6568 6571 0
-6567 -6568 -6571 0
6567 -6568 6571 0
6567 6568 -6571 0
-6568 -8432 -774 0
-6568 -8432 -6569 0
-6568 8432 6569 6570 0
6568 8432 -6569 0
6568 -8432 774 6569 0
6568 8432 -6570 0
6569 -8457 -6497 0
-6569 8457 0
-6569 6497 0
6570 -8459 -46 0
-6570 8459 0
-6570 46 0
-6571 -8438 -771 0
-6571 -8438 -6572 0
-6571 8438 6572 6573 0
6571 8438 -6572 0
6571 -8438 771 6572 0
6571 8438 -6573 0
6572 -8449 -6503 0
-6572 8449 0
-6572 6503 0
6573 -8453 -82 0
-6573 8453 0
-6573 82 0
-6574 -6575 -6576 0
-6574 6575 6576 0
6574 6575 -6576 0
6574 -6575 6576 0
-6575 6566 6568 0
-6575 6568 6571 0
-6575 6566 6571 0
6575 -6568 -6571 0
6575 -6566 -6568 0
6575 -6566 -6571 0
6576 -6577 6578 0
6576 6577 -6578 0
-6576 6577 6578 0
-6576 -6577 -6578 0
-6577 6554 6557 0
-6577 6557 6561 0
-6577 6554 6561 0
6577 -6554 -6561 0
6577 -6557 -6561 0
6577 -6554 -6557 0
-6578 6545 6548 0
-6578 6548 6549 0
-6578 6545 6549 0
6578 -6545 -6549 0
6578 -6548 -6549 0
6578 -6545 -6548 0
6579 -6580 6608 0
6579 6580 -6608 0
-6579 6580 6608 0
-6579 -6580 -6608 0
-6580 6581 -6592 -6605 0
-6580 6581 6592 6605 0
-6580 -6581 6592 -6605 0
-6580 -6581 -6592 6605 0
6580 6581 -6592 6605 0
6580 6581 6592 -6605 0
6580 -6581 6592 6605 0
6580 -6581 -6592 -6605 0
-6581 6582 6585 0
-6581 6585 6589 0
-6581 6582 6589 0
6581 -6585 -6589 0
6581 -6582 -6585 0
6581 -6582 -6589 0
6582 8444 -6583 0
6582 -8444 6583 6584 0
6582 8444 -710 0
-6582 -8444 -6583 0
-6582 8444 710 6583 0
-6582 -8444 -6584 0
6583 -8398 -6493 0
-6583 8398 0
-6583 6493 0
6584 -8390 124 0
-6584 8390 0
-6584 -124 0
-6585 6586 6588 0
-6585 -8430 -6487 6586 0
6585 -6586 0
6585 8430 -6588 0
6585 6487 -6588 0
-6586 8430 6587 0
-6586 -8410 6587 0
-6586 6487 6587 0
6586 -6587 0
6586 8410 -8430 -6487 0
6587 -8414 -193 0
-6587 8414 0
-6587 193 0
6588 -8410 -192 0
6588 -8410 8414 0
-6588 8410 0
-6588 -8414 192 0
-6589 6590 6591 0
-6589 -8435 -6481 6590 0
6589 -6590 0
6589 8435 -6591 0
6589 6481 -6591 0
-6590 267 6484 0
-6590 6481 6559 0
-6590 267 6481 0
-6590 6484 6559 0
6590 -267 -6559 0
6590 -6481 -6484 0
6591 -8402 -266 0
6591 -8402 8405 0
-6591 8402 0
-6591 -8405 266 0
-6592 6593 6596 0
-6592 6596 6601 0
-6592 6593 6601 0
6592 -6596 -6601 0
6592 -6593 -6596 0
6592 -6593 -6601 0
6593 8420 -6594 0
6593 -8420 6594 6595 0
6593 8420 -720 0
-6593 -8420 -6594 0
-6593 8420 720 6594 0
-6593 -8420 -6595 0
6594 -8459 -6509 0
-6594 8459 0
-6594 6509 0
6595 -8463 18 0
-6595 8463 0
-6595 -18 0
-6596 6597 6600 0
-6596 -8388 -6503 6597 0
6596 -6597 0
6596 8388 -6600 0
6596 6503 -6600 0
-6597 6598 6503 0
-6597 8449 6599 0
-6597 6598 6599 0
-6597 8449 6503 0
6597 -8449 -6598 0
6597 -6503 -6599 0
6598 8438 -82 0
-6598 -8438 0
-6598 82 0
6599 -8388 8438 0
-6599 8388 0
-6599 -8438 0
6600 -8438 -81 0
6600 -8438 8449 0
-6600 8438 0
-6600 -8449 81 0
-6601 6602 6604 0
-6601 -8453 -6497 6602 0
6601 -6602 0
6601 8453 -6604 0
6601 6497 -6604 0
-6602 45 6497 0
-6602 8457 6603 0
-6602 45 6603 0
-6602 8457 6497 0
6602 -8457 -45 0
6602 -6497 -6603 0
6603 8432 -8453 0
-6603 -8432 0
-6603 8453 0
6604 -8432 -44 0
6604 -8432 8457 0
-6604 8432 0
-6604 -8457 44 0
6605 6471 -6606 -6607 0
6605 -6472 -6606 -6607 0
6605 -6471 6472 6606 -6607 0
-6605 6471 6606 0
-6605 -6471 6472 -6606 0
-6605 6607 0
-6605 -6472 6606 0
-6606 6465 6469 0
-6606 -6465 -6469 0
6606 -6465 6469 0
6606 6465 -6469 0
6607 -8420 6566 0
-6607 8420 0
-6607 -6566 0
-6608 6609 6610 0
-6608 -6609 -6610 0
6608 -6609 6610 0
6608 6609 -6610 0
6609 -6575 -6578 0
6609 -6577 -6578 0
6609 -6575 -6577 0
-6609 6575 6577 0
-6609 6577 6578 0
-6609 6575 6578 0
-6610 6611 6615 0
-6610 6613 6615 0
-6610 6611 6613 0
6610 -6611 -6613 0
6610 -6613 -6615 0
6610 -6611 -6615 0
6611 -6593 6612 0
6611 6593 -6612 0
-6611 6593 6612 0
-6611 -6593 -6612 0
-6612 6596 6601 0
-6612 -6596 -6601 0
6612 -6596 6601 0
6612 6596 -6601 0
6613 -6582 6614 0
6613 6582 -6614 0
-6613 6582 6614 0
-6613 -6582 -6614 0
-6614 6585 6589 0
-6614 -6585 -6589 0
6614 -6585 6589 0
6614 6585 -6589 0
6615 6606 -6616 0
6615 -6606 6616 0
-6615 -6606 -6616 0
-6615 6606 6616 0
6616 6470 -6607 0
6616 -6470 6607 0
-6616 -6470 -6607 0
-6616 6470 6607 0
6617 -6448 -6543 -6574 0
6617 -6448 -6510 -6574 0
6617 -6448 -6510 -6543 0
-6617 6510 6574 0
-6617 6543 6574 0
-6617 6448 0
-6617 6510 6543 0
6618 -6619 6665 0
6618 6619 -6665 0
-6618 6619 6665 0
-6618 -6619 -6665 0
-6619 6620 6664 0
-6619 -6620 -6664 0
6619 -6620 6664 0
6619 6620 -6664 0
-6620 -6621 -6636 0
-6620 6621 6636 0
6620 6621 -6636 0
6620 -6621 6636 0
-6621 -6622 -6632 0
-6621 6622 6632 0
6621 6622 -6632 0
6621 -6622 6632 0
6622 -6623 6626 0
6622 6623 -6626 0
-6622 6623 6626 0
-6622 -6623 -6626 0
6623 8395 -6624 0
6623 -8395 6624 6625 0
6623 8395 -556 0
-6623 -8395 -6624 0
-6623 8395 556 6624 0
-6623 -8395 -6625 0
6624 -8419 -6453 0
-6624 8419 0
-6624 6453 0
6625 -8442 332 0
-6625 8442 0
-6625 -332 0
-6626 -6627 -6630 0
-6626 6627 6630 0
6626 6627 -6630 0
6626 -6627 6630 0
-6627 8424 6629 0
-6627 -8455 6629 0
-6627 6628 6629 0
6627 -6629 0
6627 -8424 8455 -6628 0
6628 -8426 8451 0
-6628 8426 0
-6628 -8451 0
-6629 6459 6457 0
-6629 8423 445 0
-6629 445 6457 0
-6629 8423 6459 0
6629 -445 -6459 0
6629 -8423 -6457 0
6630 8426 -6631 0
6630 -8426 6631 0
-6630 -8426 -6631 0
-6630 8426 6631 0
6631 8421 -8451 0
6631 -8451 -8461 0
-6631 8451 0
-6631 -8421 8461 0
6632 -6633 6635 0
-6632 6633 0
-6632 -6635 0
-6633 6451 6456 6634 0
-6633 6451 6462 6634 0
-6633 6456 6462 6634 0
6633 -6456 -6462 0
6633 -6451 -6456 0
6633 -6634 0
6633 -6451 -6462 0
-6634 607 6475 0
-6634 8459 607 0
6634 -607 0
6634 -8459 -6475 0
6635 -6451 -6456 -6634 0
6635 -6456 -6462 -6634 0
6635 -6451 -6462 -6634 0
-6635 6451 6456 0
-6635 6456 6462 0
-6635 6634 0
-6635 6451 6462 0
6636 -6637 6650 0
6636 6637 -6650 0
-6636 6637 6650 0
-6636 -6637 -6650 0
-6637 6638 6641 0
-6637 -6638 -6641 0
6637 -6638 6641 0
6637 6638 -6641 0
6638 8444 -6639 0
6638 -8444 6639 6640 0
6638 8444 -591 0
-6638 -8444 -6639 0
-6638 8444 591 6639 0
-6638 -8444 -6640 0
6639 -8430 -6493 0
-6639 8430 0
-6639 6493 0
6640 -8414 124 0
-6640 8414 0
-6640 -124 0
-6641 -6642 -6646 0
-6641 6642 6646 0
6641 6642 -6646 0
6641 -6642 6646 0
6642 6643 -6645 0
6642 -8435 -6487 6643 0
-6642 -6643 0
-6642 8435 6645 0
-6642 6487 6645 0
-6643 8435 6644 0
-6643 6487 6644 0
-6643 8410 6644 0
6643 -6644 0
6643 -8410 -8435 -6487 0
6644 8400 8402 -8405 -8410 0
-6644 -8400 0
-6644 8410 0
-6644 8405 0
-6644 -8402 0
-6645 8410 194 0
-6645 8405 8410 0
6645 -8410 0
6645 -8405 -194 0
6646 8402 -6649 0
6646 -8402 6647 6648 0
6646 8402 -6647 0
-6646 -8402 -6647 0
-6646 -8402 -6648 0
-6646 8402 6647 6649 0
6647 -8428 -6481 0
-6647 8428 0
-6647 6481 0
6648 -8412 266 0
-6648 8412 0
-6648 -266 0
6649 -8412 -267 0
-6649 8412 0
-6649 267 0
-6650 6651 6654 0
-6650 -6651 -6654 0
6650 -6651 6654 0
6650 6651 -6654 0
6651 8420 -6652 0
6651 -8420 6652 6653 0
6651 8420 -601 0
-6651 -8420 -6652 0
-6651 8420 601 6652 0
-6651 -8420 -6653 0
6652 -8453 -6509 0
-6652 8453 0
-6652 6509 0
6653 -8457 18 0
-6653 8457 0
-6653 -18 0
-6654 -6655 -6660 0
-6654 6655 6660 0
6654 6655 -6660 0
6654 -6655 6660 0
6655 6656 -6659 0
6655 -8398 -6503 6656 0
-6655 -6656 0
-6655 8398 6659 0
-6655 6503 6659 0
-6656 8438 6657 0
-6656 6503 6657 0
-6656 8398 6657 0
6656 -6657 0
6656 -8398 -8438 -6503 0
6657 -8390 -6658 0
-6657 8390 0
-6657 6658 0
6658 -8438 81 0
-6658 8438 0
-6658 -81 0
-6659 8438 82 0
-6659 8390 8438 0
6659 -8438 0
6659 -8390 -82 0
6660 6661 -6663 0
6660 -8388 -6497 6661 0
-6660 -6661 0
-6660 8388 6663 0
-6660 6497 6663 0
-6661 8432 6662 0
-6661 6497 6662 0
-6661 8388 6662 0
6661 -6662 0
6661 -8388 -8432 -6497 0
6662 -8449 -43 0
-6662 8449 0
-6662 43 0
-6663 8432 46 0
-6663 8432 8449 0
6663 -8432 0
6663 -8449 -46 0
-6664 6580 6610 0
-6664 6580 6609 0
-6664 6609 6610 0
6664 -6609 -6610 0
6664 -6580 -6610 0
6664 -6580 -6609 0
-6665 -6666 -6671 0
-6665 6666 6671 0
6665 6666 -6671 0
6665 -6666 6671 0
-6666 6667 6670 0
-6666 -6667 -6670 0
6666 -6667 6670 0
6666 6667 -6670 0
-6667 6668 6669 0
-6667 -6668 -6669 0
6667 -6668 6669 0
6667 6668 -6669 0
-6668 6480 6486 0
-6668 6486 6491 0
-6668 6480 6491 0
6668 -6480 -6491 0
6668 -6486 -6491 0
6668 -6480 -6486 0
-6669 6496 6501 0
-6669 6501 6507 0
-6669 6496 6507 0
6669 -6501 -6507 0
6669 -6496 -6501 0
6669 -6496 -6507 0
-6670 6450 6476 0
-6670 6464 6476 0
6670 -6476 0
6670 -6450 -6464 0
6671 6672 -6673 0
6671 6672 -6674 0
6671 -6672 6673 6674 0
-6671 -6672 -6674 0
-6671 6672 6673 6674 0
-6671 -6672 -6673 0
-6672 6581 6592 0
-6672 6592 6605 0
-6672 6581 6605 0
6672 -6592 -6605 0
6672 -6581 -6592 0
6672 -6581 -6605 0
6673 -6449 -6494 0
6673 -6449 -6478 0
-6673 6449 0
-6673 6478 6494 0
6674 -6478 -6494 0
-6674 6478 0
-6674 6494 0
-6675 6676 6717 0
-6675 -6676 -6717 0
6675 -6676 6717 0
6675 6676 -6717 0
-6676 -6677 -6679 0
-6676 6677 6679 0
6676 6677 -6679 0
6676 -6677 6679 0
6677 -6574 6678 0
6677 6574 -6678 0
-6677 6574 6678 0
-6677 -6574 -6678 0
-6678 -6510 -6543 0
-6678 6510 6543 0
6678 6510 -6543 0
6678 -6510 6543 0
6679 6680 -6716 0
-6679 -6680 0
-6679 6716 0
6680 -6681 -6682 0
-6680 6681 0
-6680 6682 0
6681 -6611 6613 6615 0
6681 -6611 -6613 -6615 0
6681 6611 -6613 6615 0
6681 6611 6613 -6615 0
-6681 -6611 6613 -6615 0
-6681 -6611 -6613 6615 0
-6681 6611 -6613 -6615 0
-6681 6611 6613 6615 0
-6682 6683 6715 0
6682 -6683 0
6682 -6715 0
6683 -6684 -6713 0
6683 -6708 -6713 0
-6683 6713 0
-6683 6684 6708 0
6684 -6685 -6694 0
6684 -6694 -6706 0
6684 -6685 -6706 0
-6684 6685 6706 0
-6684 6694 6706 0
-6684 6685 6694 0
6685 -6689 -6693 0
6685 -6686 -6689 0
6685 -6686 -6693 0
-6685 6686 6689 0
-6685 6689 6693 0
-6685 6686 6693 0
-6686 -8395 -867 0
-6686 -8395 -6688 0
-6686 8395 6687 6688 0
6686 8395 -6687 0
6686 -8395 867 6688 0
6686 8395 -6688 0
6687 -8430 -333 0
-6687 8430 0
-6687 333 0
6688 -8405 -6453 0
-6688 8405 0
-6688 6453 0
-6689 6690 6692 0
-6689 -8412 -6457 6690 0
6689 -6690 0
6689 8412 -6692 0
6689 6457 -6692 0
6690 -8412 445 -6691 0
6690 -8435 -445 -6691 0
-6690 6691 0
-6690 8412 445 0
-6690 8435 -445 0
6691 8426 -444 0
-6691 -8426 0
-6691 444 0
6692 -8426 -444 0
6692 -8426 8435 0
-6692 8426 0
-6692 -8435 444 0
6693 -8442 8451 -8461 0
6693 8442 -8451 -8461 0
6693 8428 -8451 8461 0
-6693 8451 8461 0
-6693 -8442 -8451 -8461 0
-6693 -8428 8461 0
-6693 8442 8451 0
6694 -6695 -6703 0
6694 -6699 -6703 0
6694 -6695 -6699 0
-6694 6695 6699 0
-6694 6699 6703 0
-6694 6695 6703 0
-6695 6696 6698 0
-6695 -8390 -6487 6696 0
6695 -6696 0
6695 8390 -6698 0
6695 6487 -6698 0
-6696 193 6487 0
-6696 8388 6697 0
-6696 193 6697 0
-6696 8388 6487 0
6696 -8388 -193 0
6696 -6487 -6697 0
6697 -8390 8410 0
-6697 8390 0
-6697 -8410 0
6698 8388 -8410 0
6698 -8410 -192 0
-6698 8410 0
-6698 -8388 192 0
-6699 6700 6702 0
-6699 -8414 -6481 6700 0
6699 -6700 0
6699 6481 -6702 0
6699 8414 -6702 0
-6700 8414 6701 0
-6700 -8402 6701 0
-6700 6481 6701 0
6700 -6701 0
6700 8402 -8414 -6481 0
6701 -8398 -6519 0
-6701 8398 0
-6701 6519 0
-6702 8402 0
-6702 -8398 266 0
6702 8398 -8402 0
6702 -8402 -266 0
-6703 -8444 -877 0
-6703 -8444 -6705 0
-6703 8444 6704 6705 0
6703 8444 -6704 0
6703 -8444 877 6705 0
6703 8444 -6705 0
6704 -8453 -125 0
-6704 8453 0
-6704 125 0
6705 -8449 -6493 0
-6705 8449 0
-6705 6493 0
6706 -6531 6707 0
6706 6531 -6707 0
-6706 6531 6707 0
-6706 -6531 -6707 0
-6707 6525 6530 0
-6707 -6525 -6530 0
6707 -6525 6530 0
6707 6525 -6530 0
6708 -6709 -6711 0
-6708 6709 0
-6708 6711 0
-6709 6541 6710 0
-6709 -6541 -6710 0
6709 -6541 6710 0
6709 6541 -6710 0
-6710 6535 6538 0
-6710 -6535 -6538 0
6710 -6535 6538 0
6710 6535 -6538 0
6711 -6521 6712 0
6711 6521 -6712 0
-6711 6521 6712 0
-6711 -6521 -6712 0
-6712 6512 6516 0
-6712 -6512 -6516 0
6712 -6512 6516 0
6712 6512 -6516 0
-6713 6534 6714 0
-6713 -6534 -6714 0
6713 -6534 6714 0
6713 6534 -6714 0
-6714 -6511 -6524 0
-6714 6511 6524 0
6714 6511 -6524 0
6714 -6511 6524 0
6715 -6684 -6708 0
-6715 6684 0
-6715 6708 0
-6716 6681 6682 0
6716 -6681 0
6716 -6682 0
-6717 6719 6754 0
-6717 6718 6754 0
-6717 6718 6719 0
6717 -6718 -6754 0
6717 -6718 -6719 0
6717 -6719 -6754 0
6718 -6684 6708 6713 0
6718 -6684 -6708 -6713 0
6718 6684 -6708 6713 0
6718 6684 6708 -6713 0
-6718 -6684 6708 -6713 0
-6718 -6684 -6708 6713 0
-6718 6684 -6708 -6713 0
-6718 6684 6708 6713 0
-6719 6720 6753 0
-6719 6751 6753 0
6719 -6753 0
6719 -6720 -6751 0
-6720 6721 6734 6748 0
-6720 6721 6734 6749 0
6720 -6721 0
6720 -6734 0
6720 -6748 -6749 0
-6721 6722 6725 0
-6721 6542 6725 0
-6721 6542 6722 0
6721 -6542 -6725 0
6721 -6542 -6722 0
6721 -6722 -6725 0
-6722 -8438 -898 0
-6722 -8438 -6723 0
-6722 8438 6723 6724 0
6722 8438 -6723 0
6722 -8438 898 6723 0
6722 8438 -6724 0
6723 -8457 -6503 0
-6723 8457 0
-6723 6503 0
6724 -8459 -82 0
-6724 8459 0
-6724 82 0
6725 -6726 -6730 0
6725 -6730 -6731 0
6725 -6726 -6731 0
-6725 6730 6731 0
-6725 6726 6730 0
-6725 6726 6731 0
6726 6727 -6729 0
6726 -8435 -6457 6727 0
-6726 -6727 0
-6726 8435 6729 0
-6726 6457 6729 0
6727 -8435 -444 -6728 0
6727 -8405 444 -6728 0
-6727 6728 0
-6727 8435 -444 0
-6727 8405 444 0
6728 -8426 445 0
-6728 8426 0
-6728 -445 0
-6729 8426 445 0
-6729 8405 8426 0
6729 -8426 0
6729 -8405 -445 0
6730 -8428 8451 -8461 0
6730 8428 -8451 -8461 0
6730 8412 -8451 8461 0
-6730 8451 8461 0
-6730 -8428 -8451 -8461 0
-6730 -8412 8461 0
-6730 8428 8451 0
-6731 -8395 -909 0
-6731 -8395 -6732 0
-6731 8395 6732 6733 0
6731 8395 -6732 0
6731 -8395 909 6732 0
6731 8395 -6733 0
6732 -8430 -6453 0
-6732 8430 0
-6732 6453 0
6733 -8414 -8426 -8446 0
-6733 8414 0
-6733 8426 0
-6733 8446 0
6734 -6735 -6746 0
-6734 6735 0
-6734 6746 0
6735 -6736 -6740 0
6735 -6740 -6744 0
6735 -6736 -6744 0
-6735 6736 6744 0
-6735 6740 6744 0
-6735 6736 6740 0
6736 8410 -6739 0
6736 -8410 6737 6738 0
6736 8410 -6737 0
-6736 -8410 -6737 0
-6736 -8410 -6738 0
-6736 8410 6737 6739 0
6737 -8388 -6487 0
-6737 8388 0
-6737 6487 0
6738 -8449 192 0
-6738 8449 0
-6738 -192 0
6739 -8449 -194 0
-6739 8449 0
-6739 194 0
6740 8402 -6743 0
6740 -8402 6741 6742 0
6740 8402 -6741 0
-6740 -8402 -6741 0
-6740 -8402 -6742 0
-6740 8402 6741 6743 0
6741 -8398 -6481 0
-6741 8398 0
-6741 6481 0
6742 -8390 266 0
-6742 8390 0
-6742 -266 0
6743 -8390 -267 0
-6743 8390 0
-6743 267 0
6744 -8444 6745 0
6744 8444 -6745 0
-6744 8444 6745 0
-6744 -8444 -6745 0
-6745 921 6493 0
-6745 8453 921 0
6745 -921 0
6745 -8453 -6493 0
6746 -6686 6747 0
6746 6686 -6747 0
-6746 6686 6747 0
-6746 -6686 -6747 0
-6747 -6689 -6693 0
-6747 6689 6693 0
6747 6689 -6693 0
6747 -6689 6693 0
-6748 6735 6746 0
6748 -6735 0
6748 -6746 0
6749 -6703 6750 0
6749 6703 -6750 0
-6749 6703 6750 0
-6749 -6703 -6750 0
-6750 6695 6699 0
-6750 -6695 -6699 0
6750 -6695 6699 0
6750 6695 -6699 0
-6751 6706 6752 0
-6751 -6706 -6752 0
6751 -6706 6752 0
6751 6706 -6752 0
-6752 -6685 -6694 0
-6752 6685 6694 0
6752 6685 -6694 0
6752 -6685 6694 0
6753 -6721 -6748 -6749 0
6753 -6721 -6734 -6748 0
-6753 6721 0
-6753 6748 0
-6753 6734 6749 0
6754 6565 -6755 0
6754 -6565 6755 0
-6754 -6565 -6755 0
-6754 6565 6755 0
6755 -6544 6553 0
6755 6544 -6553 0
-6755 6544 6553 0
-6755 -6544 -6553 0
6756 6757 -6761 0
-6756 -6757 0
-6756 6761 0
6757 -6758 -6760 0
-6757 6758 0
-6757 6760 0
-6758 -6579 -6759 0
-6758 6579 6759 0
6758 6579 -6759 0
6758 -6579 6759 0
6759 -6447 6617 0
-6759 6447 0
-6759 -6617 0
-6760 6680 6716 0
-6760 6677 6680 0
6760 -6680 0
6760 -6677 -6716 0
-6761 6758 6762 0
6761 -6758 0
6761 -6762 0
-6762 6680 6763 0
6762 -6680 0
6762 -6763 0
6763 -6677 -6679 0
-6763 6677 0
-6763 6679 0
6764 -6765 -6893 0
6764 -6889 -6893 0
-6764 6893 0
-6764 6765 6889 0
6765 -6766 -6884 0
-6765 6766 0
-6765 6884 0
6766 6767 -6829 0
6766 -6767 6829 0
-6766 -6767 -6829 0
-6766 6767 6829 0
-6767 -6768 -6808 0
-6767 6768 6808 0
6767 6768 -6808 0
6767 -6768 6808 0
-6768 -6769 -6783 0
-6768 6769 6783 0
6768 6769 -6783 0
6768 -6769 6783 0
-6769 6770 6782 0
-6769 6774 6782 0
6769 -6782 0
6769 -6770 -6774 0
-6770 6623 6772 6773 0
-6770 6771 6772 6773 0
6770 -6773 0
6770 -6772 0
6770 -6771 -6623 0
6771 -6631 0
6771 8426 -6627 0
6771 -8426 6627 0
-6771 8426 6627 6631 0
-6771 -8426 -6627 6631 0
6772 -8426 6627 -6631 0
6772 8426 -6627 -6631 0
-6772 6631 0
-6772 -8426 -6627 0
-6772 8426 6627 0
-6773 548 6475 0
-6773 8457 548 0
6773 -548 0
6773 -8457 -6475 0
-6774 -6775 -6778 0
-6774 6775 6778 0
6774 6775 -6778 0
6774 -6775 6778 0
6775 8395 -6776 0
6775 -8395 6776 6777 0
6775 8395 -505 0
-6775 -8395 -6776 0
-6775 8395 505 6776 0
-6775 -8395 -6777 0
6776 -8424 -6453 0
-6776 8424 0
-6776 6453 0
6777 -8419 332 0
-6777 8419 0
-6777 -332 0
6778 -449 6779 0
6778 449 -6779 0
-6778 449 6779 0
-6778 -449 -6779 0
-6779 8426 6780 0
-6779 8423 6780 0
-6779 -444 6780 0
6779 -6780 0
6779 -8423 -8426 444 0
-6780 445 6781 0
-6780 -8426 6781 0
-6780 8423 6781 0
6780 -6781 0
6780 -8423 8426 -445 0
6781 -8421 -6457 0
-6781 8421 0
-6781 6457 0
6782 -6771 -6772 -6773 0
6782 -6771 -6623 -6773 0
-6782 6771 0
-6782 6773 0
-6782 6623 6772 0
6783 6784 -6807 0
-6783 -6784 0
-6783 6807 0
6784 -6785 -6796 0
-6784 6785 0
-6784 6796 0
-6785 6786 6790 0
-6785 6790 6794 0
-6785 6786 6794 0
6785 -6786 -6794 0
6785 -6790 -6794 0
6785 -6786 -6790 0
-6786 6787 6789 0
-6786 -8414 -6503 6787 0
6786 -6787 0
6786 8414 -6789 0
6786 6503 -6789 0
-6787 6598 6503 0
-6787 8398 6788 0
-6787 6598 6788 0
-6787 8398 6503 0
6787 -8398 -6598 0
6787 -6503 -6788 0
6788 -8414 8438 0
-6788 8414 0
-6788 -8438 0
6789 8398 -8438 0
6789 -8438 -81 0
-6789 8438 0
-6789 -8398 81 0
-6790 6791 6793 0
-6790 -8390 -6497 6791 0
6790 -6791 0
6790 8390 -6793 0
6790 6497 -6793 0
-6791 45 6497 0
-6791 8388 6792 0
-6791 45 6792 0
-6791 8388 6497 0
6791 -8388 -45 0
6791 -6497 -6792 0
6792 -8390 8432 0
-6792 8390 0
-6792 -8432 0
6793 8388 -8432 0
6793 -8432 -8438 0
6793 -8432 -8440 0
-6793 8432 0
-6793 -8388 8438 8440 0
-6794 8420 6795 0
-6794 -8420 -6795 0
6794 -8420 6795 0
6794 8420 -6795 0
-6795 542 6509 0
-6795 8449 542 0
6795 -542 0
6795 -8449 -6509 0
-6796 6797 6801 0
-6796 6801 6805 0
-6796 6797 6805 0
6796 -6797 -6805 0
6796 -6801 -6805 0
6796 -6797 -6801 0
-6797 6798 6800 0
-6797 -8442 -6481 6798 0
6797 -6798 0
6797 8442 -6800 0
6797 6481 -6800 0
-6798 6519 6481 0
-6798 8428 6799 0
-6798 6519 6799 0
-6798 8428 6481 0
6798 -8428 -6519 0
6798 -6481 -6799 0
6799 8402 -8442 0
-6799 -8402 0
-6799 8442 0
6800 -8402 -266 0
6800 -8402 8428 0
-6800 8402 0
-6800 -8428 266 0
-6801 6802 6804 0
-6801 -8412 -6487 6802 0
6801 -6802 0
6801 8412 -6804 0
6801 6487 -6804 0
-6802 193 6487 0
-6802 8435 6803 0
-6802 193 6803 0
-6802 8435 6487 0
6802 -8435 -193 0
6802 -6487 -6803 0
6803 8410 -8412 0
-6803 -8410 0
-6803 8412 0
6804 -8400 -8410 0
6804 -8410 8435 0
6804 -8402 -8410 0
-6804 8410 0
-6804 8400 8402 -8435 0
-6805 8444 6806 0
-6805 -8444 -6806 0
6805 -8444 6806 0
6805 8444 -6806 0
-6806 532 6493 0
-6806 8405 532 0
6806 -532 0
6806 -8405 -6493 0
-6807 6785 6796 0
6807 -6785 0
6807 -6796 0
6808 6809 -6826 0
-6808 -6809 0
-6808 6826 0
6809 -6810 -6819 0
6809 -6815 -6819 0
-6809 6819 0
-6809 6810 6815 0
6810 -6811 -6813 0
-6810 6811 0
-6810 6813 0
6811 -6812 6805 0
6811 6812 -6805 0
-6811 6812 6805 0
-6811 -6812 -6805 0
-6812 6797 6801 0
-6812 -6797 -6801 0
6812 -6797 6801 0
6812 6797 -6801 0
-6813 6814 6794 0
-6813 -6814 -6794 0
6813 -6814 6794 0
6813 6814 -6794 0
-6814 6786 6790 0
-6814 -6786 -6790 0
6814 -6786 6790 0
6814 6786 -6790 0
6815 -6816 -6818 0
-6815 6816 0
-6815 6818 0
6816 6774 -6817 0
6816 -6774 6817 0
-6816 -6774 -6817 0
-6816 6774 6817 0
6817 -6770 6782 0
-6817 6770 0
-6817 -6782 0
6818 -6811 6813 0
6818 6811 -6813 0
-6818 6811 6813 0
-6818 -6811 -6813 0
-6819 6820 6825 0
6819 -6820 0
6819 -6825 0
6820 -6821 -6822 0
-6820 6821 0
-6820 6822 0
-6821 6633 6635 0
-6821 6622 6635 0
6821 -6635 0
6821 -6622 -6633 0
-6822 -6823 -6824 0
-6822 6823 6824 0
6822 6823 -6824 0
6822 -6823 6824 0
6823 -6642 -6646 0
6823 -6646 -6638 0
6823 -6642 -6638 0
-6823 6642 6638 0
-6823 6646 6638 0
-6823 6642 6646 0
6824 -6651 -6655 0
6824 -6655 -6660 0
6824 -6651 -6660 0
-6824 6651 6660 0
-6824 6655 6660 0
-6824 6651 6655 0
6825 -6823 -6824 0
-6825 6823 0
-6825 6824 0
-6826 6827 6828 0
6826 -6827 0
6826 -6828 0
-6827 6810 6820 6825 0
6827 -6810 0
6827 -6825 0
6827 -6820 0
6828 -6811 6813 -6816 0
6828 6811 -6813 -6816 0
-6828 6816 0
-6828 -6811 -6813 0
-6828 6811 6813 0
6829 -6830 6835 0
6829 6835 -6882 0
-6829 -6835 0
-6829 6830 6882 0
6830 -6831 -6834 0
-6830 6831 0
-6830 6834 0
-6831 6832 6833 0
6831 -6832 0
6831 -6833 0
-6832 6668 6669 0
-6832 6669 6670 0
-6832 6668 6670 0
6832 -6668 -6670 0
6832 -6669 -6670 0
6832 -6668 -6669 0
6833 -6621 -6650 0
6833 -6637 -6650 0
6833 -6621 -6637 0
-6833 6621 6637 0
-6833 6637 6650 0
-6833 6621 6650 0
-6834 6821 6822 0
-6834 -6821 -6822 0
6834 -6821 6822 0
6834 6821 -6822 0
-6835 6837 0
-6835 6834 6836 0
-6835 6831 6836 0
6835 -6836 -6837 0
6835 -6831 -6834 -6837 0
6836 -6832 -6833 0
-6836 6832 0
-6836 6833 0
6837 6838 -6865 0
6837 -6838 6865 0
-6837 -6838 -6865 0
-6837 6838 6865 0
-6838 -6839 -6852 0
-6838 6839 6852 0
6838 6839 -6852 0
6838 -6839 6852 0
6839 -6840 6843 0
6839 6840 -6843 0
-6839 6840 6843 0
-6839 -6840 -6843 0
-6840 -8420 -491 0
-6840 -8420 -6841 0
-6840 8420 6841 6842 0
6840 8420 -6841 0
6840 -8420 491 6841 0
6840 8420 -6842 0
6841 -8388 -6509 0
-6841 8388 0
-6841 6509 0
6842 -8432 -8433 -8449 0
-6842 8432 0
-6842 8433 0
-6842 8449 0
-6843 6844 6848 0
-6843 -6844 -6848 0
6843 -6844 6848 0
6843 6844 -6848 0
-6844 6845 6847 0
-6844 -8398 -6497 6845 0
6844 -6845 0
6844 8398 -6847 0
6844 6497 -6847 0
-6845 -8432 6846 0
-6845 6497 6846 0
-6845 8398 6846 0
6845 -6846 0
6845 -8398 8432 -6497 0
6846 -8390 8432 -46 0
-6846 8390 0
-6846 -8432 0
-6846 46 0
6847 8390 -8432 0
6847 -8432 -44 0
-6847 8432 0
-6847 -8390 44 0
-6848 6849 6851 0
-6848 -8430 -6503 6849 0
6848 -6849 0
6848 8430 -6851 0
6848 6503 -6851 0
-6849 -8438 6850 0
-6849 6503 6850 0
-6849 8430 6850 0
6849 -6850 0
6849 -8430 8438 -6503 0
6850 -8414 8438 -82 0
-6850 8414 0
-6850 -8438 0
-6850 82 0
6851 8414 -8438 0
6851 -8438 -81 0
-6851 8438 0
-6851 -8414 81 0
6852 -6853 6856 0
6852 6853 -6856 0
-6852 6853 6856 0
-6852 -6853 -6856 0
-6853 -8444 -481 0
-6853 -8444 -6854 0
-6853 8444 6854 6855 0
6853 8444 -6854 0
6853 -8444 481 6854 0
6853 8444 -6855 0
6854 -8435 -6493 0
-6854 8435 0
-6854 6493 0
6855 -8405 -125 0
-6855 8405 0
-6855 125 0
-6856 6857 6861 0
-6856 -6857 -6861 0
6856 -6857 6861 0
6856 6857 -6861 0
-6857 6858 6860 0
-6857 -8428 -6487 6858 0
6857 -6858 0
6857 8428 -6860 0
6857 6487 -6860 0
-6858 193 6487 0
-6858 8412 6859 0
-6858 193 6859 0
-6858 8412 6487 0
6858 -8412 -193 0
6858 -6487 -6859 0
6859 8410 -8428 0
-6859 -8410 0
-6859 8428 0
6860 -8400 -8410 0
6860 -8410 8412 0
6860 -8402 -8410 0
-6860 8410 0
-6860 8400 8402 -8412 0
-6861 6862 6864 0
-6861 -8419 -6481 6862 0
6861 -6862 0
6861 8419 -6864 0
6861 6481 -6864 0
-6862 8419 6863 0
-6862 -8402 6863 0
-6862 6481 6863 0
6862 -6863 0
6862 8402 -8419 -6481 0
6863 8402 -8442 -267 0
-6863 267 0
-6863 8442 0
-6863 -8402 0
6864 -8402 -266 0
6864 -8402 8442 0
-6864 8402 0
-6864 -8442 266 0
6865 6866 -6875 0
6865 -6866 6875 0
-6865 -6866 -6875 0
-6865 6866 6875 0
-6866 -6867 -6872 0
-6866 6867 6872 0
6866 6867 -6872 0
6866 -6867 6872 0
-6867 6868 6871 0
-6867 -8423 -6453 6868 0
6867 -6868 0
6867 8423 -6871 0
6867 6453 -6871 0
-6868 6869 6453 0
-6868 8424 6870 0
-6868 6869 6870 0
-6868 8424 6453 0
6868 -8424 -6869 0
6868 -6453 -6870 0
6869 8395 -333 0
-6869 -8395 0
-6869 333 0
6870 8395 -8423 0
-6870 -8395 0
-6870 8423 0
6871 -8395 -8426 0
6871 -8395 8424 0
6871 -8395 -8446 0
-6871 8395 0
-6871 -8424 8426 8446 0
6872 -6873 6874 0
-6872 6873 0
-6872 -6874 0
6873 -377 -444 0
6873 8421 -377 0
-6873 377 0
-6873 -8421 444 0
-6874 378 445 0
-6874 8421 378 0
6874 -378 0
6874 -8421 -445 0
6875 6879 -6881 0
6875 -6878 6879 0
6875 -6876 6879 0
-6875 -6879 0
-6875 6876 6878 6881 0
6876 -6877 -6775 0
-6876 6877 0
-6876 6775 0
6877 -8451 0
6877 -8426 6779 0
6877 8426 -6779 0
-6877 -8426 8451 -6779 0
-6877 8426 8451 6779 0
-6878 497 6475 0
-6878 8453 497 0
6878 -497 0
6878 -8453 -6475 0
6879 -6877 -6880 -6878 0
6879 -6877 -6775 -6878 0
-6879 6877 0
-6879 6878 0
-6879 6775 6880 0
6880 8426 -8451 -6779 0
6880 -8426 -8451 6779 0
-6880 8451 0
-6880 -8426 -6779 0
-6880 8426 6779 0
-6881 8451 0
-6881 -8426 -6779 0
-6881 8426 6779 0
6881 8426 -8451 -6779 0
6881 -8426 -8451 6779 0
-6882 6883 6836 0
6882 -6883 0
6882 -6836 0
-6883 -6839 6852 -6865 0
-6883 -6839 -6852 6865 0
-6883 6839 -6852 -6865 0
-6883 6839 6852 6865 0
6883 -6839 6852 6865 0
6883 -6839 -6852 -6865 0
6883 6839 -6852 6865 0
6883 6839 6852 -6865 0
-6884 6887 6888 0
-6884 6885 6887 0
-6884 6885 6888 0
6884 -6885 -6887 0
6884 -6887 -6888 0
6884 -6885 -6888 0
6885 -6834 6886 0
6885 6834 -6886 0
-6885 6834 6886 0
-6885 -6834 -6886 0
-6886 -6832 -6833 0
-6886 6832 6833 0
6886 6832 -6833 0
6886 -6832 6833 0
6887 6816 -6818 0
6887 -6816 6818 0
-6887 -6816 -6818 0
-6887 6816 6818 0
-6888 6672 6666 0
-6888 6672 6673 6674 0
-6888 6666 6673 6674 0
6888 -6666 -6674 0
6888 -6672 -6673 0
6888 -6672 -6674 0
6888 -6666 -6673 0
6888 -6672 -6666 0
-6889 6890 6892 0
6889 -6890 0
6889 -6892 0
-6890 6885 6891 0
-6890 -6885 -6891 0
6890 -6885 6891 0
6890 6885 -6891 0
-6891 6887 6888 0
-6891 -6887 -6888 0
6891 -6887 6888 0
6891 6887 -6888 0
-6892 6620 6664 0
-6892 6664 6665 0
-6892 6620 6665 0
6892 -6620 -6665 0
6892 -6664 -6665 0
6892 -6620 -6664 0
-6893 6766 6884 0
6893 -6766 0
6893 -6884 0
6894 -7184 -7197 0
6894 -7180 -7197 0
6894 -6895 -7197 0
-6894 7197 0
-6894 6895 7180 7184 0
6895 -6896 -7026 -7043 0
-6895 6896 0
-6895 7026 0
-6895 7043 0
6896 -6897 -6995 0
-6896 6897 0
-6896 6995 0
6897 -6898 6993 0
-6897 6898 0
-6897 -6993 0
-6898 -6899 -6943 6968 0
-6898 6899 6943 6968 0
6898 -6968 0
6898 -6899 6943 0
6898 6899 -6943 0
6899 -6900 6905 0
6899 6900 -6905 0
-6899 6900 6905 0
-6899 -6900 -6905 0
-6900 6901 6903 0
-6900 -6901 -6903 0
6900 -6901 6903 0
6900 6901 -6903 0
-6901 -6731 -6902 0
-6901 6731 6902 0
6901 6731 -6902 0
6901 -6731 6902 0
6902 6726 -6730 0
6902 -6726 6730 0
-6902 -6726 -6730 0
-6902 6726 6730 0
-6903 6744 6904 0
-6903 -6744 -6904 0
6903 -6744 6904 0
6903 6744 -6904 0
-6904 -6736 -6740 0
-6904 6736 6740 0
6904 6736 -6740 0
6904 -6736 6740 0
-6905 6906 6930 0
-6905 6906 6917 0
-6905 6917 6930 0
6905 -6917 -6930 0
6905 -6906 -6930 0
6905 -6906 -6917 0
-6906 6907 6909 0
-6906 6909 6913 0
-6906 6907 6913 0
6906 -6909 -6913 0
6906 -6907 -6909 0
6906 -6907 -6913 0
6907 -8444 6908 0
6907 8444 -6908 0
-6907 8444 6908 0
-6907 -8444 -6908 0
-6908 1017 6493 0
-6908 8459 1017 0
6908 -1017 0
6908 -8459 -6493 0
-6909 6910 6912 0
-6909 -8388 -6481 6910 0
6909 -6910 0
6909 8388 -6912 0
6909 6481 -6912 0
-6910 -8402 6911 0
-6910 6481 6911 0
-6910 8388 6911 0
6910 -6911 0
6910 -8388 8402 -6481 0
6911 8402 -8449 -267 0
-6911 267 0
-6911 8449 0
-6911 -8402 0
6912 -8402 -266 0
6912 -8402 8449 0
-6912 8402 0
-6912 -8449 266 0
-6913 6914 6916 0
-6913 -8453 -6487 6914 0
6913 -6914 0
6913 8453 -6916 0
6913 6487 -6916 0
-6914 193 6487 0
-6914 8457 6915 0
-6914 193 6915 0
-6914 8457 6487 0
6914 -8457 -193 0
6914 -6487 -6915 0
6915 8410 -8453 0
-6915 -8410 0
-6915 8453 0
6916 -8400 -8410 0
6916 -8410 8457 0
6916 -8402 -8410 0
-6916 8410 0
-6916 8400 8402 -8457 0
6917 -6918 -6924 6926 0
6917 6918 -6924 -6926 0
-6917 6924 0
-6917 6918 6926 0
-6917 -6918 -6926 0
-6918 6919 6920 0
-6918 -6919 -6920 0
6918 -6919 6920 0
6918 6919 -6920 0
-6919 8451 8461 0
-6919 -8435 -8451 -8461 0
-6919 -8405 8461 0
-6919 8435 8451 0
6919 -8435 8451 -8461 0
6919 8435 -8451 -8461 0
6919 8405 -8451 8461 0
-6920 6921 6923 0
-6920 -8430 -6457 6921 0
6920 -6921 0
6920 8430 -6923 0
6920 6457 -6923 0
-6921 8414 6457 0
-6921 6529 6922 0
-6921 6457 6529 0
-6921 8414 6922 0
6921 -6457 -6922 0
6921 -8414 -6529 0
6922 8426 -8430 0
-6922 -8426 0
-6922 8430 0
6923 8414 -8426 0
6923 -8426 -444 0
-6923 8426 0
-6923 -8414 444 0
6924 -8444 6925 0
-6924 8444 0
-6924 -6925 0
6925 -8463 -6493 0
-6925 8463 0
-6925 6493 0
-6926 6927 6929 0
-6926 -8398 -6453 6927 0
6926 -6927 0
6926 8398 -6929 0
6926 6453 -6929 0
-6927 6869 6453 0
-6927 8390 6928 0
-6927 6869 6928 0
-6927 8390 6453 0
6927 -8390 -6869 0
6927 -6453 -6928 0
6928 8395 -8398 0
-6928 -8395 0
-6928 8398 0
6929 8390 -8395 0
6929 -8395 -332 0
-6929 8395 0
-6929 -8390 332 0
-6930 6931 6934 0
-6930 -6931 -6934 0
6930 -6931 6934 0
6930 6931 -6934 0
-6931 -8444 -981 0
-6931 -8444 -6932 0
-6931 8444 6932 6933 0
6931 8444 -6932 0
6931 -8444 981 6932 0
6931 8444 -6933 0
6932 -8457 -6493 0
-6932 8457 0
-6932 6493 0
6933 -8459 -125 0
-6933 8459 0
-6933 125 0
-6934 6935 6939 0
-6934 -6935 -6939 0
6934 -6935 6939 0
6934 6935 -6939 0
6935 8402 -6938 0
6935 -8402 6936 6937 0
6935 8402 -6936 0
-6935 -8402 -6936 0
-6935 -8402 -6937 0
-6935 8402 6936 6938 0
6936 -8390 -6481 0
-6936 8390 0
-6936 6481 0
6937 -8388 266 0
-6937 8388 0
-6937 -266 0
6938 -8388 -267 0
-6938 8388 0
-6938 267 0
-6939 6940 6941 -6942 0
-6939 -8410 -6940 6941 0
-6939 8410 6940 6941 0
6939 -6941 0
6939 8410 -6940 0
6939 -8410 6940 6942 0
6940 -8449 -6487 0
-6940 8449 0
-6940 6487 0
6941 8410 -8453 -194 0
-6941 194 0
-6941 8453 0
-6941 -8410 0
6942 8400 8402 -8453 0
-6942 8453 0
-6942 -8402 0
-6942 -8400 0
6943 -6944 6957 0
6943 6944 -6957 0
-6943 6944 6957 0
-6943 -6944 -6957 0
-6944 -6945 -6948 0
-6944 6945 6948 0
6944 6945 -6948 0
6944 -6945 6948 0
6945 -6946 -6947 0
6945 -80 -6947 0
-6945 6947 0
-6945 80 6946 0
6946 -8438 8459 -6503 0
6946 8438 -8459 -6503 0
6946 -8438 8463 -6503 0
-6946 6503 0
-6946 8438 8459 0
-6946 -8438 -8459 -8463 0
-6947 8463 6503 0
-6947 8459 8463 0
6947 -8463 0
6947 -8459 -6503 0
6948 -6953 -6954 0
6948 -6949 -6954 0
6948 -6949 -6953 0
-6948 6949 6954 0
-6948 6949 6953 0
-6948 6953 6954 0
-6949 6950 6952 0
-6949 -8405 -6457 6950 0
6949 -6950 0
6949 8405 -6952 0
6949 6457 -6952 0
-6950 -8426 6951 0
-6950 6457 6951 0
-6950 8405 6951 0
6950 -6951 0
6950 -8405 8426 -6457 0
6951 8426 -8430 -445 0
-6951 445 0
-6951 8430 0
-6951 -8426 0
6952 -8426 -444 0
6952 -8426 8430 0
-6952 8426 0
-6952 -8430 444 0
6953 -8412 8451 -8461 0
6953 8412 -8451 -8461 0
6953 8435 -8451 8461 0
-6953 8451 8461 0
-6953 -8412 -8451 -8461 0
-6953 8412 8451 0
-6953 -8435 8461 0
-6954 333 6955 6956 0
-6954 6928 6955 6956 0
6954 -6956 0
6954 -6955 0
6954 -333 -6928 0
6955 -8395 957 6453 0
6955 -8395 8414 957 0
-6955 8395 0
-6955 -957 0
-6955 -8414 -6453 0
6956 8395 -8414 -6453 0
-6956 -8395 0
-6956 8414 0
-6956 6453 0
-6957 6958 6967 0
6957 -6958 0
6957 -6967 0
6958 6959 6961 -6966 0
-6958 -6959 0
-6958 -6961 0
-6958 6966 0
-6959 6919 6920 0
-6959 6920 6926 0
-6959 6960 0
-6959 6919 6926 0
6959 -6919 -6920 -6960 0
6959 -6920 -6926 -6960 0
6959 -6919 -6926 -6960 0
6960 -8463 -6503 0
-6960 8463 0
-6960 6503 0
6961 -6962 -6964 0
-6961 6962 0
-6961 6964 0
6962 -6963 6959 0
-6962 6963 0
-6962 -6959 0
-6963 6919 6926 6960 0
-6963 6919 6920 6960 0
-6963 6920 6926 6960 0
6963 -6919 -6926 0
6963 -6920 -6926 0
6963 -6960 0
6963 -6919 -6920 0
6964 -6954 6965 0
6964 6954 -6965 0
-6964 6954 6965 0
-6964 -6954 -6965 0
-6965 -6949 -6953 0
-6965 6949 6953 0
6965 6949 -6953 0
6965 -6949 6953 0
6966 -6935 -6939 0
6966 -6931 -6939 0
6966 -6931 -6935 0
-6966 6931 6939 0
-6966 6931 6935 0
-6966 6935 6939 0
6967 -6963 -6959 6966 0
6967 -6963 -6964 6966 0
-6967 6963 0
-6967 -6966 0
-6967 6959 6964 0
-6968 6990 6991 0
-6968 6969 6990 0
-6968 6969 6991 0
6968 -6969 -6990 0
6968 -6990 -6991 0
6968 -6969 -6991 0
-6969 6970 6988 0
-6969 6970 6978 0
-6969 6978 6988 0
6969 -6978 -6988 0
6969 -6970 -6988 0
6969 -6970 -6978 0
-6970 6971 6975 0
-6970 6975 6976 0
-6970 6971 6976 0
6970 -6975 -6976 0
6970 -6971 -6975 0
6970 -6971 -6976 0
6971 8426 -6974 0
6971 -8426 6972 6973 0
6971 8426 -6972 0
-6971 -8426 -6972 0
-6971 -8426 -6973 0
-6971 8426 6972 6974 0
6972 -8414 -6457 0
-6972 8414 0
-6972 6457 0
6973 -8398 444 0
-6973 8398 0
-6973 -444 0
6974 -8398 -445 0
-6974 8398 0
-6974 445 0
-6975 8451 8461 0
-6975 -8405 -8451 -8461 0
-6975 8405 8451 0
-6975 -8430 8461 0
6975 -8405 8451 -8461 0
6975 8405 -8451 -8461 0
6975 8430 -8451 8461 0
-6976 8395 6977 0
-6976 -8395 -6977 0
6976 -8395 6977 0
6976 8395 -6977 0
-6977 1044 6453 0
-6977 8390 1044 0
6977 -1044 0
6977 -8390 -6453 0
6978 -6979 -6983 0
6978 -6925 -6979 0
6978 -6925 -6983 0
-6978 6925 6979 0
-6978 6979 6983 0
-6978 6925 6983 0
-6979 6980 6981 -6982 0
-6979 -8410 -6980 6981 0
-6979 8410 6980 6981 0
6979 -6981 0
6979 8410 -6980 0
6979 -8410 6980 6982 0
6980 -8457 -6487 0
-6980 8457 0
-6980 6487 0
6981 -8459 -193 0
-6981 8459 0
-6981 193 0
6982 -8459 192 0
-6982 8459 0
-6982 -192 0
-6983 6984 6987 0
-6983 -8449 -6481 6984 0
6983 -6984 0
6983 8449 -6987 0
6983 6481 -6987 0
-6984 267 6985 0
-6984 6481 6986 0
-6984 267 6481 0
-6984 6985 6986 0
6984 -267 -6986 0
6984 -6481 -6985 0
6985 8402 -8449 0
-6985 -8402 0
-6985 8449 0
6986 8402 -8453 0
-6986 -8402 0
-6986 8453 0
6987 -8402 -266 0
6987 -8402 8453 0
-6987 8402 0
-6987 -8453 266 0
-6988 6907 6989 0
-6988 -6907 -6989 0
6988 -6907 6989 0
6988 6907 -6989 0
-6989 6909 6913 0
-6989 -6909 -6913 0
6989 -6909 6913 0
6989 6909 -6913 0
6990 6962 -6964 0
6990 -6962 6964 0
-6990 -6962 -6964 0
-6990 6962 6964 0
6991 -6930 6992 0
6991 6930 -6992 0
-6991 6930 6992 0
-6991 -6930 -6992 0
-6992 -6906 -6917 0
-6992 6906 6917 0
6992 6906 -6917 0
6992 -6906 6917 0
6993 -6899 -6968 6994 0
6993 6899 -6968 -6994 0
-6993 6968 0
-6993 -6899 -6994 0
-6993 6899 6994 0
6994 6944 -6958 0
6994 6944 -6967 0
6994 -6944 6958 6967 0
-6994 -6944 -6967 0
-6994 6944 6958 6967 0
-6994 -6944 -6958 0
-6995 6996 7024 0
-6995 -6996 -7024 0
6995 -6996 7024 0
6995 6996 -7024 0
-6996 6997 7022 0
-6996 6999 7022 0
-6996 6997 6999 0
6996 -6997 -6999 0
6996 -6999 -7022 0
6996 -6997 -7022 0
6997 6918 -6998 0
6997 -6918 6998 0
-6997 -6918 -6998 0
-6997 6918 6998 0
6998 -6924 6926 0
6998 6924 -6926 0
-6998 6924 6926 0
-6998 -6924 -6926 0
6999 -7000 -7009 0
6999 -7009 -7020 0
6999 -7000 -7020 0
-6999 7009 7020 0
-6999 7000 7009 0
-6999 7000 7020 0
7000 -7001 -7008 0
7000 -7001 -7004 0
7000 -7004 -7008 0
-7000 7004 7008 0
-7000 7001 7008 0
-7000 7001 7004 0
7001 8395 -7002 0
7001 -8395 1075 7002 0
7001 8395 -7003 0
-7001 -8395 -1075 0
-7001 -8395 -7002 0
-7001 8395 7002 7003 0
7002 -8388 -6453 0
-7002 8388 0
-7002 6453 0
7003 -8449 -333 0
-7003 8449 0
-7003 333 0
-7004 7005 7007 0
-7004 -8398 -6457 7005 0
7004 -7005 0
7004 8398 -7007 0
7004 6457 -7007 0
-7005 -8426 7006 0
-7005 6457 7006 0
-7005 8398 7006 0
7005 -7006 0
7005 -8398 8426 -6457 0
7006 -8390 -6529 0
-7006 8390 0
-7006 6529 0
7007 8390 -8426 0
7007 -8426 -444 0
-7007 8426 0
-7007 -8390 444 0
7008 -8430 8451 -8461 0
7008 8430 -8451 -8461 0
7008 8414 -8451 8461 0
-7008 8451 8461 0
-7008 -8430 -8451 -8461 0
-7008 -8414 8461 0
-7008 8430 8451 0
7009 -7014 -7018 0
7009 -7010 -7014 0
7009 -7010 -7018 0
-7009 7010 7014 0
-7009 7014 7018 0
-7009 7010 7018 0
-7010 7011 7013 0
-7010 -8459 -6487 7011 0
7010 -7011 0
7010 8459 -7013 0
7010 6487 -7013 0
-7011 8459 7012 0
-7011 -8410 7012 0
-7011 6487 7012 0
7011 -7012 0
7011 8410 -8459 -6487 0
7012 -8463 -193 0
-7012 8463 0
-7012 193 0
7013 -8410 -192 0
7013 -8410 8463 0
-7013 8410 0
-7013 -8463 192 0
-7014 7015 7017 0
-7014 -8453 -6481 7015 0
7014 -7015 0
7014 8453 -7017 0
7014 6481 -7017 0
-7015 267 6481 0
-7015 7016 6986 0
-7015 6481 7016 0
-7015 267 6986 0
7015 -6481 -6986 0
7015 -267 -7016 0
7016 8402 -8457 0
-7016 -8402 0
-7016 8457 0
7017 -8402 -266 0
7017 -8402 8457 0
-7017 8402 0
-7017 -8457 266 0
7018 -8410 7019 0
-7018 8410 0
-7018 -7019 0
7019 -8463 -6487 0
-7019 8463 0
-7019 6487 0
-7020 6976 7021 0
-7020 -6976 -7021 0
7020 -6976 7021 0
7020 6976 -7021 0
-7021 6971 6975 0
-7021 -6971 -6975 0
7021 -6971 6975 0
7021 6971 -6975 0
7022 -6988 7023 0
7022 6988 -7023 0
-7022 6988 7023 0
-7022 -6988 -7023 0
-7023 -6970 -6978 0
-7023 6970 6978 0
7023 6970 -6978 0
7023 -6970 6978 0
-7024 -7025 -6991 0
-7024 7025 6991 0
7024 7025 -6991 0
7024 -7025 6991 0
-7025 -6969 -6990 0
-7025 6969 6990 0
7025 6969 -6990 0
7025 -6969 6990 0
7026 7027 -7042 0
-7026 -7027 0
-7026 7042 0
7027 -7028 -7030 0
-7027 7028 0
-7027 7030 0
-7028 7029 6943 0
-7028 7029 6899 0
7028 -7029 0
7028 -6899 -6943 0
7029 -6900 -6905 0
-7029 6900 0
-7029 6905 0
-7030 7031 7038 0
-7030 -7031 -7038 0
7030 -7031 7038 0
7030 7031 -7038 0
-7031 7032 7033 0
-7031 -7032 -7033 0
7031 -7032 7033 0
7031 7032 -7033 0
7032 -6901 -6903 0
-7032 6901 0
-7032 6903 0
-7033 7034 7036 0
-7033 -7034 -7036 0
7033 -7034 7036 0
7033 7034 -7036 0
-7034 -7035 -6725 0
-7034 7035 6725 0
7034 7035 -6725 0
7034 -7035 6725 0
-7035 6542 6722 0
-7035 -6542 -6722 0
7035 -6542 6722 0
7035 6542 -6722 0
-7036 8438 7037 0
-7036 82 -6947 7037 0
7036 -7037 0
7036 -8438 6947 0
7036 -8438 -82 0
7037 -6945 -6948 0
-7037 6945 0
-7037 6948 0
-7038 -7039 -7041 0
-7038 7039 7041 0
7038 7039 -7041 0
7038 -7039 7041 0
7039 6749 -7040 0
7039 -6749 7040 0
-7039 -6749 -7040 0
-7039 6749 7040 0
7040 6734 -6748 0
-7040 -6734 0
-7040 6748 0
7041 -6944 -6966 0
7041 -6961 -6966 0
7041 -6944 -6961 0
7041 -6959 -6966 0
7041 -6944 -6959 0
-7041 6944 6966 0
-7041 6944 6959 6961 0
-7041 6959 6961 6966 0
-7042 7028 7030 0
7042 -7028 0
7042 -7030 0
7043 -7100 0
7043 -7044 -7177 0
7043 -7104 -7177 0
-7043 7100 7177 0
-7043 7044 7100 7104 0
-7044 7045 7085 0
7044 -7045 0
7044 -7085 0
7045 -7046 -7069 0
-7045 7046 0
-7045 7069 0
-7046 -7047 -7049 0
-7046 7047 7049 0
7046 7047 -7049 0
7046 -7047 7049 0
7047 -7020 7048 0
7047 7020 -7048 0
-7047 7020 7048 0
-7047 -7020 -7048 0
-7048 -7000 -7009 0
-7048 7000 7009 0
7048 7000 -7009 0
7048 -7000 7009 0
7049 7050 -7068 0
-7049 -7050 0
-7049 7068 0
-7050 7053 7066 0
-7050 7051 7053 0
-7050 7064 0
-7050 7051 7066 0
7050 -7051 -7064 -7066 0
7050 -7053 -7064 -7066 0
7050 -7051 -7053 -7064 0
7051 -7001 7052 0
7051 7001 -7052 0
-7051 7001 7052 0
-7051 -7001 -7052 0
-7052 -7004 -7008 0
-7052 7004 7008 0
7052 7004 -7008 0
7052 -7004 7008 0
7053 -7054 -7060 0
7053 -7056 -7059 -7060 0
-7053 7060 0
-7053 7054 7056 0
-7053 7054 7059 0
7054 -8395 7055 0
7054 8395 -7055 0
-7054 8395 7055 0
-7054 -8395 -7055 0
-7055 1107 6453 0
-7055 8449 1107 0
7055 -1107 0
7055 -8449 -6453 0
-7056 8388 7057 0
-7056 6529 7057 0
7056 -7057 0
7056 -8388 -6529 0
7057 8390 -7058 0
7057 6457 -7058 0
7057 -8390 8426 -6457 0
-7057 8390 7058 0
-7057 -8390 -8426 -6457 0
-7057 6457 7058 0
7058 8388 -8426 0
7058 -8426 -444 0
-7058 8426 0
-7058 -8388 444 0
-7059 8451 8461 0
-7059 -8414 -8451 -8461 0
-7059 -8398 8461 0
-7059 8414 8451 0
7059 -8414 8451 -8461 0
7059 8414 -8451 -8461 0
7059 8398 -8451 8461 0
-7060 7059 7061 0
7060 -7059 0
7060 -7061 0
-7061 -8426 -7062 7063 0
-7061 7062 7058 7063 0
7061 -7063 0
7061 8426 -7062 0
7061 7062 -7058 0
7062 -8390 -6457 0
-7062 8390 0
-7062 6457 0
7063 -8388 -6529 0
-7063 8388 0
-7063 6529 0
-7064 6925 7065 0
-7064 -6925 -7065 0
7064 -6925 7065 0
7064 6925 -7065 0
-7065 6979 6983 0
-7065 -6979 -6983 0
7065 -6979 6983 0
7065 6979 -6983 0
7066 -7018 7067 0
7066 7018 -7067 0
-7066 7018 7067 0
-7066 -7018 -7067 0
-7067 7010 7014 0
-7067 -7010 -7014 0
7067 -7010 7014 0
7067 7010 -7014 0
-7068 7053 7064 7066 0
-7068 7051 7064 7066 0
-7068 7051 7053 7064 0
7068 -7051 -7053 0
7068 -7053 -7066 0
7068 -7064 0
7068 -7051 -7066 0
-7069 7071 0
-7069 -7066 -7070 0
-7069 7066 7070 0
7069 -7066 7070 -7071 0
7069 7066 -7070 -7071 0
-7070 -7051 -7053 0
-7070 7051 7053 0
7070 7051 -7053 0
7070 -7051 7053 0
-7071 7072 7081 0
-7071 7019 7072 0
-7071 7019 7081 0
7071 -7019 -7072 0
7071 -7072 -7081 0
7071 -7019 -7081 0
7072 -7073 -7078 0
7072 -7077 -7078 0
7072 -7073 -7077 0
-7072 7073 7077 0
-7072 7077 7078 0
-7072 7073 7078 0
-7073 7074 7076 0
-7073 -8388 -6457 7074 0
7073 -7074 0
7073 8388 -7076 0
7073 6457 -7076 0
-7074 -8426 7075 0
-7074 6457 7075 0
-7074 8388 7075 0
7074 -7075 0
7074 -8388 8426 -6457 0
7075 8426 -8449 -445 0
-7075 445 0
-7075 8449 0
-7075 -8426 0
7076 -8426 -444 0
7076 -8426 8449 0
-7076 8426 0
-7076 -8449 444 0
-7077 8451 8461 0
-7077 -8398 -8451 -8461 0
-7077 -8390 8461 0
-7077 8398 8451 0
7077 -8398 8451 -8461 0
7077 8398 -8451 -8461 0
7077 8390 -8451 8461 0
-7078 -8395 -1134 0
-7078 -8395 -7079 0
-7078 8395 7079 7080 0
7078 8395 -7079 0
7078 -8395 1134 7079 0
7078 8395 -7080 0
7079 -8453 -6453 0
-7079 8453 0
-7079 6453 0
7080 -8457 -333 0
-7080 8457 0
-7080 333 0
-7081 8459 7082 7083 0
-7081 6519 7082 7083 0
7081 -7083 0
7081 -7082 0
7081 -8459 -6519 0
7082 8402 -8457 -6481 0
-7082 -8402 0
-7082 8457 0
-7082 6481 0
7083 -8402 8457 7084 0
7083 -8402 6481 7084 0
-7083 8402 0
-7083 -7084 0
-7083 -8457 -6481 0
7084 8392 8395 -8459 0
-7084 8459 0
-7084 -8395 0
-7084 -8392 0
7085 -7086 -7088 0
-7085 7086 0
-7085 7088 0
-7086 7070 7087 0
-7086 -7070 -7087 0
7086 -7070 7087 0
7086 7070 -7087 0
-7087 7066 7071 0
-7087 -7066 -7071 0
7087 -7066 7071 0
7087 7066 -7071 0
-7088 7089 7091 0
-7088 7091 7098 0
-7088 7089 7098 0
7088 -7089 -7098 0
7088 -7091 -7098 0
7088 -7089 -7091 0
-7089 -7054 -7090 0
-7089 7054 7090 0
7089 7054 -7090 0
7089 -7054 7090 0
7090 -7059 7061 0
7090 7059 -7061 0
-7090 7059 7061 0
-7090 -7059 -7061 0
-7091 7092 7097 0
-7091 7078 7096 7097 0
-7091 -7078 -7096 7097 0
7091 -7097 0
7091 -7078 -7092 7096 0
7091 7078 -7092 -7096 0
7092 -265 -7095 0
7092 7093 -7094 -7095 0
-7092 7095 0
-7092 265 -7093 0
-7092 265 7094 0
-7093 8459 7084 0
-7093 8463 7084 0
-7093 8402 7084 0
7093 -7084 0
7093 -8402 -8459 -8463 0
-7094 8459 -267 0
-7094 8402 8459 0
7094 -8459 0
7094 -8402 267 0
-7095 8463 6481 0
-7095 8459 8463 0
7095 -8463 0
7095 -8459 -6481 0
-7096 7073 7077 0
-7096 -7073 -7077 0
7096 -7073 7077 0
7096 7073 -7077 0
7097 -8402 -267 0
7097 -8402 7095 0
-7097 8402 0
-7097 267 -7095 0
-7098 7072 7099 0
-7098 -7072 -7099 0
7098 -7072 7099 0
7098 7072 -7099 0
-7099 7019 7081 0
-7099 -7019 -7081 0
7099 -7019 7081 0
7099 7019 -7081 0
7100 -7101 -7103 0
-7100 7101 0
-7100 7103 0
-7101 -7102 -7022 0
-7101 7102 7022 0
7101 7102 -7022 0
7101 -7102 7022 0
-7102 -6997 -6999 0
-7102 6997 6999 0
7102 6997 -6999 0
7102 -6997 6999 0
7103 -7047 -7068 0
7103 -7050 -7068 0
-7103 7068 0
-7103 7047 7050 0
7104 -7105 -7175 -7176 0
-7104 7105 0
-7104 7176 0
-7104 7175 0
-7105 7106 7170 7174 0
-7105 7162 7170 7174 0
7105 -7174 0
7105 -7170 0
7105 -7106 -7162 0
-7106 7107 7134 0
-7106 7130 7134 0
7106 -7134 0
7106 -7107 -7130 0
-7107 7108 7117 0
-7107 -7108 -7117 0
7107 -7108 7117 0
7107 7108 -7117 0
7108 -7109 7115 0
7108 7109 -7115 0
-7108 7109 7115 0
-7108 -7109 -7115 0
-7109 7110 7114 0
-7109 -7110 -7114 0
7109 -7110 7114 0
7109 7110 -7114 0
-7110 7111 7113 0
-7110 -8449 -6457 7111 0
7110 -7111 0
7110 8449 -7113 0
7110 6457 -7113 0
-7111 8453 6457 0
-7111 6529 7112 0
-7111 6457 6529 0
-7111 8453 7112 0
7111 -6457 -7112 0
7111 -8453 -6529 0
7112 8426 -8449 0
-7112 -8426 0
-7112 8449 0
7113 -8426 -444 0
7113 -8426 8453 0
-7113 8426 0
-7113 -8453 444 0
-7114 8451 8461 0
-7114 -8390 -8451 -8461 0
-7114 -8388 8461 0
-7114 8390 8451 0
7114 -8390 8451 -8461 0
7114 8390 -8451 -8461 0
7114 8388 -8451 8461 0
-7115 8395 7116 0
-7115 -8395 -7116 0
7115 -8395 7116 0
7115 8395 -7116 0
-7116 1169 6453 0
-7116 8457 1169 0
7116 -1169 0
7116 -8457 -6453 0
-7117 -7128 -7129 0
-7117 7127 7128 7129 0
-7117 7118 7129 0
-7117 -7118 -7127 -7129 0
7117 -7118 -7127 7129 0
7117 7127 7128 -7129 0
7117 7118 7128 -7129 0
7117 -7118 -7128 7129 0
-7118 7119 7123 0
7118 -7119 0
7118 -7123 0
-7119 7120 7122 0
-7119 -8459 -6453 7120 0
7119 -7120 0
7119 8459 -7122 0
7119 6453 -7122 0
-7120 6869 6453 0
-7120 8463 7121 0
-7120 6869 7121 0
-7120 8463 6453 0
7120 -8463 -6869 0
7120 -6453 -7121 0
7121 8395 -8459 0
-7121 -8395 0
-7121 8459 0
7122 -8395 -332 0
7122 -8395 8463 0
-7122 8395 0
-7122 -8463 332 0
-7123 7124 7126 0
-7123 -8453 -6457 7124 0
7123 -7124 0
7123 8453 -7126 0
7123 6457 -7126 0
-7124 8453 7125 0
-7124 -8426 7125 0
-7124 6457 7125 0
7124 -7125 0
7124 8426 -8453 -6457 0
7125 -8457 -6529 0
-7125 8457 0
-7125 6529 0
7126 -8426 -444 0
7126 -8426 8457 0
-7126 8426 0
-7126 -8457 444 0
-7127 8451 8461 0
-7127 -8388 -8451 -8461 0
-7127 8388 8451 0
-7127 -8449 8461 0
7127 -8388 8451 -8461 0
7127 8388 -8451 -8461 0
7127 8449 -8451 8461 0
7128 -7119 -7123 0
-7128 7119 0
-7128 7123 0
7129 -8463 -6481 0
-7129 8463 0
-7129 6481 0
7130 -7119 7131 -7132 0
7130 7119 -7131 -7132 0
-7130 7132 0
-7130 -7119 -7131 0
-7130 7119 7131 0
-7131 7123 7127 0
-7131 -7123 -7127 0
7131 -7123 7127 0
7131 7123 -7127 0
7132 -8395 7133 0
-7132 8395 0
-7132 -7133 0
7133 -8463 -6453 0
-7133 8463 0
-7133 6453 0
7134 7108 7117 -7130 -7135 0
7134 -7108 -7117 -7130 -7135 0
7134 7108 -7117 7130 -7135 0
7134 -7108 7117 7130 -7135 0
-7134 7135 0
-7134 7108 -7117 -7130 0
-7134 7108 7117 7130 0
-7134 -7108 -7117 7130 0
-7134 -7108 7117 -7130 0
7135 -7136 -7161 0
7135 -7157 -7161 0
-7135 7161 0
-7135 7136 7157 0
7136 -7144 -7151 0
7136 -7137 -7144 0
7136 -7137 -7151 0
-7136 7137 7144 0
-7136 7144 7151 0
-7136 7137 7151 0
-7137 7139 7140 0
-7137 7138 7140 0
-7137 7138 7139 0
7137 -7138 -7140 0
7137 -7138 -7139 0
7137 -7139 -7140 0
7138 -8426 6457 0
7138 -8426 8463 0
-7138 8426 0
-7138 -8463 -6457 0
-7139 -8457 8461 0
-7139 8451 8461 0
-7139 8451 8453 0
-7139 -8451 -8453 -8461 0
7139 8451 -8453 -8461 0
7139 -8451 8457 8461 0
7139 -8451 8453 -8461 0
7140 8426 -7142 0
7140 -8426 7142 7143 0
7140 8426 -7141 0
-7140 -8426 -7142 0
-7140 8426 7141 7142 0
-7140 -8426 -7143 0
7141 -8463 -445 0
-7141 8463 0
-7141 445 0
7142 -8459 -6457 0
-7142 8459 0
-7142 6457 0
7143 -8463 444 0
-7143 8463 0
-7143 -444 0
-7144 7145 7149 0
-7144 -7145 -7149 0
7144 -7145 7149 0
7144 7145 -7149 0
7145 8426 -7147 0
7145 -8426 7146 7147 0
7145 8426 -7148 0
-7145 -8426 -7146 0
-7145 -8426 -7147 0
-7145 8426 7147 7148 0
7146 -8459 444 0
-7146 8459 0
-7146 -444 0
7147 -8457 -6457 0
-7147 8457 0
-7147 6457 0
7148 -8451 -8455 -8459 0
-7148 8451 0
-7148 8455 0
-7148 8459 0
-7149 7133 7150 0
-7149 -7133 -7150 0
7149 -7133 7150 0
7149 7133 -7150 0
-7150 8451 8461 0
-7150 -8449 -8451 -8461 0
-7150 8449 8451 0
-7150 -8453 8461 0
7150 8449 -8451 -8461 0
7150 -8449 8451 -8461 0
7150 -8451 8453 8461 0
7151 -7152 -7154 0
-7151 7152 0
-7151 7154 0
7152 -7140 7153 0
7152 7140 -7153 0
-7152 7140 7153 0
-7152 -7140 -7153 0
-7153 7138 7139 0
-7153 -7138 -7139 0
7153 -7138 7139 0
7153 7138 -7139 0
7154 -7155 -7156 0
-7154 7155 0
-7154 7156 0
-7155 -8459 8461 0
-7155 8451 8461 0
-7155 8451 8457 0
-7155 -8451 -8457 -8461 0
7155 8451 -8457 -8461 0
7155 -8451 8459 8461 0
7155 -8451 8457 -8461 0
-7156 8463 -1225 0
-7156 -8463 6457 0
-7156 8451 8463 0
7156 -8463 -6457 0
7156 -8451 8463 1225 0
7157 -7158 -7160 0
-7157 7158 0
-7157 7160 0
-7158 7131 7159 0
-7158 -7131 -7159 0
7158 -7131 7159 0
7158 7131 -7159 0
-7159 -7119 -7132 0
-7159 7119 7132 0
7159 7119 -7132 0
7159 -7119 7132 0
7160 -7133 -7145 0
7160 -7145 -7150 0
7160 -7133 -7150 0
-7160 7145 7150 0
-7160 7133 7145 0
-7160 7133 7150 0
-7161 7158 7160 0
7161 -7158 0
7161 -7160 0
-7162 7163 7167 0
-7162 -7163 -7167 0
7162 -7163 7167 0
7162 7163 -7167 0
7163 -7164 7165 0
7163 7164 -7165 0
-7163 7164 7165 0
-7163 -7164 -7165 0
-7164 7110 7114 0
-7164 8395 7110 7116 0
-7164 -8395 7114 -7116 0
-7164 -8395 7110 -7116 0
-7164 8395 7114 7116 0
7164 -7110 -7114 0
7164 -8395 -7114 7116 0
7164 8395 -7110 -7116 0
7164 8395 -7114 -7116 0
7164 -8395 -7110 7116 0
-7165 -7096 -7166 0
-7165 7096 7166 0
7165 7096 -7166 0
7165 -7096 7166 0
7166 7078 -7092 0
7166 -7078 7092 0
-7166 -7078 -7092 0
-7166 7078 7092 0
-7167 7129 7169 0
-7167 7118 7169 0
-7167 7168 7169 0
7167 -7169 0
7167 -7118 -7129 -7168 0
-7168 7127 7128 0
7168 -7127 0
7168 -7128 0
7169 -7108 -7117 0
-7169 7108 0
-7169 7117 0
7170 -7171 -7172 0
-7170 7171 0
-7170 7172 0
7171 -7164 -7165 0
-7171 7164 0
-7171 7165 0
-7172 7173 7098 0
-7172 -7173 -7098 0
7172 -7173 7098 0
7172 7173 -7098 0
-7173 7089 7091 0
-7173 -7089 -7091 0
7173 -7089 7091 0
7173 7089 -7091 0
7174 -7163 -7167 0
-7174 7163 0
-7174 7167 0
-7175 7086 7088 0
-7175 -7086 -7088 0
7175 -7086 7088 0
7175 7086 -7088 0
-7176 7171 7172 0
7176 -7171 0
7176 -7172 0
7177 -7178 -7179 0
-7177 7178 0
-7177 7179 0
-7178 7101 7103 0
7178 -7101 0
7178 -7103 0
-7179 7046 7069 0
7179 -7046 0
7179 -7069 0
7180 -7026 -7181 0
-7180 7026 0
-7180 7181 0
7181 -6898 -7182 0
-7181 6898 0
-7181 7182 0
-7182 6993 7183 0
7182 -6993 0
7182 -7183 0
7183 -6996 -7024 0
-7183 6996 0
-7183 7024 0
-7184 7185 7193 0
7184 -7185 0
7184 -7193 0
-7185 7027 7186 0
7185 -7027 0
7185 -7186 0
7186 -7187 -7192 0
-7186 7187 0
-7186 7192 0
7187 -7188 7191 0
7187 7188 -7191 0
-7187 7188 7191 0
-7187 -7188 -7191 0
-7188 -7189 -7190 0
-7188 7189 7190 0
7188 7189 -7190 0
7188 -7189 7190 0
-7189 -6709 -6711 0
-7189 6709 6711 0
7189 6709 -6711 0
7189 -6709 6711 0
7190 -7034 -7036 0
7190 -7032 -7034 0
7190 -7032 -7036 0
-7190 7032 7034 0
-7190 7034 7036 0
-7190 7032 7036 0
-7191 6720 6751 0
-7191 6751 -6753 0
-7191 -6720 -6751 6753 0
7191 6720 -6751 0
7191 -6751 -6753 0
7191 -6720 6751 6753 0
-7192 7039 7041 0
-7192 7031 7039 0
-7192 7031 7041 0
7192 -7031 -7039 0
7192 -7039 -7041 0
7192 -7031 -7041 0
7193 -7194 -7196 0
-7193 7194 0
-7193 7196 0
-7194 6718 7195 0
-7194 -6718 -7195 0
7194 -6718 7195 0
7194 6718 -7195 0
-7195 -6719 -6754 0
-7195 6719 6754 0
7195 6719 -6754 0
7195 -6719 6754 0
7196 -7190 -7191 0
7196 -7189 -7191 0
7196 -7189 -7190 0
-7196 7189 7191 0
-7196 7189 7190 0
-7196 7190 7191 0
7197 -7193 -7199 0
7197 -7198 -7199 0
-7197 7199 0
-7197 7193 7198 0
-7198 7187 7192 0
7198 -7187 0
7198 -7192 0
-7199 7194 7196 0
7199 -7194 0
7199 -7196 0
7200 -6764 -7201 0
-7200 6764 0
-7200 7201 0
-7201 6765 7202 7207 7208 0
7201 -7208 0
7201 -7207 0
7201 -6765 0
7201 -7202 0
7202 -6445 -7203 0
-7202 6445 0
-7202 7203 0
7203 -6757 -7206 0
7203 -7204 -7206 0
-7203 7206 0
-7203 6757 7204 0
7204 -6717 -7205 0
-7204 6717 0
-7204 7205 0
7205 6677 -6679 0
7205 -6677 6679 0
-7205 -6677 -6679 0
-7205 6677 6679 0
-7206 6758 6760 0
7206 -6758 0
7206 -6760 0
7207 -6446 -6618 0
-7207 6446 0
-7207 6618 0
7208 -6890 -6892 0
-7208 6890 0
-7208 6892 0
-7209 7210 7453 7537 0
7209 -7210 0
7209 -7453 0
7209 -7537 0
-7210 7211 7400 0
7210 -7211 0
7210 -7400 0
7211 7212 -7353 0
7211 -7212 7353 0
-7211 -7212 -7353 0
-7211 7212 7353 0
7212 -7236 -7308 0
7212 -7308 -7351 0
7212 7213 -7308 0
-7212 7308 0
-7212 -7213 7236 7351 0
7213 7214 -7224 0
7213 -7214 7224 0
-7213 -7214 -7224 0
-7213 7214 7224 0
-7214 -7215 -7218 7223 0
-7214 -7215 7218 -7223 0
-7214 7215 7218 7223 0
-7214 7215 -7218 -7223 0
7214 -7215 -7218 -7223 0
7214 -7215 7218 7223 0
7214 7215 7218 -7223 0
7214 7215 -7218 7223 0
7215 8444 -7216 0
7215 -8444 7216 7217 0
7215 8444 -227 0
-7215 -8444 -7216 0
-7215 8444 227 7216 0
-7215 -8444 -7217 0
7216 -8424 -6493 0
-7216 8424 0
-7216 6493 0
7217 -8419 124 0
-7217 8419 0
-7217 -124 0
-7218 -8402 8410 -7219 0
-7218 -8402 -8410 7219 0
-7218 8402 -8410 -7219 0
-7218 8402 8410 7219 0
7218 -8402 8410 7219 0
7218 -8402 -8410 -7219 0
7218 8402 -8410 7219 0
7218 8402 8410 -7219 0
-7219 -8400 7220 0
-7219 8410 7220 0
-7219 7220 7222 0
7219 -7220 0
7219 8400 -8410 -7222 0
-7220 7221 6487 0
-7220 8421 194 0
-7220 194 6487 0
-7220 8421 7221 0
7220 -194 -7221 0
7220 -8421 -6487 0
7221 8410 -8423 0
-7221 -8410 0
-7221 8423 0
7222 8402 -8423 0
-7222 -8402 0
-7222 8423 0
-7223 285 6475 0
-7223 8398 285 0
7223 -285 0
7223 -8398 -6475 0
7224 -7225 7228 0
7224 7225 -7228 0
-7224 7225 7228 0
-7224 -7225 -7228 0
7225 8420 -7226 0
7225 -8420 7226 7227 0
7225 8420 -236 0
-7225 -8420 -7226 0
-7225 8420 236 7226 0
-7225 -8420 -7227 0
7226 -8405 -6509 0
-7226 8405 0
-7226 6509 0
7227 -8430 18 0
-7227 8430 0
-7227 -18 0
-7228 7229 7233 0
-7228 -7229 -7233 0
7228 -7229 7233 0
7228 7229 -7233 0
-7229 7230 7232 0
-7229 -8412 -6497 7230 0
7229 -7230 0
7229 8412 -7232 0
7229 6497 -7232 0
-7230 45 6497 0
-7230 8435 7231 0
-7230 45 7231 0
-7230 8435 6497 0
7230 -8435 -45 0
7230 -6497 -7231 0
7231 -8412 8432 0
-7231 8412 0
-7231 -8432 0
7232 -8432 -8438 0
7232 -8432 8435 0
7232 -8432 -8440 0
-7232 8432 0
-7232 -8435 8438 8440 0
-7233 7234 7235 0
-7233 -8442 -6503 7234 0
7233 -7234 0
7233 8442 -7235 0
7233 6503 -7235 0
-7234 8442 6598 0
-7234 8428 6502 0
-7234 6598 6502 0
-7234 8428 8442 0
7234 -8428 -6598 0
7234 -8442 -6502 0
7235 -8417 -8438 0
7235 8428 -8438 0
7235 -8438 -8444 0
-7235 8438 0
-7235 8417 -8428 8444 0
7236 -7237 -7279 0
-7236 7237 0
-7236 7279 0
7237 -7238 7269 0
7237 -7254 7269 0
7237 -7238 -7254 0
-7237 7238 7254 0
-7237 7254 -7269 0
-7237 7238 -7269 0
-7238 -7239 -7244 0
-7238 7239 7244 0
7238 7239 -7244 0
7238 -7239 7244 0
-7239 -7240 -7241 0
-7239 7240 7241 0
7239 7240 -7241 0
7239 -7240 7241 0
-7240 323 6475 0
-7240 8390 323 0
7240 -323 0
7240 -8390 -6475 0
7241 8420 -7242 0
7241 -8420 7242 7243 0
7241 8420 -326 0
-7241 -8420 -7242 0
-7241 8420 326 7242 0
-7241 -8420 -7243 0
7242 -8414 -6509 0
-7242 8414 0
-7242 6509 0
7243 -8398 18 0
-7243 8398 0
-7243 -18 0
7244 -7245 -7250 0
7244 -7246 -7250 0
7244 -7245 -7246 0
-7244 7245 7246 0
-7244 7246 7250 0
-7244 7245 7250 0
-7245 8395 333 0
-7245 -8395 -8421 332 0
-7245 8395 8421 0
7245 -8395 8421 0
7245 8395 -8421 -333 0
7245 -8395 -332 0
-7246 7247 7249 0
-7246 -8423 -6481 7247 0
7246 -7247 0
7246 8423 -7249 0
7246 6481 -7249 0
-7247 267 7222 0
-7247 6481 7248 0
-7247 7222 7248 0
-7247 267 6481 0
7247 -267 -7248 0
7247 -7222 -6481 0
7248 8402 -8424 0
-7248 -8402 0
-7248 8424 0
7249 -8402 -266 0
7249 -8402 8424 0
-7249 8402 0
-7249 -8424 266 0
-7250 8442 7251 7252 0
-7250 193 7251 7252 0
7250 -7252 0
7250 -7251 0
7250 -8442 -193 0
7251 8410 -8419 -6487 0
-7251 -8410 0
-7251 8419 0
-7251 6487 0
7252 -8410 8419 7253 0
7252 -8410 6487 7253 0
-7252 8410 0
-7252 -7253 0
-7252 -8419 -6487 0
7253 8400 8402 -8442 0
-7253 8442 0
-7253 -8402 0
-7253 -8400 0
-7254 7255 7258 0
-7254 -7255 -7258 0
7254 -7255 7258 0
7254 7255 -7258 0
-7255 -8432 -317 0
-7255 -8432 -7256 0
-7255 8432 7256 7257 0
7255 8432 -7256 0
7255 -8432 317 7256 0
7255 8432 -7257 0
7256 -8405 -6497 0
-7256 8405 0
-7256 6497 0
7257 -8430 -8438 -8440 0
-7257 8430 0
-7257 8438 0
-7257 8440 0
-7258 7259 7264 0
-7258 -7259 -7264 0
7258 -7259 7264 0
7258 7259 -7264 0
-7259 7260 7263 0
-7259 -8412 -6503 7260 0
7259 -7260 0
7259 8412 -7263 0
7259 6503 -7263 0
-7260 82 7261 0
-7260 6503 7262 0
-7260 82 6503 0
-7260 7261 7262 0
7260 -82 -7262 0
7260 -6503 -7261 0
7261 -8412 8438 0
-7261 8412 0
-7261 -8438 0
7262 -8435 8438 0
-7262 8435 0
-7262 -8438 0
7263 8435 -8438 0
7263 -8438 -81 0
-7263 8438 0
-7263 -8435 81 0
-7264 7265 7266 0
-7264 -8442 -6493 7266 0
7264 -7266 0
7264 6493 -7265 0
7264 8442 -7265 0
7265 8428 -8444 0
7265 -8410 -8444 0
7265 -8408 -8444 0
-7265 8444 0
-7265 8408 8410 -8428 0
-7266 125 6493 0
-7266 7267 7268 0
-7266 6493 7267 0
-7266 125 7268 0
7266 -6493 -7268 0
7266 -125 -7267 0
7267 -8428 8444 0
-7267 8428 0
-7267 -8444 0
7268 -8442 8444 0
-7268 8442 0
-7268 -8444 0
7269 -7270 7274 0
7269 7270 -7274 0
-7269 7270 7274 0
-7269 -7270 -7274 0
7270 8410 -7272 0
7270 -8410 7271 7272 0
7270 8410 -7273 0
-7270 -8410 -7271 0
-7270 -8410 -7272 0
-7270 8410 7272 7273 0
7271 -8419 192 0
-7271 8419 0
-7271 -192 0
7272 -8424 -6487 0
-7272 8424 0
-7272 6487 0
7273 -8419 -194 0
-7273 8419 0
-7273 194 0
-7274 8395 7275 0
-7274 -8395 -7275 0
7274 -8395 7275 0
7274 8395 -7275 0
-7275 8421 7276 0
-7275 6481 7276 0
-7275 -8402 7276 0
7275 -7276 0
7275 8402 -8421 -6481 0
-7276 8423 7277 0
-7276 -8402 7277 0
-7276 267 7277 0
7276 -7277 0
7276 8402 -8423 -267 0
7277 -8402 8421 7278 0
7277 -8402 6481 7278 0
-7277 8402 0
-7277 -7278 0
-7277 -8421 -6481 0
7278 -8423 266 0
-7278 8423 0
-7278 -266 0
7279 -7280 -7295 0
7279 -7289 -7295 0
7279 -7280 -7289 0
-7279 7280 7289 0
-7279 7289 7295 0
-7279 7280 7295 0
-7280 -7245 7246 -7288 0
-7280 7245 7246 7281 0
-7280 7245 -7246 -7288 0
-7280 -7245 -7246 7281 0
7280 7245 -7246 7288 0
7280 7245 7246 -7281 0
7280 -7245 7246 7288 0
7280 -7245 -7246 -7281 0
7281 378 -7282 7283 0
-7281 -378 0
-7281 -7283 0
-7281 7282 0
-7282 8442 7251 7252 0
-7282 193 7251 7252 0
7282 -7252 0
7282 -7251 0
7282 -8442 -193 0
7283 -377 7284 0
-7283 377 0
-7283 -7284 0
-7284 7285 7287 0
-7284 -8421 -6453 7285 0
7284 -7285 0
7284 8421 -7287 0
7284 6453 -7287 0
-7285 8421 7286 0
-7285 -8395 7286 0
-7285 6453 7286 0
7285 -7286 0
7285 8395 -8421 -6453 0
7286 8395 -8423 -333 0
-7286 333 0
-7286 8423 0
-7286 -8395 0
7287 -8395 -332 0
7287 -8395 8423 0
-7287 8395 0
-7287 -8423 332 0
-7288 378 7282 7283 0
7288 -378 0
7288 -7282 0
7288 -7283 0
-7289 7290 7291 0
7289 -7290 0
7289 -7291 0
-7290 361 6475 0
-7290 8388 361 0
7290 -361 0
7290 -8388 -6475 0
-7291 -8420 -7292 0
-7291 -8420 -7294 0
-7291 8420 7292 7293 0
7291 8420 -7293 0
7291 -8420 7292 7294 0
7291 8420 -7292 0
7292 -8398 -6509 0
-7292 8398 0
-7292 6509 0
7293 -8390 -19 0
-7293 8390 0
-7293 19 0
7294 -8390 18 0
-7294 8390 0
-7294 -18 0
-7295 7296 7300 0
-7295 7300 7304 0
-7295 7296 7304 0
7295 -7296 -7304 0
7295 -7300 -7304 0
7295 -7296 -7300 0
-7296 8432 7297 7299 0
-7296 -8432 -7298 7299 0
-7296 -8432 -7297 7299 0
7296 -7299 0
7296 8432 -7297 0
7296 -8432 7297 7298 0
7297 -8430 -6497 0
-7297 8430 0
-7297 6497 0
7298 -8414 8438 8440 0
-7298 8414 0
-7298 -8440 0
-7298 -8438 0
7299 -8414 -45 0
-7299 8414 0
-7299 45 0
-7300 7301 7303 0
-7300 -8428 -6493 7301 0
7300 -7301 0
7300 8428 -7303 0
7300 6493 -7303 0
-7301 7302 6493 0
-7301 8412 7267 0
-7301 7302 7267 0
-7301 8412 6493 0
7301 -8412 -7302 0
7301 -6493 -7267 0
7302 8444 -125 0
-7302 -8444 0
-7302 125 0
7303 8412 -8444 0
7303 -8410 -8444 0
7303 -8408 -8444 0
-7303 8444 0
-7303 8408 8410 -8412 0
-7304 7305 7307 0
-7304 -8435 -6503 7305 0
7304 -7305 0
7304 8435 -7307 0
7304 6503 -7307 0
-7305 82 7262 0
-7305 6503 7306 0
-7305 82 6503 0
-7305 7262 7306 0
7305 -82 -7306 0
7305 -6503 -7262 0
7306 -8405 8438 0
-7306 8405 0
-7306 -8438 0
7307 8405 -8438 0
7307 -8438 -81 0
-7307 8438 0
-7307 -8405 81 0
-7308 7309 7316 0
7308 -7309 0
7308 -7316 0
7309 -7310 7213 -7311 0
7309 -7310 7213 -7236 0
-7309 7310 0
-7309 -7213 0
-7309 7236 7311 0
-7310 7237 7279 0
7310 -7237 0
7310 -7279 0
7311 -7312 7315 0
7311 7312 -7315 0
-7311 7312 7315 0
-7311 -7312 -7315 0
-7312 -7313 -7314 0
-7312 7313 7314 0
7312 7313 -7314 0
7312 -7313 7314 0
7313 -7255 -7264 0
7313 -7259 -7264 0
7313 -7255 -7259 0
-7313 7255 7259 0
-7313 7259 7264 0
-7313 7255 7264 0
7314 -7270 -7275 0
7314 8395 -7275 0
7314 8395 -7270 0
-7314 -8395 7275 0
-7314 -8395 7270 0
-7314 7270 7275 0
-7315 7241 7244 0
-7315 7240 7241 0
-7315 7240 7244 0
7315 -7240 -7241 0
7315 -7241 -7244 0
7315 -7240 -7244 0
-7316 7317 7318 0
-7316 -7317 -7318 0
7316 -7317 7318 0
7316 7317 -7318 0
-7317 7314 7315 0
-7317 7313 7314 0
-7317 7313 7315 0
7317 -7313 -7314 0
7317 -7314 -7315 0
7317 -7313 -7315 0
-7318 -7319 -7343 0
-7318 7319 7343 0
7318 7319 -7343 0
7318 -7319 7343 0
7319 -7330 -7331 0
7319 -7320 7330 7331 0
7319 7320 -7331 0
-7319 7320 7331 0
-7319 -7330 7331 0
-7319 -7320 7330 -7331 0
-7320 7321 7325 7329 0
-7320 7321 7328 7329 0
-7320 7325 7328 7329 0
7320 -7321 -7328 0
7320 -7325 -7328 0
7320 -7329 0
7320 -7321 -7325 0
-7321 7322 7323 0
-7321 -8419 -6493 7323 0
7321 -7323 0
7321 6493 -7322 0
7321 8419 -7322 0
7322 8442 -8444 0
7322 -8410 -8444 0
7322 -8408 -8444 0
-7322 8444 0
-7322 8408 8410 -8442 0
-7323 -8444 7324 0
-7323 6493 7324 0
-7323 8419 7324 0
7323 -7324 0
7323 -8419 8444 -6493 0
7324 -8442 8444 -125 0
-7324 8442 0
-7324 -8444 0
-7324 125 0
-7325 7326 7327 0
-7325 -8423 -6487 7326 0
7325 -7326 0
7325 8423 -7327 0
7325 6487 -7327 0
-7326 8424 6487 0
-7326 193 7221 0
-7326 193 6487 0
-7326 8424 7221 0
7326 -8424 -193 0
7326 -7221 -6487 0
7327 -8400 -8410 0
7327 -8410 8424 0
7327 -8402 -8410 0
-7327 8410 0
-7327 8400 8402 -8424 0
-7328 8402 8421 0
-7328 8402 267 0
-7328 -8421 266 267 0
7328 -8402 8421 0
7328 -8421 -267 0
7328 -8402 -266 0
-7329 261 6475 0
-7329 8414 261 0
7329 -261 0
7329 -8414 -6475 0
-7330 7321 7325 0
-7330 7325 7328 0
-7330 7329 0
-7330 7321 7328 0
7330 -7321 -7325 -7329 0
7330 -7321 -7328 -7329 0
7330 -7325 -7328 -7329 0
-7331 7336 7340 0
-7331 7332 7336 0
-7331 7332 7340 0
7331 -7332 -7336 0
7331 -7336 -7340 0
7331 -7332 -7340 0
7332 8438 -7333 7335 0
7332 -8438 7334 7335 0
7332 8438 -7334 7335 0
-7332 -7335 0
-7332 -8438 -7334 0
-7332 8438 7333 7334 0
7333 -8412 -82 0
-7333 8412 0
-7333 82 0
7334 -8428 -6503 0
-7334 8428 0
-7334 6503 0
7335 -8412 -6658 0
-7335 8412 0
-7335 6658 0
7336 7337 -7339 0
7336 -8435 -6497 7337 0
-7336 -7337 0
-7336 8435 7339 0
-7336 6497 7339 0
-7337 8435 7338 0
-7337 6497 7338 0
-7337 8432 7338 0
7337 -7338 0
7337 -8432 -8435 -6497 0
7338 -8405 -43 0
-7338 8405 0
-7338 43 0
-7339 8432 46 0
-7339 8405 8432 0
7339 -8432 0
7339 -8405 -46 0
-7340 -8420 -280 0
-7340 -8420 -7341 0
-7340 8420 7341 7342 0
7340 8420 -7341 0
7340 -8420 280 7341 0
7340 8420 -7342 0
7341 -8430 -6509 0
-7341 8430 0
-7341 6509 0
7342 -8414 -8432 -8433 0
-7342 8414 0
-7342 8432 0
-7342 8433 0
7343 -7344 7349 7350 0
-7343 -7350 0
-7343 -7349 0
-7343 7344 0
-7344 7345 7347 0
7344 -7345 0
7344 -7347 0
-7345 7340 7346 0
-7345 -7340 -7346 0
7345 -7340 7346 0
7345 7340 -7346 0
-7346 -7332 -7336 0
-7346 7332 7336 0
7346 7332 -7336 0
7346 -7332 7336 0
7347 -7321 7348 0
7347 7321 -7348 0
-7347 7321 7348 0
-7347 -7321 -7348 0
-7348 7325 7328 0
-7348 -7325 -7328 0
7348 -7325 7328 0
7348 7325 -7328 0
-7349 7223 0
-7349 7340 -7346 0
-7349 -7340 7346 0
7349 -7223 7340 7346 0
7349 -7223 -7340 -7346 0
-7350 7223 0
-7350 7321 -7348 0
-7350 -7321 7348 0
7350 -7223 7321 7348 0
7350 -7223 -7321 -7348 0
7351 -7310 -7352 0
-7351 7310 0
-7351 7352 0
-7352 7312 7315 0
-7352 -7312 -7315 0
7352 -7312 7315 0
7352 7312 -7315 0
7353 -7365 7399 0
7353 -7365 7397 0
7353 7354 -7365 0
-7353 7365 0
-7353 -7354 -7397 -7399 0
7354 7355 -7363 0
7354 -7355 7364 0
-7354 7355 7363 0
-7354 -7355 -7364 0
-7355 7356 7362 0
7355 -7356 0
7355 -7362 0
7356 7357 -7359 0
-7356 -7357 0
-7356 7359 0
-7357 7330 7358 0
7357 -7330 0
7357 -7358 0
7358 -7320 -7331 0
-7358 7320 0
-7358 7331 0
-7359 7360 7361 0
-7359 -7360 -7361 0
7359 -7360 7361 0
7359 7360 -7361 0
7360 -7233 -7225 0
7360 -7229 -7233 0
7360 -7229 -7225 0
-7360 7229 7233 0
-7360 7233 7225 0
-7360 7229 7225 0
-7361 -8402 7215 0
-7361 -8402 8410 7219 0
-7361 8410 7219 7215 0
-7361 -8402 -8410 -7219 0
-7361 -8410 -7219 7215 0
7361 8402 -7215 0
7361 8402 -8410 7219 0
7361 8410 -7219 -7215 0
7361 8402 8410 -7219 0
7361 -8410 7219 -7215 0
7362 -7357 7359 0
-7362 7357 0
-7362 -7359 0
-7363 7223 7224 0
-7363 7215 -7218 7224 0
-7363 -7215 7218 7224 0
-7363 -7215 7218 7223 0
-7363 7215 -7218 7223 0
7363 -7223 -7224 0
7363 7215 7218 -7224 0
7363 7215 7218 -7223 0
7363 -7215 -7218 -7223 0
7363 -7215 -7218 -7224 0
-7364 7223 7224 0
-7364 7215 -7218 7224 0
-7364 -7215 7218 7224 0
-7364 -7215 7218 7223 0
-7364 7215 -7218 7223 0
7364 -7223 -7224 0
7364 7215 7218 -7224 0
7364 7215 7218 -7223 0
7364 -7215 -7218 -7223 0
7364 -7215 -7218 -7224 0
-7365 7366 7354 7392 7393 0
7365 -7393 0
7365 -7392 0
7365 -7366 0
7365 -7354 0
-7366 -7317 -7367 0
-7366 7317 7367 0
-7366 7319 7367 0
-7366 -7343 -7367 0
7366 7317 7343 -7367 0
7366 -7317 -7319 7367 0
7367 7368 -7390 0
-7367 -7368 0
-7367 7390 0
7368 -7369 -7381 0
-7368 7369 0
-7368 7381 0
7369 -7370 7371 0
7369 7370 -7371 0
-7369 7370 7371 0
-7369 -7370 -7371 0
-7370 204 6475 0
-7370 8430 204 0
7370 -204 0
7370 -8430 -6475 0
-7371 7372 7376 0
-7371 -7372 -7376 0
7371 -7372 7376 0
7371 7372 -7376 0
-7372 7373 7375 0
-7372 -8428 -6497 7373 0
7372 -7373 0
7372 8428 -7375 0
7372 6497 -7375 0
-7373 -8432 7374 0
-7373 6497 7374 0
-7373 8428 7374 0
7373 -7374 0
7373 -8428 8432 -6497 0
7374 -8412 8432 -46 0
-7374 8412 0
-7374 -8432 0
-7374 46 0
7375 8412 -8432 0
7375 -8432 -8438 0
7375 -8432 -8440 0
-7375 8432 0
-7375 -8412 8438 8440 0
-7376 7377 7380 0
-7376 -8435 -6509 7377 0
7376 -7377 0
7376 8435 -7380 0
7376 6509 -7380 0
-7377 8435 7378 0
-7377 -8420 7378 0
-7377 6509 7378 0
7377 -7378 0
7377 8420 -8435 -6509 0
7378 -8405 -7379 0
-7378 8405 0
-7378 7379 0
7379 8420 -19 0
-7379 -8420 0
-7379 19 0
7380 8405 -8420 0
7380 -8420 -18 0
-7380 8420 0
-7380 -8405 18 0
7381 -7382 7384 0
7381 7382 -7384 0
-7381 7382 7384 0
-7381 -7382 -7384 0
-7382 8438 7383 0
-7382 -8438 -7383 0
7382 -8438 7383 0
7382 8438 -7383 0
-7383 188 6503 0
-7383 8419 188 0
7383 -188 0
7383 -8419 -6503 0
-7384 7385 7389 0
-7384 -7385 -7389 0
7384 -7385 7389 0
7384 7385 -7389 0
-7385 7386 7388 0
-7385 -8423 -6493 7386 0
7385 -7386 0
7385 8423 -7388 0
7385 6493 -7388 0
-7386 -8444 7387 0
-7386 6493 7387 0
-7386 8423 7387 0
7386 -7387 0
7386 -8423 8444 -6493 0
7387 -8424 -7302 0
-7387 8424 0
-7387 7302 0
7388 8424 -8444 0
7388 -8444 -124 0
-7388 8444 0
-7388 -8424 124 0
-7389 8410 8421 0
-7389 8410 193 0
-7389 -8421 192 193 0
7389 -8410 8421 0
7389 -8421 -193 0
7389 -8410 -192 0
-7390 7381 7391 0
7390 -7381 0
7390 -7391 0
-7391 7370 7371 0
-7391 -7370 -7371 0
7391 -7370 7371 0
7391 7370 -7371 0
7392 7319 7343 -7367 0
7392 7317 7319 -7367 0
-7392 7367 0
-7392 -7319 0
-7392 -7317 -7343 0
7393 7394 -7395 -7396 0
-7393 -7394 0
-7393 7395 0
-7393 7396 0
-7394 7370 -7371 -7381 0
-7394 7370 7371 7381 0
-7394 -7370 7371 -7381 0
-7394 -7370 -7371 7381 0
7394 7370 -7371 7381 0
7394 7370 7371 -7381 0
7394 -7370 7371 7381 0
7394 -7370 -7371 -7381 0
7395 -7344 7349 7350 0
-7395 -7350 0
-7395 -7349 0
-7395 7344 0
-7396 7317 7319 0
7396 -7317 0
7396 -7319 0
7397 7317 -7319 0
7397 -7317 7398 0
7397 7317 -7394 0
-7397 -7317 -7398 0
-7397 7317 7319 7394 0
7398 -7367 -7395 0
-7398 7367 0
-7398 7395 0
7399 -7343 7394 0
7399 7317 7343 -7394 0
7399 7319 -7394 0
7399 -7317 -7319 7394 0
-7399 7317 7343 7394 0
-7399 -7317 -7319 -7394 0
-7399 7319 7343 7394 0
-7399 -7319 -7343 -7394 0
7400 -7401 7403 0
-7400 7401 0
-7400 -7403 0
-7401 7316 7402 0
-7401 -7316 -7402 0
7401 -7316 7402 0
7401 7316 -7402 0
-7402 -7236 7309 0
-7402 7309 -7351 0
-7402 7213 7309 0
7402 -7309 0
7402 -7213 7236 7351 0
-7403 7450 7452 0
-7403 -7404 7446 7452 0
7403 -7452 0
7403 -7446 -7450 0
7403 7404 -7450 0
7404 7405 -7444 0
-7404 -7405 0
-7404 7444 0
7405 7406 -7414 0
-7405 -7406 0
-7405 7414 0
-7406 7407 -7411 0
-7406 -7411 7413 0
-7406 7407 7413 0
7406 -7407 -7413 0
7406 7411 -7413 0
7406 -7407 7411 0
-7407 7408 7280 0
7407 -7408 0
7407 -7280 0
7408 7409 -7410 7282 0
7408 -7409 -7410 -7250 0
-7408 7410 0
-7408 7409 -7282 0
-7408 -7409 7250 0
-7409 7245 7246 0
-7409 -7245 -7246 0
7409 -7245 7246 0
7409 7245 -7246 0
7410 -377 -378 0
7410 -377 7284 0
-7410 377 0
-7410 378 -7284 0
7411 -7296 7412 0
7411 7296 -7412 0
-7411 7296 7412 0
-7411 -7296 -7412 0
-7412 7300 7304 0
-7412 -7300 -7304 0
7412 -7300 7304 0
7412 7300 -7304 0
-7413 7290 7291 0
-7413 -7290 -7291 0
7413 -7290 7291 0
7413 7290 -7291 0
7414 -7415 -7427 0
7414 -7427 -7439 0
7414 -7415 -7439 0
-7414 7415 7439 0
-7414 7427 7439 0
-7414 7415 7427 0
7415 -7420 -7424 0
7415 -7416 -7420 0
7415 -7416 -7424 0
-7415 7416 7420 0
-7415 7420 7424 0
-7415 7416 7424 0
-7416 7417 7419 0
-7416 -8414 -6497 7417 0
7416 -7417 0
7416 8414 -7419 0
7416 6497 -7419 0
-7417 -8432 7418 0
-7417 6497 7418 0
-7417 8414 7418 0
7417 -7418 0
7417 -8414 8432 -6497 0
7418 -8398 8432 -46 0
-7418 8398 0
-7418 -8432 0
-7418 46 0
7419 8398 -8432 0
7419 -8432 -44 0
-7419 8432 0
-7419 -8398 44 0
-7420 7421 7423 0
-7420 -8405 -6503 7421 0
7420 -7421 0
7420 8405 -7423 0
7420 6503 -7423 0
-7421 -8438 7422 0
-7421 6503 7422 0
-7421 8405 7422 0
7421 -7422 0
7421 -8405 8438 -6503 0
7422 -8430 8438 -82 0
-7422 8430 0
-7422 -8438 0
-7422 82 0
7423 8430 -8438 0
7423 -8438 -81 0
-7423 8438 0
-7423 -8430 81 0
7424 8420 -7425 0
7424 -8420 433 7425 0
7424 8420 -7426 0
-7424 -8420 -433 0
-7424 -8420 -7425 0
-7424 8420 7425 7426 0
7425 -8390 -6509 0
-7425 8390 0
-7425 6509 0
7426 -8388 -19 0
-7426 8388 0
-7426 19 0
7427 -7432 -7436 0
7427 -7428 -7432 0
7427 -7428 -7436 0
-7427 7428 7432 0
-7427 7432 7436 0
-7427 7428 7436 0
-7428 7429 7430 0
-7428 -8424 -6481 7430 0
7428 -7430 0
7428 6481 -7429 0
7428 8424 -7429 0
7429 -8402 -266 0
7429 -8402 8419 0
-7429 8402 0
-7429 -8419 266 0
-7430 267 7248 0
-7430 6481 7431 0
-7430 267 6481 0
-7430 7248 7431 0
7430 -267 -7431 0
7430 -6481 -7248 0
7431 8402 -8419 0
-7431 -8402 0
-7431 8419 0
-7432 7433 7434 0
-7432 -8442 -6487 7434 0
7432 -7434 0
7432 6487 -7433 0
7432 8442 -7433 0
7433 -8410 -192 0
7433 -8410 8428 0
-7433 8410 0
-7433 -8428 192 0
-7434 193 6487 0
-7434 8428 7435 0
-7434 193 7435 0
-7434 8428 6487 0
7434 -8428 -193 0
7434 -6487 -7435 0
7435 8410 -8442 0
-7435 -8410 0
-7435 8442 0
7436 8444 -7437 0
7436 -8444 423 7437 0
7436 8444 -7438 0
-7436 -8444 -423 0
-7436 -8444 -7437 0
-7436 8444 7437 7438 0
7437 -8412 -6493 0
-7437 8412 0
-7437 6493 0
7438 -8435 -125 0
-7438 8435 0
-7438 125 0
7439 -7440 -7443 0
7439 -7441 -7443 0
-7439 7443 0
-7439 7440 7441 0
-7440 -8426 8451 -7284 0
-7440 -8426 -8451 7284 0
-7440 8426 -8451 -7284 0
-7440 8426 8451 7284 0
7440 -8426 8451 7284 0
7440 -8426 -8451 -7284 0
7440 8426 -8451 7284 0
7440 8426 8451 -7284 0
-7441 7442 0
-7441 6867 6874 0
-7441 6873 6874 0
7441 -7442 -6874 0
7441 -6867 -7442 -6873 0
-7442 439 6475 0
-7442 8449 439 0
7442 -439 0
7442 -8449 -6475 0
-7443 6867 7442 6874 0
-7443 7442 6873 6874 0
7443 -6874 0
7443 -7442 0
7443 -6867 -6873 0
7444 -7223 7445 0
7444 7223 -7445 0
-7444 7223 7445 0
-7444 -7223 -7445 0
-7445 -7345 -7347 0
-7445 7345 7347 0
7445 7345 -7347 0
7445 -7345 7347 0
7446 -7447 7449 0
-7446 7447 0
-7446 -7449 0
-7447 7280 7448 0
-7447 -7280 -7448 0
7447 -7280 7448 0
7447 7280 -7448 0
-7448 7289 7295 0
-7448 -7289 -7295 0
7448 -7289 7295 0
7448 7289 -7295 0
7449 -7406 7414 0
-7449 7406 0
-7449 -7414 0
-7450 7312 -7315 -7451 0
-7450 7312 7315 7451 0
-7450 -7312 7315 -7451 0
-7450 -7312 -7315 7451 0
7450 7312 -7315 7451 0
7450 7312 7315 -7451 0
7450 -7312 7315 7451 0
7450 -7312 -7315 -7451 0
-7451 -7237 -7279 0
-7451 7237 7279 0
7451 7237 -7279 0
7451 -7237 7279 0
7452 -7447 7444 7449 0
7452 -7405 7444 7449 0
-7452 -7449 0
-7452 -7444 0
-7452 7447 7405 0
-7453 7454 7483 7510 0
7453 -7454 0
7453 -7510 0
7453 -7483 0
7454 -7455 7482 0
-7454 7455 0
-7454 -7482 0
7455 -7456 -7480 0
-7455 7456 0
-7455 7480 0
7456 -7457 7479 0
7456 -7459 7479 0
-7456 -7479 0
-7456 7457 7459 0
7457 -7406 7458 0
7457 7406 -7458 0
-7457 7406 7458 0
-7457 -7406 -7458 0
-7458 -7447 -7414 0
-7458 7447 7414 0
7458 7447 -7414 0
7458 -7447 7414 0
7459 7460 7468 -7477 0
7459 7460 7475 -7477 0
7459 7468 7475 -7477 0
-7459 -7468 -7475 0
-7459 -7460 -7468 0
-7459 7477 0
-7459 -7460 -7475 0
-7460 7461 7464 0
7460 -7461 0
7460 -7464 0
7461 -7462 -7463 0
-7461 7462 0
-7461 7463 0
7462 -6844 -6840 0
7462 -6848 -6840 0
7462 -6844 -6848 0
-7462 6844 6848 0
-7462 6848 6840 0
-7462 6844 6840 0
7463 -6857 -6853 0
7463 -6861 -6853 0
7463 -6857 -6861 0
-7463 6857 6861 0
-7463 6861 6853 0
-7463 6857 6853 0
7464 -7465 -7467 0
-7464 7465 0
-7464 7467 0
-7465 6866 6879 0
-7465 6876 7466 6879 0
7465 -6879 0
7465 -6876 -6866 0
7465 -7466 -6866 0
-7466 6880 6878 0
7466 -6880 0
7466 -6878 0
7467 7462 -7463 0
7467 -7462 7463 0
-7467 -7462 -7463 0
-7467 7462 7463 0
-7468 7469 7471 0
-7468 7471 7473 0
-7468 7469 7473 0
7468 -7471 -7473 0
7468 -7469 -7471 0
7468 -7469 -7473 0
-7469 7436 7470 0
-7469 -7436 -7470 0
7469 -7436 7470 0
7469 7436 -7470 0
-7470 7428 7432 0
-7470 -7428 -7432 0
7470 -7428 7432 0
7470 7428 -7432 0
-7471 7424 7472 0
-7471 -7424 -7472 0
7471 -7424 7472 0
7471 7424 -7472 0
-7472 7416 7420 0
-7472 -7416 -7420 0
7472 -7416 7420 0
7472 7416 -7420 0
7473 7440 -7474 0
7473 -7440 7474 0
-7473 -7440 -7474 0
-7473 7440 7474 0
7474 -6867 7442 -6873 0
7474 -7442 6873 6874 0
7474 7442 -6874 0
7474 6867 -7442 6874 0
-7474 6867 7442 6874 0
-7474 -6867 -7442 -6873 0
-7474 -7442 -6874 0
-7474 7442 6873 6874 0
7475 -7439 7476 0
7475 7439 -7476 0
-7475 7439 7476 0
-7475 -7439 -7476 0
-7476 -7415 -7427 0
-7476 7415 7427 0
7476 7415 -7427 0
7476 -7415 7427 0
-7477 -7238 -7478 0
-7477 7238 7478 0
7477 7238 -7478 0
7477 -7238 7478 0
7478 7254 -7269 0
7478 -7254 7269 0
-7478 -7254 -7269 0
-7478 7254 7269 0
7479 -7460 -7468 7477 0
7479 -7460 -7475 7477 0
7479 -7468 -7475 7477 0
-7479 7460 7468 0
-7479 7468 7475 0
-7479 -7477 0
-7479 7460 7475 0
-7480 7450 7481 0
-7480 -7450 -7481 0
7480 -7450 7481 0
7480 7450 -7481 0
-7481 -7405 -7444 0
-7481 7447 7405 7444 0
-7481 7444 -7449 0
-7481 -7447 -7444 7449 0
7481 -7447 7444 7449 0
7481 7405 -7444 -7449 0
7481 7447 7405 -7444 0
7481 -7405 7444 7449 0
7482 7401 -7403 0
-7482 -7401 0
-7482 7403 0
7483 7484 -7486 0
7483 -7484 7486 0
-7483 -7484 -7486 0
-7483 7484 7486 0
-7484 -7354 7394 0
-7484 7394 7485 0
-7484 -7354 7485 0
7484 -7394 -7485 0
7484 7354 -7394 0
7484 7354 -7485 0
7485 -7317 -7319 0
7485 -7319 -7343 0
7485 -7317 -7343 0
-7485 7319 7343 0
-7485 7317 7319 0
-7485 7317 7343 0
7486 -7487 7500 0
7486 7500 -7509 0
7486 7487 -7500 7509 0
-7486 -7487 -7500 0
-7486 -7500 -7509 0
-7486 7487 7500 7509 0
7487 -7488 7489 0
-7487 7488 0
-7487 -7489 0
7488 7356 -7362 0
7488 7356 -7364 0
-7488 -7356 0
-7488 7362 7364 0
-7489 -7490 -7497 0
-7489 7490 7497 0
7489 7490 -7497 0
7489 -7490 7497 0
7490 -7491 7493 0
7490 7491 -7493 0
-7490 7491 7493 0
-7490 -7491 -7493 0
7491 -8438 7492 0
7491 8438 -7492 0
-7491 8438 7492 0
-7491 -8438 -7492 0
-7492 153 6503 0
-7492 8424 153 0
7492 -153 0
7492 -8424 -6503 0
-7493 -8410 -7494 0
-7493 8410 7494 0
7493 8410 -7494 0
7493 -8410 7494 0
7494 8444 -7495 0
7494 -8444 7495 7496 0
7494 8444 -150 0
-7494 -8444 -7495 0
-7494 8444 150 7495 0
-7494 -8444 -7496 0
7495 -8421 -6493 0
-7495 8421 0
-7495 6493 0
7496 -8423 124 0
-7496 8423 0
-7496 -124 0
7497 -7498 7499 0
7497 7498 -7499 0
-7497 7498 7499 0
-7497 -7498 -7499 0
7498 -7385 -7382 0
7498 -7389 -7382 0
7498 -7385 -7389 0
-7498 7385 7389 0
-7498 7389 7382 0
-7498 7385 7382 0
-7499 7372 7376 0
-7499 7376 7370 0
-7499 7372 7370 0
7499 -7372 -7370 0
7499 -7376 -7370 0
7499 -7372 -7376 0
-7500 -7368 -7501 7502 0
-7500 -7368 7501 -7502 0
-7500 7368 7501 7502 0
-7500 7368 -7501 -7502 0
7500 -7368 -7501 -7502 0
7500 -7368 7501 7502 0
7500 7368 7501 -7502 0
7500 7368 -7501 7502 0
-7501 7360 7361 0
7501 -7360 0
7501 -7361 0
-7502 7503 7504 0
-7502 -7503 -7504 0
7502 -7503 7504 0
7502 7503 -7504 0
-7503 181 6475 0
-7503 8405 181 0
7503 -181 0
7503 -8405 -6475 0
-7504 7505 7507 0
-7504 -7505 -7507 0
7504 -7505 7507 0
7504 7505 -7507 0
-7505 8420 7506 0
-7505 -8420 -7506 0
7505 -8420 7506 0
7505 8420 -7506 0
-7506 179 6509 0
-7506 8412 179 0
7506 -179 0
7506 -8412 -6509 0
-7507 8432 7508 0
-7507 -8432 -7508 0
7507 -8432 7508 0
7507 8432 -7508 0
-7508 176 6497 0
-7508 8442 176 0
7508 -176 0
7508 -8442 -6497 0
7509 -7356 -7489 0
7509 7362 7363 -7489 0
-7509 7489 0
-7509 7356 -7362 0
-7509 7356 -7363 0
7510 7511 -7512 0
7510 -7511 7512 0
-7510 -7511 -7512 0
-7510 7511 7512 0
7511 -7488 7489 0
7511 7489 -7500 0
7511 -7488 -7500 0
-7511 -7489 7500 0
-7511 7488 -7489 0
-7511 7488 7500 0
7512 7513 -7521 0
7512 -7513 7521 0
-7512 -7513 -7521 0
-7512 7513 7521 0
-7513 -7514 -7515 0
-7513 7514 7515 0
7513 7514 -7515 0
7513 -7514 7515 0
7514 -7499 7490 0
7514 -7498 -7499 0
7514 -7498 7490 0
-7514 7498 7499 0
-7514 7499 -7490 0
-7514 7498 -7490 0
7515 -7516 7517 0
7515 7516 -7517 0
-7515 7516 7517 0
-7515 -7516 -7517 0
7516 -7505 -7503 0
7516 -7507 -7503 0
7516 -7505 -7507 0
-7516 7505 7507 0
-7516 7507 7503 0
-7516 7505 7503 0
-7517 7518 7520 0
-7517 -7518 -7520 0
7517 -7518 7520 0
7517 7518 -7520 0
-7518 8420 7519 0
-7518 -8420 -7519 0
7518 -8420 7519 0
7518 8420 -7519 0
-7519 144 6509 0
-7519 8428 144 0
7519 -144 0
7519 -8428 -6509 0
-7520 141 6475 0
-7520 8435 141 0
7520 -141 0
7520 -8435 -6475 0
7521 7522 -7536 0
-7521 -7522 0
-7521 7536 0
7522 -7523 -7533 -7534 0
-7522 7523 0
-7522 7534 0
-7522 7533 0
-7523 -7524 -7532 0
-7523 7524 7532 0
7523 7524 -7532 0
7523 -7524 7532 0
-7524 7525 7527 0
-7524 -7525 -7527 0
7524 -7525 7527 0
7524 7525 -7527 0
7525 -8432 7526 0
7525 8432 -7526 0
-7525 8432 7526 0
-7525 -8432 -7526 0
-7526 120 6497 0
-7526 8419 120 0
7526 -120 0
7526 -8419 -6497 0
-7527 7528 7531 0
-7527 -7528 -7531 0
7527 -7528 7531 0
7527 7528 -7531 0
-7528 7529 7530 0
-7528 -8423 -6503 7529 0
7528 -7529 0
7528 8423 -7530 0
7528 6503 -7530 0
-7529 6598 6502 0
-7529 8423 8424 0
-7529 8424 6502 0
-7529 8423 6598 0
7529 -8424 -6598 0
7529 -8423 -6502 0
7530 8424 -8438 0
7530 -8438 -81 0
-7530 8438 0
-7530 -8424 81 0
-7531 8444 125 0
-7531 8421 8444 0
-7531 -8421 -8444 124 0
7531 -8444 -124 0
7531 -8421 8444 -125 0
7531 8421 -8444 0
7532 8410 -7494 0
7532 -7494 -7491 0
7532 8410 -7491 0
-7532 7494 7491 0
-7532 -8410 7494 0
-7532 -8410 7491 0
-7533 7368 7501 0
7533 -7368 0
7533 -7501 0
-7534 7535 7502 0
7534 -7535 0
7534 -7502 0
7535 -7368 -7501 0
-7535 7368 0
-7535 7501 0
-7536 7523 7535 7502 0
-7536 7523 7533 7535 0
7536 -7523 0
7536 -7535 0
7536 -7533 -7502 0
7537 7538 7482 7556 -7580 0
-7537 7580 0
-7537 -7556 0
-7537 -7538 0
-7537 -7482 0
7538 -7539 -7541 -7555 0
7538 -7539 -7553 -7555 0
-7538 7539 0
-7538 7555 0
-7538 7541 7553 0
-7539 7457 7540 0
-7539 -7457 -7540 0
7539 -7457 7540 0
7539 7457 -7540 0
-7540 7459 7479 0
7540 -7459 0
7540 -7479 0
7541 -7542 -7551 0
-7541 7542 0
-7541 7551 0
-7542 7543 7549 0
-7542 7548 7549 0
7542 -7549 0
7542 -7543 -7548 0
-7543 7544 7547 0
7543 -7544 0
7543 -7547 0
-7544 7545 6784 7546 0
7544 -7545 0
7544 -7546 0
7544 -6784 0
7545 -6839 -6852 0
-7545 6839 0
-7545 6852 0
7546 -6769 -6807 0
-7546 6769 0
-7546 6807 0
7547 6866 -6875 -6838 0
7547 -6866 6875 -6838 0
-7547 6838 0
-7547 6866 6875 0
-7547 -6866 -6875 0
7548 7465 -7467 0
7548 -7465 7467 0
-7548 -7465 -7467 0
-7548 7465 7467 0
7549 -7545 -7550 0
7549 -7547 -7550 0
-7549 7550 0
-7549 7545 7547 0
-7550 6784 7546 0
7550 -6784 0
7550 -7546 0
-7551 7407 7552 0
-7551 -7407 -7552 0
7551 -7407 7552 0
7551 7407 -7552 0
-7552 7411 7413 0
-7552 -7411 -7413 0
7552 -7411 7413 0
7552 7411 -7413 0
-7553 7475 7554 0
-7553 -7475 -7554 0
7553 -7475 7554 0
7553 7475 -7554 0
-7554 7460 7468 0
-7554 -7460 -7468 0
7554 -7460 7468 0
7554 7460 -7468 0
-7555 7542 7551 0
7555 -7542 0
7555 -7551 0
7556 -7557 -7558 -7571 0
-7556 7557 0
-7556 7571 0
-7556 7558 0
7557 7539 -7541 0
7557 -7539 7541 7553 0
7557 -7539 7555 0
7557 7539 -7553 -7555 0
-7557 -7539 -7541 -7555 0
-7557 7539 7541 7555 0
-7557 7539 7541 7553 0
-7557 -7539 -7553 -7555 0
-7558 7559 7569 0
7558 -7559 0
7558 -7569 0
7559 -7560 -7567 0
7559 -7565 -7567 0
7559 -7560 -7565 0
-7559 7560 7565 0
-7559 7565 7567 0
-7559 7560 7567 0
-7560 7549 -7561 0
-7560 7543 7548 0
-7560 7548 -7561 0
7560 -7548 -7549 0
7560 -7543 7561 0
7560 -7548 7561 0
-7561 7550 7564 0
-7561 7545 7562 7564 0
7561 -7564 0
7561 -7545 -7550 0
7561 -7550 -7562 0
7562 -6865 -7563 0
-7562 6865 0
-7562 7563 0
7563 6839 -6852 0
7563 -6839 6852 0
-7563 -6839 -6852 0
-7563 6839 6852 0
7564 7465 -7467 -7562 0
7564 -7465 7467 -7544 0
7564 -7465 7467 -7562 0
7564 7465 -7467 -7544 0
-7564 -7465 -7467 0
-7564 7465 7467 0
-7564 7544 7562 0
-7565 -7473 -7566 0
-7565 7473 7566 0
7565 7473 -7566 0
7565 -7473 7566 0
7566 -7469 7471 0
7566 7469 -7471 0
-7566 7469 7471 0
-7566 -7469 -7471 0
-7567 6809 7568 0
-7567 -6769 -6783 6809 0
-7567 6769 6783 6809 0
7567 -6809 0
7567 -6769 6783 -7568 0
7567 6769 -6783 -7568 0
-7568 6815 6827 0
7568 -6815 0
7568 -6827 0
-7569 -7553 -7570 0
-7569 7553 7570 0
7569 7553 -7570 0
7569 -7553 7570 0
7570 7541 -7555 0
-7570 -7541 0
-7570 7555 0
-7571 7572 7573 0
7571 -7572 0
7571 -7573 0
7572 -7559 -7569 0
-7572 7559 0
-7572 7569 0
7573 -7574 -7576 0
-7573 7574 0
-7573 7576 0
-7574 6767 6835 0
-7574 7575 6836 6835 0
7574 -6835 0
7574 -6767 -7575 0
7574 -6767 -6836 0
-7575 6830 6883 0
7575 -6830 0
7575 -6883 0
7576 7560 -7577 0
7576 -7560 7577 0
-7576 -7560 -7577 0
-7576 7560 7577 0
7577 -7565 7578 0
7577 7565 -7578 0
-7577 7565 7578 0
-7577 -7565 -7578 0
-7578 6819 7579 0
-7578 6810 6828 7579 0
7578 -7579 0
7578 -6810 -6819 0
7578 -6819 -6828 0
7579 -6768 -6826 0
-7579 6768 0
-7579 6826 0
-7580 7456 7480 0
7580 -7456 0
7580 -7480 0
-7581 7582 -7630 0
-7581 7582 -7683 0
-7581 7582 7657 0
7581 -7582 0
7581 7630 -7657 7683 0
-7582 7583 7623 7624 0
7582 -7583 0
7582 -7624 0
7582 -7623 0
-7583 7584 7619 0
7583 -7584 0
7583 -7619 0
7584 7585 -7614 0
-7584 -7585 0
-7584 7614 0
7585 -7586 7597 0
7585 7586 -7597 0
-7585 7586 7597 0
-7585 -7586 -7597 0
-7586 -7587 -7588 0
-7586 7587 7588 0
7586 7587 -7588 0
7586 -7587 7588 0
-7587 87 6475 0
-7587 8428 87 0
7587 -87 0
7587 -8428 -6475 0
7588 -7590 7591 0
7588 -7589 -7590 0
7588 -7589 7591 0
-7588 7589 7590 0
-7588 7590 -7591 0
-7588 7589 -7591 0
7589 -7524 -7532 0
-7589 7524 0
-7589 7532 0
-7590 7518 7520 0
7590 -7518 0
7590 -7520 0
7591 7592 -7594 0
7591 -7592 7594 0
-7591 -7592 -7594 0
-7591 7592 7594 0
-7592 8432 7593 0
-7592 -8432 -7593 0
7592 -8432 7593 0
7592 8432 -7593 0
-7593 108 6497 0
-7593 8424 108 0
7593 -108 0
7593 -8424 -6497 0
7594 -8444 7595 0
7594 8444 -7595 0
-7594 8444 7595 0
-7594 -8444 -7595 0
-7595 8438 7596 0
-7595 -8438 -7596 0
7595 -8438 7596 0
7595 8438 -7596 0
-7596 105 6503 0
-7596 8421 105 0
7596 -105 0
7596 -8421 -6503 0
-7597 7598 7605 0
-7597 -7598 -7605 0
7597 -7598 7605 0
7597 7598 -7605 0
7598 -7599 7601 0
7598 7599 -7601 0
-7598 7599 7601 0
-7598 -7599 -7601 0
7599 -8420 7600 0
7599 8420 -7600 0
-7599 8420 7600 0
-7599 -8420 -7600 0
-7600 77 6509 0
-7600 8419 77 0
7600 -77 0
7600 -8419 -6509 0
-7601 7602 7604 0
-7601 -7602 -7604 0
7601 -7602 7604 0
7601 7602 -7604 0
7602 -8432 7603 0
7602 8432 -7603 0
-7602 8432 7603 0
-7602 -8432 -7603 0
-7603 85 6497 0
-7603 8423 85 0
7603 -85 0
7603 -8423 -6497 0
-7604 8438 82 0
-7604 8421 8438 0
-7604 -8421 -8438 81 0
7604 -8438 -81 0
7604 -8421 8438 -82 0
7604 8421 -8438 0
-7605 7606 7613 0
-7605 -7606 -7613 0
7605 -7606 7613 0
7605 7606 -7613 0
-7606 7607 7612 0
-7606 7607 7611 0
7606 -7607 0
7606 -7611 -7612 0
7607 -7608 -7610 0
-7607 7608 0
-7607 7610 0
7608 -8420 7609 0
7608 8420 -7609 0
-7608 8420 7609 0
-7608 -8420 -7609 0
-7609 115 6509 0
-7609 8442 115 0
7609 -115 0
7609 -8442 -6509 0
-7610 112 6475 0
-7610 8412 112 0
7610 -112 0
7610 -8412 -6475 0
7611 -7528 -7531 0
7611 -7525 -7528 0
7611 -7525 -7531 0
-7611 7525 7528 0
-7611 7528 7531 0
-7611 7525 7531 0
7612 -7608 7610 0
7612 7608 -7610 0
-7612 7608 7610 0
-7612 -7608 -7610 0
-7613 -8444 7595 0
-7613 7595 7592 0
-7613 -8444 7592 0
7613 8444 -7592 0
7613 -7595 -7592 0
7613 8444 -7595 0
-7614 7617 7618 0
-7614 -7615 7618 0
-7614 -7615 7617 0
7614 7615 -7618 0
7614 7615 -7617 0
7614 -7617 -7618 0
-7615 7591 7616 0
-7615 -7591 -7616 0
7615 -7591 7616 0
7615 7591 -7616 0
-7616 7589 7590 0
-7616 -7589 -7590 0
7616 -7589 7590 0
7616 7589 -7590 0
-7617 -7611 -7612 0
-7617 7611 7612 0
7617 7611 -7612 0
7617 -7611 7612 0
7618 -7514 -7516 0
7618 -7516 7517 0
7618 -7514 7517 0
-7618 7514 -7517 0
-7618 7516 -7517 0
-7618 7514 7516 0
7619 7620 -7622 0
-7619 -7620 0
-7619 7622 0
-7620 7615 7621 0
-7620 -7615 -7621 0
7620 -7615 7621 0
7620 7615 -7621 0
-7621 -7617 -7618 0
-7621 7617 7618 0
7621 7617 -7618 0
7621 -7617 7618 0
7622 7513 -7536 0
7622 -7522 -7536 0
-7622 7536 0
-7622 -7513 7522 0
7623 -7511 7512 0
-7623 7511 0
-7623 -7512 0
7624 -7625 7628 0
-7624 7625 0
-7624 -7628 0
-7625 7626 7627 0
7625 -7626 0
7625 -7627 0
7626 -7212 7353 0
-7626 7212 0
-7626 -7353 0
7627 -7484 7486 0
-7627 7484 0
-7627 -7486 0
-7628 7510 7629 0
7628 -7510 0
7628 -7629 0
7629 7484 -7486 0
-7629 -7484 0
-7629 7486 0
7630 7631 -7651 0
-7630 -7631 0
-7630 7651 0
-7631 -7632 7637 0
-7631 7637 7643 0
-7631 -7632 7643 0
7631 7632 -7643 0
7631 -7637 -7643 0
7631 7632 -7637 0
7632 7633 -7634 0
7632 -7633 7634 0
-7632 -7633 -7634 0
-7632 7633 7634 0
-7633 31 6475 0
-7633 8424 31 0
7633 -31 0
7633 -8424 -6475 0
7634 -8432 7635 0
7634 8432 -7635 0
-7634 8432 7635 0
-7634 -8432 -7635 0
-7635 8420 7636 0
-7635 -8420 -7636 0
7635 -8420 7636 0
7635 8420 -7636 0
-7636 29 6509 0
-7636 8421 29 0
7636 -29 0
7636 -8421 -6509 0
-7637 7638 7639 0
-7637 7639 7640 0
-7637 7638 7640 0
7637 -7638 -7640 0
7637 -7639 -7640 0
7637 -7638 -7639 0
-7638 51 6475 0
-7638 8419 51 0
7638 -51 0
7638 -8419 -6475 0
-7639 8432 46 0
-7639 8421 8432 0
-7639 -8421 -8432 44 0
7639 -8432 -44 0
7639 -8421 8432 -46 0
7639 8421 -8432 0
-7640 -8420 -49 0
-7640 -8420 -7641 0
-7640 8420 7641 7642 0
7640 8420 -7641 0
7640 -8420 49 7641 0
7640 8420 -7642 0
7641 -8423 -6509 0
-7641 8423 0
-7641 6509 0
7642 -8424 -19 0
-7642 8424 0
-7642 19 0
-7643 7644 7646 0
7643 -7644 0
7643 -7646 0
-7644 7638 7645 0
-7644 -7638 -7645 0
7644 -7638 7645 0
7644 7638 -7645 0
-7645 7639 7640 0
-7645 -7639 -7640 0
7645 -7639 7640 0
7645 7639 -7640 0
7646 8438 -7649 0
7646 -7647 -7649 0
7646 8438 -7647 0
-7646 -8438 7647 0
-7646 7647 7649 0
-7646 -8438 7649 0
-7647 8432 7648 0
-7647 -8432 -7648 0
7647 -8432 7648 0
7647 8432 -7648 0
-7648 57 6497 0
-7648 8421 57 0
7648 -57 0
7648 -8421 -6497 0
-7649 8420 7650 0
-7649 -8420 -7650 0
7649 -8420 7650 0
7649 8420 -7650 0
-7650 60 6509 0
-7650 8424 60 0
7650 -60 0
7650 -8424 -6509 0
7651 -7652 7656 0
7651 7652 -7656 0
-7651 7652 7656 0
-7651 -7652 -7656 0
7652 -7653 7654 0
7652 7653 -7654 0
-7652 7653 7654 0
-7652 -7653 -7654 0
-7653 8420 19 0
-7653 -8420 -8421 18 0
-7653 8420 8421 0
7653 -8420 8421 0
7653 8420 -8421 -19 0
7653 -8420 -18 0
-7654 8424 7655 0
-7654 8 7655 0
7654 -7655 0
7654 -8424 -8 0
7655 -8423 -6475 0
-7655 8423 0
-7655 6475 0
-7656 -8432 7633 0
-7656 7633 7635 0
-7656 -8432 7635 0
7656 8432 -7635 0
7656 -7633 -7635 0
7656 8432 -7633 0
-7657 7658 7682 0
7657 -7658 0
7657 -7682 0
7658 -7659 7679 0
7658 -7671 7679 0
7658 -7675 7679 0
-7658 -7679 0
-7658 7659 7671 7675 0
7659 7660 -7665 7670 0
7659 7660 -7668 7670 0
-7659 -7660 0
-7659 -7670 0
-7659 7665 7668 0
-7660 7661 7664 0
-7660 -7661 -7664 0
7660 -7661 7664 0
7660 7661 -7664 0
7661 -7587 -7663 0
7661 -7662 -7587 0
7661 -7662 -7663 0
-7661 7662 7587 0
-7661 7587 7663 0
-7661 7662 7663 0
-7662 73 6475 0
-7662 8442 73 0
7662 -73 0
7662 -8442 -6475 0
7663 -7602 -7599 0
7663 -7602 -7604 0
7663 -7604 -7599 0
-7663 7604 7599 0
-7663 7602 7599 0
-7663 7602 7604 0
-7664 -7644 -7646 0
-7664 7644 7646 0
7664 7644 -7646 0
7664 -7644 7646 0
-7665 7598 7613 0
-7665 7598 7606 0
-7665 -7666 0
-7665 7606 7613 0
7665 7666 -7598 -7613 0
7665 7666 -7606 -7613 0
7665 7666 -7598 -7606 0
-7666 7649 7667 0
-7666 -7649 -7667 0
7666 -7649 7667 0
7666 7649 -7667 0
-7667 8438 7647 0
-7667 -8438 -7647 0
7667 -8438 7647 0
7667 8438 -7647 0
7668 -7663 7669 0
7668 7663 -7669 0
-7668 7663 7669 0
-7668 -7663 -7669 0
-7669 7662 7587 0
-7669 -7662 -7587 0
7669 -7662 7587 0
7669 7662 -7587 0
7670 -7666 7598 7613 0
7670 -7666 7606 7613 0
7670 -7666 7598 7606 0
-7670 -7598 -7606 0
-7670 -7606 -7613 0
-7670 7666 0
-7670 -7598 -7613 0
7671 7672 -7674 0
-7671 -7672 0
-7671 7674 0
7672 -7668 7673 0
7672 7668 -7673 0
-7672 7668 7673 0
-7672 -7668 -7673 0
-7673 7665 7670 0
7673 -7665 0
7673 -7670 0
-7674 7588 7597 0
-7674 -7587 7588 0
-7674 -7587 7597 0
7674 7587 -7588 0
7674 -7588 -7597 0
7674 7587 -7597 0
7675 -7676 7677 0
-7675 7676 0
-7675 -7677 0
7676 -7661 7664 0
-7676 7661 0
-7676 -7664 0
7677 -7632 7678 0
7677 7632 -7678 0
-7677 7632 7678 0
-7677 -7632 -7678 0
-7678 7637 7643 0
-7678 -7637 -7643 0
7678 -7637 7643 0
7678 7637 -7643 0
-7679 -7675 7681 0
-7679 7680 7681 0
7679 -7681 0
7679 -7680 7675 0
7680 -7660 7665 -7670 0
7680 -7660 7665 7668 0
-7680 7660 0
-7680 -7665 0
-7680 -7668 7670 0
7681 7676 -7677 0
-7681 -7676 0
-7681 7677 0
7682 -7631 7651 0
-7682 7631 0
-7682 -7651 0
7683 7684 -7685 0
-7683 -7684 0
-7683 7685 0
7684 7652 -7656 0
-7684 -7652 0
-7684 7656 0
7685 -7686 7687 0
7685 7686 -7687 0
-7685 7686 7687 0
-7685 -7686 -7687 0
-7686 7653 7654 0
7686 -7653 0
7686 -7654 0
-7687 -8421 8422 0
-7687 8420 8421 0
-7687 -8420 -8422 -8423 0
7687 8420 -8421 -8422 0
7687 -8420 -8422 8423 0
7687 -8420 8421 8422 0
-7688 -7581 7695 0
-7688 7209 7695 0
-7688 -7689 7695 0
7688 -7695 0
7688 7689 -7209 7581 0
7689 -7690 -7692 0
-7689 7690 0
-7689 7692 0
7690 -7691 7453 0
-7690 7691 0
-7690 -7453 0
7691 -7557 7210 0
-7691 7557 0
-7691 -7210 0
7692 -7693 -7694 0
-7692 7693 0
-7692 7694 0
-7693 -7574 -7576 0
-7693 7574 7576 0
7693 7574 -7576 0
7693 -7574 7576 0
7694 -7558 7572 0
-7694 7558 0
-7694 -7572 0
-7695 7683 7696 0
7695 -7683 0
7695 -7696 0
-7696 7630 7697 0
-7696 7630 -7657 0
7696 -7630 0
7696 -7697 7657 0
-7697 7698 7699 7702 0
7697 -7698 0
7697 -7699 0
7697 -7702 0
-7698 7675 7681 0
7698 -7675 0
7698 -7681 0
-7699 7700 7701 0
7699 -7700 0
7699 -7701 0
-7700 7659 7680 0
7700 -7659 0
7700 -7680 0
7701 -7672 7674 0
7701 7672 -7674 0
-7701 7672 7674 0
-7701 -7672 -7674 0
-7702 -7584 7704 0
-7702 7703 7704 0
7702 -7704 0
7702 -7703 7584 0
7703 -7620 7622 0
-7703 7620 0
-7703 -7622 0
7704 -7585 7614 0
-7704 7585 0
-7704 -7614 0
7705 -7687 -7706 0
7705 7686 -7706 0
7705 7 -7706 0
-7705 7706 0
-7705 -7 -7686 7687 0
-7706 -7707 7708 0
-7706 7653 7655 7708 0
7706 -7708 0
7706 -7655 7707 0
7706 -7653 7707 0
7707 -8420 -8422 8423 0
7707 -8420 8421 8422 0
-7707 8420 0
-7707 -8421 8422 0
-7707 -8422 -8423 0
7708 -8421 -8422 0
-7708 8421 0
-7708 8422 0
7709 7682 7710 -7711 -7714 0
-7709 -7682 0
-7709 7714 0
-7709 7711 0
-7709 -7710 0
7710 -7689 -6443 0
-7710 7689 0
-7710 6443 0
7711 -7209 7712 0
-7711 7209 0
-7711 -7712 0
-7712 7583 7713 7658 0
7712 -7583 0
7712 -7713 0
7712 -7658 0
-7713 7623 7624 0
7713 -7623 0
7713 -7624 0
7714 -7705 7715 0
-7714 7705 0
-7714 -7715 0
7715 -7684 7685 0
-7715 7684 0
-7715 -7685 0
-7716 7695 -7705 0
-7716 7705 7715 0
-7716 -7705 -7715 0
7716 7705 -7715 0
7716 -7695 -7705 7715 0
-7717 7718 7887 8358 0
-7717 7887 8354 8358 0
7717 -8358 0
7717 -7887 0
7717 -7718 -8354 0
7718 -7719 -7859 -7863 -7882 0
-7718 7882 0
-7718 7863 0
-7718 7719 0
-7718 7859 0
7719 -7720 7775 -7794 -7816 0
7719 -7720 -7775 7794 -7816 0
-7719 7816 0
-7719 -7775 -7794 0
-7719 7720 0
-7719 7775 7794 0
-7720 -7721 -7749 0
-7720 7721 7749 0
7720 7721 -7749 0
7720 -7721 7749 0
7721 -7734 -7745 0
7721 -7722 -7734 0
7721 -7722 -7745 0
-7721 7722 7734 0
-7721 7734 7745 0
-7721 7722 7745 0
-7722 7723 7729 0
7722 -7723 0
7722 -7729 0
7723 -7724 0
7723 7689 -7728 0
7723 6443 -7728 0
-7723 7724 7728 0
-7723 7724 -7689 -6443 0
-7724 7699 7726 0
-7724 7725 -7698 7726 0
-7724 -7725 7698 7726 0
7724 -7726 0
7724 7725 7698 -7699 0
7724 -7725 -7698 -7699 0
7725 -7659 7680 0
7725 -7671 7680 0
-7725 -7680 0
-7725 7659 7671 0
7726 -7702 7727 0
-7726 7702 0
-7726 -7727 0
-7727 7659 7671 7698 0
7727 -7698 0
7727 -7671 0
7727 -7659 0
7728 7727 -7209 7582 0
-7728 -7727 0
-7728 7209 0
-7728 -7582 0
-7729 7730 0
-7729 7689 -7733 0
-7729 6443 -7733 0
7729 -7730 7733 0
7729 -7689 -6443 -7730 0
7730 -7698 7731 0
-7730 7698 0
-7730 -7731 0
-7731 7700 7732 0
7731 -7700 0
7731 -7732 0
-7732 7701 7702 0
7732 -7701 0
7732 -7702 0
7733 -7209 7582 0
-7733 7209 0
-7733 -7582 0
-7734 7735 7741 0
7734 -7735 0
7734 -7741 0
7735 -7736 0
7735 5228 -7740 0
7735 5795 -7740 0
-7735 7736 7740 0
-7735 7736 -5228 -5795 0
-7736 6427 7738 0
-7736 -6426 7737 7738 0
-7736 6426 -7737 7738 0
7736 -7738 0
7736 -6426 -7737 -6427 0
7736 6426 7737 -6427 0
7737 -6406 6421 0
7737 -6417 6421 0
-7737 -6421 0
-7737 6406 6417 0
7738 -6430 7739 0
-7738 6430 0
-7738 -7739 0
-7739 6426 6406 6417 0
7739 -6426 0
7739 -6417 0
7739 -6406 0
7740 7739 -6340 6439 0
-7740 -7739 0
-7740 6340 0
-7740 -6439 0
-7741 7742 0
-7741 5228 -7744 0
-7741 5795 -7744 0
7741 -7742 7744 0
7741 -5228 -5795 -7742 0
7742 -6426 7743 0
-7742 6426 0
-7742 -7743 0
-7743 6427 6430 0
7743 -6427 0
7743 -6430 0
7744 -6340 6439 0
-7744 6340 0
-7744 -6439 0
7745 -7747 7748 0
7745 -3981 7746 7748 0
-7745 -7748 0
-7745 3981 7747 0
-7745 -7746 7747 0
-7746 5140 5152 0
7746 -5140 0
7746 -5152 0
7747 -5140 5153 0
7747 5140 -5153 0
-7747 5140 5153 0
-7747 -5140 -5153 0
7748 3982 -5124 5152 -5153 0
-7748 5124 0
-7748 5153 0
-7748 -3982 0
-7748 -5152 0
7749 -7750 7752 0
7749 7750 -7752 0
-7749 7750 7752 0
-7749 -7750 -7752 0
7750 3981 -7751 5139 0
7750 -3981 5176 7751 0
7750 -5176 -7751 0
7750 5176 7751 -5139 0
-7750 -3981 5176 -7751 0
-7750 3981 7751 5139 0
-7750 -5176 7751 0
-7750 5176 -7751 -5139 0
-7751 5177 5165 0
7751 -5177 0
7751 -5165 0
-7752 -7753 -7766 0
-7752 7753 7766 0
7752 7753 -7766 0
7752 -7753 7766 0
7753 -7756 -7763 0
7753 6443 7754 -7763 0
-7753 7763 0
-7753 -7754 7756 0
-7753 -6443 7756 0
7754 -7209 7712 -7755 0
-7754 7209 0
-7754 -7712 0
-7754 7755 0
-7755 7630 7682 0
7755 -7630 0
7755 -7682 0
7756 -7757 -7761 0
7756 7689 -7757 0
-7756 7757 0
-7756 -7689 7761 0
-7757 7200 7760 0
-7757 7200 7758 0
-7757 6764 7200 0
7757 -7200 0
7757 -6764 -7758 -7760 0
7758 -6445 -7759 0
-7758 6445 0
-7758 7759 0
7759 -6675 -6756 0
-7759 6675 0
-7759 6756 0
7760 -7184 -7197 0
7760 -7180 -7197 0
7760 -6895 -7197 0
-7760 7197 0
-7760 6895 7180 7184 0
-7761 7755 7762 0
7761 -7755 0
7761 -7762 0
7762 7658 -7697 0
-7762 -7658 0
-7762 7697 0
7763 7754 -7764 0
7763 -7764 -7765 0
-7763 7764 0
-7763 -7754 7765 0
7764 -7755 7762 0
7764 7755 -7762 0
7764 -7209 7712 7755 0
-7764 -7755 -7762 0
-7764 7209 7755 7762 0
-7764 -7712 7755 7762 0
7765 -7691 7453 -7692 0
-7765 7691 0
-7765 -7453 0
-7765 7692 0
7766 7767 7769 -7774 0
7766 7769 7773 -7774 0
-7766 7774 0
-7766 -7769 0
-7766 -7767 -7773 0
7767 -7768 6351 0
-7767 7768 0
-7767 -6351 0
-7768 6435 5201 0
7768 -6435 0
7768 -5201 0
7769 -5795 -7770 0
7769 5795 -6340 -7767 0
-7769 5795 6340 0
-7769 -5795 7770 0
-7769 5795 7767 0
7770 -5228 7771 0
-7770 5228 0
-7770 -7771 0
-7771 7772 7768 0
7771 -7772 0
7771 -7768 0
7772 -6425 6398 0
-7772 6425 0
-7772 -6398 0
7773 5228 -6340 0
-7773 -5228 0
-7773 6340 0
7774 -7772 7768 0
7774 7772 -7768 0
7774 -6340 7768 6351 0
-7774 -7772 -7768 0
-7774 6340 7772 7768 0
-7774 7772 7768 -6351 0
7775 -7776 7777 0
7775 7776 -7777 0
-7775 7776 7777 0
-7775 -7776 -7777 0
7776 -3981 7746 0
7776 3981 -7746 0
-7776 3981 7746 0
-7776 -3981 -7746 0
-7777 -7778 -7786 0
-7777 7778 7786 0
7777 7778 -7786 0
7777 -7778 7786 0
7778 7784 -7785 0
7778 -5795 -7779 -7785 0
-7778 7785 0
-7778 5795 -7784 0
-7778 7779 -7784 0
7779 -5229 -5665 7780 0
-7779 5229 0
-7779 5665 0
-7779 -7780 0
7780 -7781 -7783 0
-7780 7781 0
-7780 7783 0
-7781 6430 7782 0
7781 -6430 0
7781 -7782 0
7782 -6407 6415 0
7782 6407 -6415 0
-7782 6407 6415 0
-7782 -6407 -6415 0
-7783 6406 6429 0
-7783 -6406 -6429 0
7783 -6406 6429 0
7783 6406 -6429 0
-7784 -6439 7780 0
-7784 6340 7780 0
-7784 7783 7780 0
7784 -7780 0
7784 -6340 6439 -7783 0
7785 -7743 0
7785 5228 -7744 0
7785 5795 -7744 0
-7785 7743 7744 0
-7785 -5228 -5795 7743 0
7786 7787 7790 -7791 0
7786 -7757 7790 -7791 0
-7786 7791 0
-7786 -7790 0
-7786 7757 -7787 0
7787 -7209 7788 -7789 0
-7787 7209 0
-7787 -7788 0
-7787 7789 0
-7788 7583 7713 0
7788 -7583 0
7788 -7713 0
-7789 7671 7700 0
-7789 -7671 -7700 0
7789 -7671 7700 0
7789 7671 -7700 0
7790 -7689 -6443 7731 0
-7790 7689 0
-7790 6443 0
-7790 -7731 0
7791 -7765 -7792 0
7791 7787 -7792 0
-7791 7792 0
-7791 7765 -7787 0
-7792 -7671 7700 7793 0
-7792 7671 -7700 -7732 7793 0
-7792 7700 7732 7793 0
7792 -7671 -7700 0
7792 -7700 7732 0
7792 -7793 0
7792 7671 7700 -7732 0
7793 -7209 7732 7788 0
7793 -7209 7788 7789 0
-7793 7209 0
-7793 -7788 0
-7793 -7732 -7789 0
7794 -7795 -7810 0
7794 -7803 -7810 0
7794 -7795 -7803 0
-7794 7795 7803 0
-7794 7803 7810 0
-7794 7795 7810 0
-7795 -6443 7796 7800 0
-7795 6443 7796 7802 0
7795 -7796 0
7795 6443 -7802 0
7795 -6443 -7800 0
-7796 7209 7797 0
-7796 7797 -7799 0
-7796 -7689 7797 0
7796 -7797 0
7796 7689 -7209 7799 0
7797 -7702 7798 0
7797 7702 7209 -7798 0
7797 7702 -7788 -7798 0
-7797 7702 7798 0
-7797 -7702 -7798 0
-7797 7702 -7209 7788 0
-7798 7672 7674 0
-7798 -7672 -7674 0
7798 -7672 7674 0
7798 7672 -7674 0
-7799 7701 7788 0
7799 -7701 0
7799 -7788 0
7800 -7765 -7801 0
-7800 7765 0
-7800 7801 0
7801 7702 -7798 0
-7801 -7702 0
-7801 7798 0
7802 -7209 7799 0
-7802 7209 0
-7802 -7799 0
-7803 -7804 7805 7808 0
-7803 7773 7805 7808 0
7803 -7808 0
7803 -7805 0
7803 -7773 7804 0
-7804 6428 6439 0
7804 -6428 0
7804 -6439 0
7805 -5795 -7806 0
7805 5795 -6340 7804 0
-7805 5795 6340 0
-7805 -5795 7806 0
-7805 5795 -7804 0
7806 -5228 -7807 0
-7806 5228 0
-7806 7807 0
7807 6430 -7782 0
-7807 -6430 0
-7807 7782 0
-7808 7807 7809 0
-7808 -6340 6439 7809 0
7808 -7809 0
7808 6340 -7807 0
7808 -6439 -7807 0
7809 6428 -6430 0
-7809 -6428 0
-7809 6430 0
-7810 7811 7812 0
-7810 -7811 -7812 0
7810 -7811 7812 0
7810 7811 -7812 0
-7811 5106 5123 0
7811 -5106 0
7811 -5123 0
-7812 5065 5105 -7815 0
-7812 5065 5105 7813 0
7812 -5065 0
7812 -5105 0
7812 -7813 7815 0
7813 5134 5137 -7814 0
-7813 -5134 0
-7813 -5137 0
-7813 7814 0
-7814 4898 5125 0
7814 -4898 0
7814 -5125 0
7815 -3983 -4757 0
-7815 3983 0
-7815 4757 0
-7816 7855 7857 0
-7816 7817 7841 7855 0
-7816 7817 7841 7857 0
7816 -7841 -7857 0
7816 -7817 -7855 0
7816 -7817 -7857 0
7816 -7855 -7857 0
7816 -7841 -7855 0
7817 -7818 7824 0
7817 7818 -7824 0
-7817 7818 7824 0
-7817 -7818 -7824 0
-7818 -7815 7820 7823 0
-7818 7819 7820 7823 0
7818 -7823 0
7818 -7820 0
7818 7815 -7819 0
7819 5105 -7813 0
-7819 -5105 0
-7819 7813 0
7820 5066 7821 -7822 0
-7820 -5066 0
-7820 7822 0
-7820 -7821 0
7821 -7814 7815 0
-7821 7814 0
-7821 -7815 0
-7822 5087 5105 0
7822 -5087 0
7822 -5105 0
7823 -5066 7822 0
7823 -5138 -7822 0
7823 5066 -5134 -7822 0
-7823 5066 7822 0
-7823 -5066 5138 -7822 0
-7823 5066 5134 5138 0
-7824 7825 7833 0
-7824 -7825 -7833 0
7824 -7825 7833 0
7824 7825 -7833 0
-7825 7829 7830 0
-7825 -7757 -7826 7830 0
7825 -7830 0
7825 7757 -7829 0
7825 7826 -7829 0
7826 -7690 -7692 7827 0
-7826 7690 0
-7826 7692 0
-7826 -7827 0
-7827 7619 -7828 0
-7827 7703 7828 0
7827 -7619 -7828 0
7827 -7703 7828 0
-7828 7584 7704 0
7828 -7584 0
7828 -7704 0
-7829 -7788 7827 0
-7829 7209 7827 0
-7829 -7704 7827 0
7829 -7827 0
7829 7704 -7209 7788 0
-7830 7831 0
-7830 7689 -7832 0
-7830 6443 -7832 0
7830 -7831 7832 0
7830 -7689 -6443 -7831 0
7831 7703 -7828 0
-7831 -7703 0
-7831 7828 0
7832 -7209 7713 0
-7832 7209 0
-7832 -7713 0
-7833 7834 7838 0
7833 -7834 0
7833 -7838 0
7834 -7835 0
7834 5228 -7837 0
7834 5795 -7837 0
-7834 7835 7837 0
-7834 -5228 -5795 7835 0
7835 -6395 -7836 0
7835 -6432 7836 0
-7835 6395 -7836 0
-7835 6432 7836 0
-7836 6431 6358 0
7836 -6431 0
7836 -6358 0
7837 6431 -6340 6439 0
-7837 -6439 0
-7837 6340 0
-7837 -6431 0
-7838 7839 0
-7838 5228 -7840 0
-7838 5795 -7840 0
7838 -7839 7840 0
7838 -5228 -5795 -7839 0
7839 6432 -7836 0
-7839 -6432 0
-7839 7836 0
7840 -6340 6352 0
-7840 6340 0
-7840 -6352 0
-7841 7842 7847 0
-7841 7847 7852 0
-7841 7842 7852 0
7841 -7847 -7852 0
7841 -7842 -7847 0
7841 -7842 -7852 0
-7842 -6443 7843 7846 0
-7842 6443 7845 7846 0
7842 -7846 0
7842 -6443 -7843 0
7842 6443 -7845 0
7843 -7690 -7692 -7844 0
-7843 7690 0
-7843 7692 0
-7843 7844 0
-7844 7703 7619 0
7844 -7703 0
7844 -7619 0
7845 -7209 7713 7844 0
-7845 -7844 0
-7845 -7713 0
-7845 7209 0
-7846 7209 7844 0
-7846 -7765 7844 0
-7846 -7713 7844 0
-7846 -7209 7713 -7844 0
7846 -7713 -7844 0
7846 7209 -7844 0
7846 -7209 7713 7765 7844 0
-7847 -5795 7850 7851 0
-7847 5795 7848 7851 0
7847 -7851 0
7847 -5795 -7850 0
7847 5795 -7848 0
7848 -6340 6352 7849 0
-7848 -7849 0
-7848 -6352 0
-7848 6340 0
-7849 6432 6395 0
7849 -6432 0
7849 -6395 0
7850 -5228 -7849 0
-7850 5228 0
-7850 7849 0
-7851 -5228 7849 0
-7851 6340 7849 0
-7851 -6352 7849 0
-7851 -6340 6352 -7849 0
7851 -6352 -7849 0
7851 6340 -7849 0
7851 5228 -6340 6352 7849 0
7852 7853 -7854 0
7852 -7853 7854 0
-7852 -7853 -7854 0
-7852 7853 7854 0
-7853 5066 5138 0
7853 -5066 0
7853 -5138 0
7854 5134 -7821 0
-7854 -5134 0
-7854 7821 0
-7855 7810 7856 0
-7855 -7810 -7856 0
7855 -7810 7856 0
7855 7810 -7856 0
-7856 7795 7803 0
-7856 -7795 -7803 0
7856 -7795 7803 0
7856 7795 -7803 0
-7857 7825 7858 0
-7857 7833 7858 0
7857 -7858 0
7857 -7825 -7833 0
7858 -7818 -7824 0
-7858 7818 0
-7858 7824 0
-7859 -7860 -7861 0
-7859 7860 7861 0
7859 7860 -7861 0
7859 -7860 7861 0
-7860 7776 7786 0
-7860 7778 7786 0
-7860 7776 7778 0
7860 -7776 -7778 0
7860 -7778 -7786 0
7860 -7776 -7786 0
7861 7745 -7862 0
7861 -7745 7862 0
-7861 -7745 -7862 0
-7861 7745 7862 0
7862 -7722 7734 0
7862 7722 -7734 0
-7862 7722 7734 0
-7862 -7722 -7734 0
-7863 7864 7866 0
7863 -7864 0
7863 -7866 0
-7864 -3968 -7865 0
-7864 3968 7865 0
7864 3968 -7865 0
7864 -3968 7865 0
7865 5179 -6441 0
7865 -5179 6441 0
-7865 -5179 -6441 0
-7865 5179 6441 0
7866 -7867 -7874 0
7866 -7874 -7877 0
7866 -7867 -7877 0
-7866 7867 7877 0
-7866 7874 7877 0
-7866 7867 7874 0
7867 -7868 7871 0
7867 5165 -5178 7871 0
-7867 -7871 0
-7867 -5165 7868 0
-7867 5178 7868 0
7868 -3980 5174 7869 0
-7868 3980 0
-7868 -7869 0
-7868 -5174 0
7869 -5165 -7870 0
-7869 5165 0
-7869 7870 0
-7870 5171 5178 0
7870 -5171 0
7870 -5178 0
7871 -7872 -7873 0
-7871 7872 0
-7871 7873 0
-7872 3981 5139 0
7872 -3981 0
7872 -5139 0
7873 5175 -7870 0
-7873 -5175 0
-7873 7870 0
7874 7696 -6442 7876 0
7874 -6442 7875 7876 0
-7874 -7876 0
-7874 6442 0
-7874 -7696 -7875 0
-7875 7683 7715 0
7875 -7683 0
7875 -7715 0
7876 7682 7710 -7711 -7875 0
-7876 -7682 0
-7876 7875 0
-7876 7711 0
-7876 -7710 0
7877 -5227 -7878 0
7877 6339 -7878 0
7877 -7878 7881 0
-7877 7878 0
-7877 5227 -6339 -7881 0
7878 -7879 7880 0
7878 6435 6424 -7879 0
-7878 7879 0
-7878 -6435 -7880 0
-7878 -6424 -7880 0
-7879 6437 6440 0
7879 -6437 0
7879 -6440 0
-7880 5191 6436 0
7880 -5191 0
7880 -6436 0
7881 5201 -7880 0
-7881 -5201 0
-7881 7880 0
-7882 7883 7884 7886 0
7882 -7886 0
7882 -7884 0
7882 -7883 0
7883 -7864 -7866 0
-7883 7864 0
-7883 7866 0
-7884 7867 7885 0
-7884 -7867 -7885 0
7884 -7867 7885 0
7884 7867 -7885 0
-7885 -7874 -7877 0
-7885 7874 7877 0
7885 7874 -7877 0
7885 -7874 7877 0
-7886 7750 7766 0
-7886 7753 7766 0
-7886 7750 7753 0
7886 -7750 -7753 0
7886 -7753 -7766 0
7886 -7750 -7766 0
7887 -7718 -7888 -7999 -8004 0
-7887 7999 0
-7887 8004 0
-7887 7718 0
-7887 7888 0
7888 -7889 -7963 -7987 0
7888 -7889 -7963 -7965 0
7888 -7889 -7965 -7987 0
-7888 7963 7965 0
-7888 7963 7987 0
-7888 7889 0
-7888 7965 7987 0
7889 -7910 7938 -7962 0
7889 -7890 7938 -7962 0
-7889 -7938 0
-7889 7962 0
-7889 7890 7910 0
-7890 7891 7906 0
-7890 7897 7906 0
-7890 7891 7897 0
7890 -7891 -7897 0
7890 -7897 -7906 0
7890 -7891 -7906 0
7891 -7211 7895 7896 0
7891 7211 -7895 7896 0
7891 -7211 -7892 7896 0
-7891 -7896 0
-7891 7211 7895 0
-7891 -7211 7892 -7895 0
7892 -7757 -7893 0
-7892 7757 0
-7892 7893 0
7893 -7557 -7692 7894 0
-7893 7557 0
-7893 7692 0
-7893 -7894 0
-7894 7400 7454 0
7894 -7400 0
7894 -7454 0
-7895 7537 7894 0
7895 -7537 0
7895 -7894 0
7896 7211 -6443 -7893 0
-7896 7893 0
-7896 6443 0
-7896 -7211 0
7897 5478 -7898 0
7897 -7898 7903 0
7897 -7898 -7904 0
-7897 7898 0
-7897 -5478 -7903 7904 0
7898 7899 -7902 0
7898 -5478 -7902 0
7898 5795 -7902 0
-7898 7902 0
-7898 5478 -5795 -7899 0
7899 -7900 7901 0
-7899 7900 0
-7899 -7901 0
7900 -5230 -5665 0
-7900 5230 0
-7900 5665 0
-7901 5591 5602 0
7901 -5591 0
7901 -5602 0
-7902 5478 6341 7901 0
7902 -7901 0
7902 -6341 0
7902 -5478 0
-7903 6341 7901 0
7903 -6341 0
7903 -7901 0
7904 -5795 -7905 0
-7904 5795 0
-7904 7905 0
7905 -5230 -5665 7901 0
-7905 -7901 0
-7905 5665 0
-7905 5230 0
7906 -7907 7908 0
7906 7907 -7908 0
-7906 7907 7908 0
-7906 -7907 -7908 0
-7907 5031 5039 0
7907 -5031 0
7907 -5039 0
-7908 4899 7909 0
7908 -4899 0
7908 -7909 0
7909 3983 -5125 0
7909 4758 -5125 0
-7909 5125 0
-7909 -3983 -4758 0
-7910 7911 7925 0
-7910 -7911 -7925 0
7910 -7911 7925 0
7910 7911 -7925 0
-7911 5031 7912 7924 0
-7911 4978 -5031 7912 0
-7911 -4978 5031 7912 0
7911 -7912 0
7911 -4978 -5031 0
7911 4978 5031 -7924 0
7912 -4978 5125 7923 0
7912 -4978 -7913 7923 0
-7912 4978 0
-7912 -7923 0
-7912 -5125 7913 0
7913 -4758 -7914 0
-7913 4758 0
-7913 7914 0
-7914 7920 0
-7914 4747 7915 0
-7914 4747 7917 0
7914 -4747 -7920 0
7914 -7915 -7917 -7920 0
7915 -4294 -4443 0
7915 -4443 -7916 0
7915 -3985 -4443 0
-7915 4443 0
-7915 3985 4294 7916 0
7916 -4233 -4260 -4293 0
7916 -4233 -4293 -4298 0
7916 -4260 -4293 -4298 0
-7916 4260 4298 0
-7916 4233 4260 0
-7916 4293 0
-7916 4233 4298 0
7917 -4749 -7918 0
-7917 4749 0
-7917 7918 0
7918 -4448 -7919 0
-7918 4448 0
-7918 7919 0
7919 4568 -4567 0
7919 4566 -4567 0
-7919 4567 0
-7919 -4566 -4568 0
-7920 4626 4746 0
-7920 4746 7921 0
7920 -4746 0
7920 -4626 -7921 0
-7921 4743 7922 0
7921 -4743 0
7921 -7922 0
7922 -4736 4742 0
7922 4736 -4742 0
-7922 4736 4742 0
-7922 -4736 -4742 0
-7923 4899 5039 0
7923 -4899 0
7923 -5039 0
-7924 7909 7923 0
7924 -7909 0
7924 -7923 0
-7925 7926 7932 0
-7925 -7926 -7932 0
7925 -7926 7932 0
7925 7926 -7932 0
-7926 -6353 7928 0
-7926 -7904 7928 0
-7926 7927 7928 0
7926 -7928 0
7926 6353 7904 -7927 0
7927 6356 -7903 0
-7927 -6356 0
-7927 7903 0
-7928 7929 0
-7928 5795 -7931 0
-7928 7899 -7931 0
7928 -7929 7931 0
7928 -5795 -7899 -7929 0
-7929 -5611 -7930 0
-7929 5611 7930 0
7929 5611 -7930 0
7929 -5611 7930 0
7930 5479 -5554 0
-7930 -5479 0
-7930 5554 0
7931 6354 -7903 7930 0
-7931 -6354 0
-7931 -7930 0
-7931 7903 0
-7932 -7892 7933 0
-7932 7933 7937 0
-7932 -7625 7933 0
7932 -7933 0
7932 7625 7892 -7937 0
-7933 7935 0
-7933 6443 -7934 0
-7933 7893 -7934 0
7933 7934 -7935 0
7933 -6443 -7893 -7935 0
7934 7211 -7895 0
-7934 -7211 0
-7934 7895 0
-7935 -7483 -7936 0
-7935 7483 7936 0
7935 7483 -7936 0
7935 -7483 7936 0
7936 7212 -7353 0
-7936 -7212 0
-7936 7353 0
7937 7629 -7895 0
-7937 -7629 0
-7937 7895 0
-7938 7890 7939 0
-7938 7910 7939 0
7938 -7939 0
7938 -7890 -7910 0
7939 -7940 -7961 0
7939 -7911 -7925 -7940 0
-7939 7940 0
-7939 7911 7961 0
-7939 7925 7961 0
-7940 -7941 -7959 0
-7940 7941 7959 0
7940 7941 -7959 0
7940 -7941 7959 0
7941 7942 -7951 0
7941 -7942 7951 0
-7941 -7942 -7951 0
-7941 7942 7951 0
-7942 7943 7948 7949 0
7942 -7943 0
7942 -7949 0
7942 -7948 0
7943 -5795 -7905 -7944 0
-7943 5795 0
-7943 7905 0
-7943 7944 0
-7944 -5611 7945 0
-7944 7945 7947 0
-7944 -7930 7945 0
7944 -7945 0
7944 5611 7930 -7947 0
-7945 6353 7946 0
-7945 -6356 7946 0
-7945 5641 7946 0
7945 -7946 0
7945 -5641 -6353 6356 0
7946 5641 6355 -7930 0
7946 5641 6355 -6356 0
-7946 -5641 0
-7946 -6355 0
-7946 6356 7930 0
7947 -5641 6354 0
-7947 5641 0
-7947 -6354 0
7948 7903 -7944 0
7948 -7945 -7944 0
-7948 7944 0
-7948 -7903 7945 0
7949 7899 -7903 7950 0
7949 5795 -7903 7950 0
-7949 -7950 0
-7949 7903 0
-7949 -5795 -7899 0
-7950 5641 6353 0
7950 -5641 0
7950 -6353 0
7951 -7952 -7956 7958 0
7951 7892 -7956 7958 0
-7951 7956 0
-7951 -7958 0
-7951 -7892 7952 0
-7952 7953 7955 0
-7952 -7954 7955 0
7952 -7955 0
7952 -7953 7954 0
-7953 7353 7628 0
-7953 -7627 7628 0
-7953 -7212 7628 0
7953 -7628 0
7953 7212 -7353 7627 0
7954 -7510 7625 0
7954 -7510 -7629 0
-7954 7510 0
-7954 -7625 7629 0
7955 7483 -7510 7626 7936 0
-7955 7510 0
-7955 -7936 0
-7955 -7483 0
-7955 -7626 0
7956 -7893 -7895 0
7956 7895 -7952 0
7956 -7895 7957 0
-7956 7895 7952 0
-7956 7893 -7895 -7957 0
-7957 7625 7954 0
-7957 -7953 7954 0
7957 -7954 0
7957 -7625 7953 0
7958 6443 -7895 -7957 0
-7958 -6443 0
-7958 7957 0
-7958 7895 0
7959 -5136 -7960 0
7959 5040 -7960 0
7959 7924 -7960 0
-7959 7960 0
-7959 -5040 5136 -7924 0
7960 5040 5135 -7821 0
7960 5030 5135 -7821 0
-7960 7821 0
-7960 -5135 0
-7960 -5030 -5040 0
7961 -7926 -7932 0
-7961 7926 0
-7961 7932 0
-7962 7911 7926 7940 0
-7962 7911 7932 7940 0
-7962 7926 7932 7940 0
7962 -7911 -7932 0
7962 -7926 -7932 0
7962 -7940 0
7962 -7911 -7926 0
-7963 -7964 -7906 0
-7963 7964 7906 0
7963 7964 -7906 0
7963 -7964 7906 0
-7964 -7891 -7897 0
-7964 7891 7897 0
7964 7891 -7897 0
7964 -7891 7897 0
-7965 7966 7970 0
-7965 7970 7978 0
-7965 7966 7978 0
7965 -7966 -7978 0
7965 -7970 -7978 0
7965 -7966 -7970 0
-7966 -4976 7967 0
-7966 7909 7967 0
7966 -7967 0
7966 4976 -7909 0
-7967 4900 7969 0
-7967 -4900 -7969 0
-7967 4900 -5130 7968 0
7967 -4900 7969 0
7967 4900 5130 -7969 0
7967 4900 -7968 -7969 0
-7968 5126 7913 0
7968 -5126 0
7968 -7913 0
-7969 4940 4976 0
7969 -4940 0
7969 -4976 0
-7970 -5591 7971 0
-7970 6341 7971 0
-7970 7971 -7977 0
7970 -7971 0
7970 5591 -6341 7977 0
-7971 7972 0
-7971 5795 -7974 0
-7971 7900 -7974 0
7971 -7972 7974 0
7971 -5795 -7900 -7972 0
-7972 5603 7973 0
-7972 -5603 -7973 0
7972 -5603 7973 0
7972 5603 -7973 0
-7973 5591 5610 0
7973 -5591 0
7973 -5610 0
7974 7975 -7976 0
-7974 -7975 0
-7974 7976 0
-7975 6342 6349 0
7975 -6342 0
7975 -6349 0
7976 5603 -6350 0
-7976 -5603 0
-7976 6350 0
7977 -5795 -7900 0
-7977 5795 0
-7977 7900 0
-7978 -7400 7979 0
-7978 7537 7979 0
-7978 7979 -7986 0
7978 -7979 0
7978 7400 -7537 7986 0
-7979 7983 0
-7979 -7980 7985 0
-7979 6443 -7980 0
7979 7980 -7983 0
7979 -6443 -7983 -7985 0
7980 7981 -7982 0
-7980 -7981 0
-7980 7982 0
-7981 7538 7556 0
7981 -7538 0
7981 -7556 0
7982 7455 -7580 0
-7982 -7455 0
-7982 7580 0
7983 -7455 7984 0
7983 7455 -7984 0
-7983 7455 7984 0
-7983 -7455 -7984 0
-7984 7400 7482 0
7984 -7400 0
7984 -7482 0
7985 -7557 -7692 0
-7985 7557 0
-7985 7692 0
7986 -7757 -7985 0
-7986 7757 0
-7986 7985 0
-7987 7988 7990 0
7987 -7988 0
7987 -7990 0
7988 -7966 7989 0
7988 7966 -7989 0
-7988 7966 7989 0
-7988 -7966 -7989 0
-7989 7970 7978 0
-7989 -7970 -7978 0
7989 -7970 7978 0
7989 7970 -7978 0
7990 -7993 -7995 0
7990 -7991 -7993 0
7990 -7991 -7995 0
-7990 7991 7993 0
-7990 7993 7995 0
-7990 7991 7995 0
-7991 7982 7992 0
-7991 -7982 -7992 0
7991 -7982 7992 0
7991 7982 -7992 0
-7992 7981 7986 0
7992 -7981 0
7992 -7986 0
-7993 7976 7994 0
-7993 -7976 -7994 0
7993 -7976 7994 0
7993 7976 -7994 0
-7994 7975 7977 0
7994 -7975 0
7994 -7977 0
7995 7996 -7997 0
7995 7913 -7997 0
-7995 7997 0
-7995 -7913 -7996 0
7996 4900 -5131 0
-7996 -4900 0
-7996 5131 0
7997 -7998 7996 0
7997 7998 -7996 0
7997 -3983 -4758 7998 0
-7997 -7998 -7996 0
-7997 3983 7998 7996 0
-7997 4758 7998 7996 0
-7998 5126 5132 0
7998 -5126 0
7998 -5132 0
7999 -8000 8002 0
7999 8000 -8002 0
-7999 8000 8002 0
-7999 -8000 -8002 0
-8000 -8001 -7852 0
-8000 8001 7852 0
8000 8001 -7852 0
8000 -8001 7852 0
-8001 7842 7847 0
-8001 -7842 -7847 0
8001 -7842 7847 0
8001 7842 -7847 0
-8002 7959 8003 0
-8002 7951 7959 0
-8002 7951 8003 0
8002 -7951 -7959 0
8002 -7959 -8003 0
8002 -7951 -8003 0
-8003 7943 7948 7949 0
8003 -7943 0
8003 -7949 0
8003 -7948 0
-8004 8005 8006 8349 8351 0
8004 -8351 0
8004 -8349 0
8004 -8005 0
8004 -8006 0
8005 -7963 -7965 0
-8005 7963 0
-8005 7965 0
8006 -8007 -8099 0
8006 -8007 -8345 0
8006 -8007 -8341 0
-8006 8007 0
-8006 8099 8341 8345 0
8007 -8008 -8050 8054 -8056 0
8007 -8008 8050 -8054 -8056 0
-8007 8056 0
-8007 8050 8054 0
-8007 8008 0
-8007 -8050 -8054 0
8008 -8009 8034 -8036 0
8008 -8009 -8034 8036 0
-8008 8009 0
-8008 -8034 -8036 0
-8008 8034 8036 0
8009 8010 -8011 0
8009 -8010 8011 0
-8009 -8010 -8011 0
-8009 8010 8011 0
-8010 7991 7993 0
-8010 -7991 -7993 0
8010 -7991 7993 0
8010 7991 -7993 0
8011 7995 -8012 0
8011 -7995 8012 8028 0
8011 -7995 8027 0
8011 7995 -8027 -8028 0
-8011 7995 8012 8028 0
-8011 -7995 -8012 -8027 0
-8011 -7995 -8027 -8028 0
-8011 7995 8012 8027 0
8012 -8013 -8019 0
-8012 8013 0
-8012 8019 0
-8013 -7757 8014 8018 0
-8013 7757 8014 8017 0
8013 -8014 0
8013 -7757 -8018 0
8013 7757 -8017 0
-8014 -7557 8015 0
-8014 7558 8015 0
-8014 7571 8015 0
8014 -8015 0
8014 7557 -7558 -7571 0
8015 7558 -8016 0
8015 7574 7576 -8016 0
-8015 8016 0
-8015 -7576 -7558 0
-8015 -7574 -7558 0
8016 -7557 7572 0
-8016 7557 0
-8016 -7572 0
8017 7573 -8016 0
-8017 -7573 0
-8017 8016 0
8018 -7692 7985 0
-8018 7692 0
-8018 -7985 0
8019 -5795 -8021 0
8019 5795 -8020 8026 0
-8019 5795 8020 0
-8019 -5795 8021 0
-8019 5795 -8026 0
-8020 5230 6344 0
-8020 5230 6345 0
8020 -5230 0
8020 -6344 -6345 0
-8021 8022 8025 0
-8021 -5230 8022 0
-8021 5740 8022 0
8021 -8022 0
8021 5230 -5740 -8025 0
8022 -8020 8023 0
-8022 8020 0
-8022 -8023 0
8023 -6343 -6346 0
8023 -6343 -8024 0
-8023 6343 0
-8023 6346 8024 0
-8024 5741 6348 0
8024 -5741 0
8024 -6348 0
8025 -6344 6346 0
-8025 6344 0
-8025 -6346 0
8026 -6345 -8023 0
-8026 6345 0
-8026 8023 0
-8027 8013 8019 0
8027 -8013 0
8027 -8019 0
8028 7968 -8029 0
-8028 -7968 0
-8028 8029 0
8029 -4759 0
8029 -5127 -8030 0
8029 -5127 -5128 0
-8029 4759 5127 0
-8029 4759 5128 8030 0
-8030 4747 8032 0
-8030 7920 8032 0
-8030 8031 8032 0
8030 -8032 0
8030 -4747 -7920 -8031 0
-8031 4886 4887 0
8031 -4886 0
8031 -4887 0
8032 -7915 -7918 -7920 -8033 0
-8032 8033 0
-8032 7915 0
-8032 7918 0
-8032 7920 0
8033 -4749 -8031 0
-8033 4749 0
-8033 8031 0
8034 8028 -8035 0
8034 -8028 8035 0
-8034 -8028 -8035 0
-8034 8028 8035 0
8035 8012 -8027 0
-8035 -8012 0
-8035 8027 0
-8036 8037 8042 0
-8036 8042 8048 0
-8036 8037 8048 0
8036 -8042 -8048 0
8036 -8037 -8042 0
8036 -8037 -8048 0
8037 6443 -8038 0
8037 7692 -8038 0
-8037 8038 0
-8037 -7692 -6443 0
8038 -8039 0
8038 -7201 -8041 0
8038 -8040 -8041 0
-8038 8039 8041 0
-8038 7201 8039 8040 0
8039 7694 -7573 0
8039 -7694 7573 0
-8039 -7694 -7573 0
-8039 7694 7573 0
8040 -7758 -7760 0
-8040 7758 0
-8040 7760 0
8041 -7693 -6764 0
-8041 7693 0
-8041 6764 0
-8042 -5892 8043 8044 0
-8042 5892 8044 8046 0
8042 -8044 0
8042 5892 -8046 0
8042 -5892 -8043 0
8043 5666 -5740 0
-8043 -5666 0
-8043 5740 0
-8044 5796 8045 0
-8044 8045 8043 0
-8044 6333 8045 0
8044 -8045 0
8044 -5796 -6333 -8043 0
-8045 5666 6347 0
-8045 -5666 -5796 -8024 0
-8045 -5666 -6347 -8024 0
8045 -5666 8024 0
8045 5666 -6347 0
8045 -5666 5796 6347 0
8046 6333 -8047 0
-8046 -6333 0
-8046 8047 0
8047 -5666 6347 0
-8047 5666 0
-8047 -6347 0
-8048 4894 8049 0
-8048 -4894 -8049 0
8048 -4894 8049 0
8048 4894 -8049 0
-8049 5129 8030 0
8049 -5129 0
8049 -8030 0
-8050 8051 8053 0
-8050 8052 8053 0
-8050 8051 8052 0
8050 -8051 -8052 0
8050 -8052 -8053 0
8050 -8051 -8053 0
8051 -5740 5795 0
8051 5740 -5795 0
-8051 5740 5795 0
-8051 -5740 -5795 0
8052 -7693 7757 0
8052 7693 -7757 0
-8052 7693 7757 0
-8052 -7693 -7757 0
8053 -3983 4885 0
8053 -4885 7914 0
-8053 3983 4885 0
-8053 -4885 -7914 0
-8054 8055 8048 0
-8054 -8055 -8048 0
8054 -8055 8048 0
8054 8055 -8048 0
-8055 8037 8042 0
-8055 -8037 -8042 0
8055 -8037 8042 0
8055 8037 -8042 0
8056 -8057 -8078 0
8056 -8076 -8078 0
-8056 8078 0
-8056 8057 8076 0
-8057 8058 8066 0
-8057 8066 8072 0
-8057 8058 8072 0
8057 -8058 -8072 0
8057 -8066 -8072 0
8057 -8058 -8066 0
-8058 -8060 8061 0
-8058 8059 8061 0
-8058 6889 8061 0
8058 -8061 0
8058 -6889 -8059 8060 0
-8059 7202 7207 8040 0
8059 -7202 0
8059 -8040 0
8059 -7207 0
-8060 6766 6884 0
-8060 -6766 -6884 0
8060 -6766 6884 0
8060 6766 -6884 0
-8061 -6889 -8060 8062 0
-8061 7208 8060 8062 0
8061 -8062 0
8061 -7208 8060 0
8061 6889 -8060 0
8062 -6893 8040 8063 8064 0
-8062 6893 0
-8062 -8064 0
-8062 -8063 0
-8062 -8040 0
-8063 6765 7207 7208 0
8063 -6765 0
8063 -7208 0
8063 -7207 0
8064 -6445 -6758 -8065 0
8064 -6445 -6762 -8065 0
8064 -6445 -6758 -6762 0
-8064 6758 6762 0
-8064 6758 8065 0
-8064 6445 0
-8064 6762 8065 0
8065 -6676 -6717 0
-8065 6676 0
-8065 6717 0
-8066 5848 8068 0
-8066 8068 8071 0
-8066 -8067 8068 0
8066 -8068 0
8066 -5848 8067 -8071 0
8067 -5797 5891 0
-8067 5797 0
-8067 -5891 0
-8068 -5848 8069 -8067 0
-8068 6335 8069 8067 0
8068 -8069 0
8068 -6335 8067 0
8068 5848 -8067 0
8069 -5797 6333 8070 0
-8069 5797 0
-8069 -6333 0
-8069 -8070 0
8070 -5893 -6031 0
-8070 5893 0
-8070 6031 0
-8071 6334 6336 8070 0
8071 -6334 0
8071 -8070 0
8071 -6336 0
-8072 -8073 -8074 0
-8072 8073 8074 0
8072 8073 -8074 0
8072 -8073 8074 0
8073 -4626 4746 0
-8073 4626 0
-8073 -4746 0
8074 -4740 -8075 0
8074 -4740 -4755 0
-8074 4740 0
-8074 4755 8075 0
-8075 3984 4748 0
-8075 4446 4748 0
8075 -4748 0
8075 -3984 -4446 0
-8076 -8077 -8053 0
-8076 8077 8053 0
8076 8077 -8053 0
8076 -8077 8053 0
-8077 -8051 -8052 0
-8077 8051 8052 0
8077 8051 -8052 0
8077 -8051 8052 0
-8078 8079 8080 8097 0
8078 -8097 0
8078 -8080 0
8078 -8079 0
8079 -8057 -8076 0
-8079 8057 0
-8079 8076 0
-8080 8081 8085 0
-8080 8083 8085 0
8080 -8085 0
8080 -8081 -8083 0
-8081 -8059 -8082 0
-8081 8059 8082 0
8081 8059 -8082 0
8081 -8059 8082 0
8082 -6889 7208 0
-8082 6889 0
-8082 -7208 0
8083 8071 -8084 0
8083 -8071 8084 0
-8083 -8071 -8084 0
-8083 8071 8084 0
8084 -5848 6335 0
-8084 5848 0
-8084 -6335 0
8085 -8086 -8087 0
-8085 8086 0
-8085 8087 0
-8086 -8081 -8083 0
-8086 8081 8083 0
8086 8081 -8083 0
8086 -8081 8083 0
8087 3984 -8088 -8093 0
8087 -3984 8091 -8093 0
-8087 8093 0
-8087 3984 8088 0
-8087 -3984 -8091 0
-8088 4754 8089 0
8088 -4754 0
8088 -8089 0
-8089 4740 4752 0
-8089 4752 -8090 0
8089 -4752 0
8089 -4740 8090 0
8090 -4743 -7922 0
-8090 4743 0
-8090 7922 0
8091 -4446 -8092 0
-8091 4446 0
-8091 8092 0
8092 -7921 8090 0
-8092 7921 0
-8092 -8090 0
8093 -8094 -8096 0
8093 -8089 -8094 0
8093 -4563 -8094 0
-8093 8094 0
-8093 4563 8089 8096 0
-8094 4750 8095 0
-8094 -8092 8095 0
8094 -8095 0
8094 -4750 8092 0
8095 4752 4748 4756 -7921 0
-8095 7921 0
-8095 -4756 0
-8095 -4752 0
-8095 -4748 0
8096 -4449 -4567 0
-8096 4449 0
-8096 4567 0
-8097 8098 8072 0
-8097 -8098 -8072 0
8097 -8098 8072 0
8097 8098 -8072 0
-8098 8058 8066 0
-8098 -8058 -8066 0
8098 -8058 8066 0
8098 8058 -8066 0
8099 -8100 -8134 8135 -8136 0
8099 -8100 8134 -8135 -8136 0
-8099 8136 0
-8099 8134 8135 0
-8099 8100 0
-8099 -8134 -8135 0
8100 -8101 8116 -8120 0
8100 8101 -8116 -8120 0
-8100 8120 0
-8100 -8101 -8116 0
-8100 8101 8116 0
8101 -8102 8104 0
8101 8102 -8104 0
-8101 8102 8104 0
-8101 -8102 -8104 0
8102 4448 -8103 0
8102 -4448 8103 0
-8102 -4448 -8103 0
-8102 4448 8103 0
8103 -3984 -4567 0
8103 -4565 -4567 0
-8103 4567 0
-8103 3984 4565 0
-8104 8105 8107 0
-8104 -8105 -8107 0
8104 -8105 8107 0
8104 8105 -8107 0
8105 7760 -8106 0
8105 6675 -8106 0
8105 -6675 6756 -7760 0
-8105 7760 8106 0
-8105 -6675 -6756 -7760 0
-8105 6675 8106 0
-8106 -6756 -8065 0
-8106 6756 7204 0
8106 6756 -7204 0
8106 -6756 8065 0
-8107 8108 -8115 0
-8107 5983 8108 0
8107 -8108 0
8107 -5983 8115 0
8108 5895 5984 -8114 0
8108 -5895 -8109 8114 0
8108 -5895 5984 8114 0
8108 5895 -8109 -8114 0
-8108 5895 8114 0
-8108 -5895 -8114 0
-8108 -5984 8109 0
8109 -6331 -8111 0
8109 -6328 -6331 -8110 0
-8109 6331 0
-8109 6328 8111 0
-8109 8110 8111 0
8110 -6189 -6193 0
-8110 6189 0
-8110 6193 0
-8111 6189 8112 0
-8111 6188 8112 0
-8111 6126 8112 0
8111 -8112 0
8111 -6126 -6188 -6189 0
-8112 6033 8113 0
8112 -6033 0
8112 -8113 0
8113 -6024 6122 -6123 0
8113 6024 -6122 -6123 0
-8113 6123 0
-8113 -6024 -6122 0
-8113 6024 6122 0
-8114 5985 6025 0
8114 -5985 0
8114 -6025 0
-8115 6031 6338 0
8115 -6031 0
8115 -6338 0
-8116 8117 8118 0
-8116 8118 8119 0
-8116 8117 8119 0
8116 -8118 -8119 0
8116 -8117 -8118 0
8116 -8117 -8119 0
-8117 -5984 -6031 0
-8117 5984 6031 0
8117 5984 -6031 0
8117 -5984 6031 0
-8118 -6675 -7760 0
-8118 6675 7760 0
8118 6675 -7760 0
8118 -6675 7760 0
8119 3984 -4564 0
8119 -3984 7919 0
-8119 -3984 -7919 0
-8119 3984 4564 0
8120 -8086 8121 0
8120 8086 -8121 0
-8120 8086 8121 0
-8120 -8086 -8121 0
-8121 8087 8122 8133 0
-8121 -8087 -8122 -8124 0
-8121 -8087 -8133 0
-8121 8087 8124 8133 0
8121 8087 -8122 -8124 0
8121 -8087 8122 8133 0
8121 8087 -8133 0
8121 -8087 8124 8133 0
8122 -4749 8075 0
8122 8075 -8123 0
8122 -4754 8075 0
-8122 -8075 0
-8122 4749 4754 8123 0
8123 -7915 -8096 0
-8123 7915 0
-8123 8096 0
-8124 8125 8129 0
8124 -8125 0
8124 -8129 0
-8125 -6445 -8127 0
-8125 6445 7203 8126 0
-8125 -6445 -7203 0
-8125 8126 -8127 0
8125 6445 -8126 0
8125 -6445 7203 8127 0
8125 6445 -7203 8127 0
8126 -7759 -7760 0
-8126 7759 0
-8126 7760 0
8127 -6445 -7206 -7760 -8128 0
-8127 6445 0
-8127 8128 0
-8127 7760 0
-8127 7206 0
-8128 6717 6757 7205 0
8128 -6717 0
8128 -7205 0
8128 -6757 0
-8129 6027 8130 0
-8129 -8115 8130 0
8129 -8130 0
8129 -6027 8115 0
8130 -8131 8132 0
8130 -5894 -8109 8132 0
-8130 -8132 0
-8130 8109 8131 0
-8130 5894 8131 0
-8131 6027 6337 0
8131 -6027 0
8131 -6337 0
8132 -5896 -5983 -6027 0
8132 -5983 -6027 -8114 0
-8132 6027 0
-8132 5983 0
-8132 5896 8114 0
8133 -8125 -8129 0
-8133 8125 0
-8133 8129 0
-8134 -8122 -8125 8129 0
-8134 -8122 8125 -8129 0
-8134 8122 8125 8129 0
-8134 8122 -8125 -8129 0
8134 -8122 -8125 -8129 0
8134 -8122 8125 8129 0
8134 8122 8125 -8129 0
8134 8122 -8125 8129 0
-8135 8105 8107 0
-8135 8102 8105 0
-8135 8102 8107 0
8135 -8102 -8105 0
8135 -8105 -8107 0
8135 -8102 -8107 0
8136 -8137 -8219 -8220 0
8136 -8200 -8219 -8220 0
-8136 8219 0
-8136 8220 0
-8136 8137 8200 0
8137 -8182 -8196 0
8137 -8138 -8194 0
8137 -8182 -8194 0
8137 -8138 -8182 0
8137 -8138 -8196 0
-8137 8138 8182 0
-8137 8138 8194 8196 0
-8137 8182 8194 8196 0
-8138 -8139 -8178 0
-8138 8139 8178 0
8138 8139 -8178 0
8138 -8139 8178 0
8139 -8140 8158 0
8139 8140 -8158 0
-8139 8140 8158 0
-8139 -8140 -8158 0
-8140 -8141 8142 0
-8140 8142 8155 0
-8140 6189 8142 0
8140 -8142 0
8140 -6189 8141 -8155 0
8141 6034 -6332 0
-8141 -6034 0
-8141 6332 0
8142 8141 -8154 0
8142 8143 -8141 8154 0
8142 -8141 8153 8154 0
-8142 8141 8154 0
-8142 -8141 -8154 0
-8142 -8143 -8153 8154 0
8143 -8151 -8152 0
8143 -8144 -8148 -8152 0
-8143 8152 0
-8143 8144 8151 0
-8143 8148 8151 0
-8144 6217 6319 8145 0
8144 -6217 0
8144 -6319 0
8144 -8145 0
8145 -8146 -8147 0
-8145 8146 0
-8145 8147 0
8146 6245 -6320 6321 0
8146 6245 6320 -6321 0
8146 -6245 6320 6321 0
8146 -6245 -6320 -6321 0
-8146 6245 -6320 -6321 0
-8146 6245 6320 6321 0
-8146 -6245 6320 -6321 0
-8146 -6245 -6320 6321 0
-8147 6253 6322 0
8147 -6253 0
8147 -6322 0
8148 -8149 -8150 0
-8148 8149 0
-8148 8150 0
8149 6248 -6327 0
-8149 -6248 0
-8149 6327 0
-8150 6218 6235 0
8150 -6218 0
8150 -6235 0
-8151 6156 6194 6248 0
8151 -6156 0
8151 -6248 0
8151 -6194 0
8152 -6159 -6326 0
8152 -6157 -6326 0
8152 -6157 -6159 0
-8152 6157 6326 0
-8152 6157 6159 0
-8152 6159 6326 0
8153 -6188 -6190 0
-8153 6188 0
-8153 6190 0
8154 -6095 -6190 0
8154 -6127 -6190 0
-8154 6190 0
-8154 6095 6127 0
8155 -6329 -8156 0
-8155 6329 0
-8155 8156 0
8156 -8151 -8152 0
8156 -8152 -8157 0
-8156 8152 0
-8156 8151 8157 0
8157 6248 -6327 -8144 -8150 0
-8157 8150 0
-8157 8144 0
-8157 -6248 0
-8157 6327 0
-8158 8172 8177 0
-8158 -6898 -8159 8172 0
8158 -8172 0
8158 6898 -8177 0
8158 8159 -8177 0
8159 -6996 -7024 -8160 0
8159 -6996 -7178 -8160 0
8159 -7024 -7178 -8160 0
-8159 6996 7024 0
-8159 7024 7178 0
-8159 8160 0
-8159 6996 7178 0
-8160 7045 7100 7183 8161 0
8160 -8161 0
8160 -7183 0
8160 -7045 0
8160 -7100 0
8161 -7088 -8162 -8163 0
8161 -7086 -8162 -8163 0
-8161 8162 0
-8161 8163 0
-8161 7086 7088 0
8162 7045 -7179 0
-8162 -7045 0
-8162 7179 0
-8163 8164 8171 0
8163 -8164 0
8163 -8171 0
8164 -8165 -8170 0
-8164 8165 0
-8164 8170 0
8165 -8166 -7163 0
8165 -7163 -7167 0
8165 -8166 -7167 0
8165 -7167 -8168 0
8165 -7163 -8168 0
-8165 7163 7167 0
-8165 8166 7163 8168 0
-8165 8166 7167 8168 0
8166 -7130 -8167 0
-8166 7130 0
-8166 8167 0
8167 -7108 7117 0
8167 7108 -7117 0
-8167 7108 7117 0
-8167 -7108 -7117 0
8168 -7135 -8169 0
-8168 7135 0
-8168 8169 0
8169 7130 -8167 0
8169 -7130 8167 0
-8169 -7130 -8167 0
-8169 7130 8167 0
8170 7170 -7176 0
-8170 -7170 0
-8170 7176 0
-8171 7085 7170 0
8171 -7085 0
8171 -7170 0
-8172 8173 8175 0
-8172 8175 8159 0
-8172 6897 8175 0
8172 -8175 0
8172 -6897 -8173 -8159 0
8173 -7026 8174 0
-8173 7026 0
-8173 -8174 0
8174 7186 -7198 0
-8174 -7186 0
-8174 7198 0
-8175 7027 8174 8176 0
-8175 -7042 -8174 8176 0
8175 -8176 0
8175 7042 -8174 0
8175 -7027 8174 0
8176 -6993 -8173 0
-8176 6993 0
-8176 8173 0
8177 6993 7027 -8174 0
-8177 8174 0
-8177 -7027 0
-8177 -6993 0
8178 -8179 8180 0
8178 8179 -8180 0
-8178 8179 8180 0
-8178 -8179 -8180 0
8179 3987 -4444 0
-8179 -3987 0
-8179 4444 0
-8180 4156 8181 0
8180 -4156 0
8180 -8181 0
-8181 4230 4294 0
8181 -4230 0
8181 -4294 0
-8182 8186 8190 0
-8182 8183 8190 0
-8182 8183 8186 0
8182 -8183 -8190 0
8182 -8183 -8186 0
8182 -8186 -8190 0
8183 6189 -8185 0
8183 6188 -8185 0
8183 8184 -8185 0
-8183 8185 0
-8183 -6188 -6189 -8184 0
-8184 6126 6330 0
-8184 6126 6193 0
8184 -6126 0
8184 -6193 -6330 0
-8185 6125 6189 6192 0
8185 -6125 0
8185 -6192 0
8185 -6189 0
-8186 -7182 8187 0
-8186 8187 -8189 0
-8186 7026 8187 0
8186 -8187 0
8186 -7026 7182 8189 0
-8187 6896 8188 0
-8187 -7026 8188 0
-8187 7043 8188 0
8187 -8188 0
8187 -6896 7026 -7043 0
-8188 -6898 -7026 0
-8188 7026 7181 0
8188 6898 -7026 0
8188 7026 -7181 0
8189 -6995 -7043 0
-8189 6995 0
-8189 7043 0
8190 8181 -8192 0
8190 -4295 8181 -8191 0
-8190 -8181 0
-8190 4295 8192 0
-8190 8191 8192 0
8191 -4260 -4300 0
8191 -4300 -4301 0
-8191 4300 0
-8191 4260 4301 0
-8192 4293 8193 0
8192 -4293 0
8192 -8193 0
8193 -4233 -4298 0
-8193 4233 0
-8193 4298 0
-8194 -8195 -8190 0
-8194 8195 8190 0
8194 8195 -8190 0
8194 -8195 8190 0
-8195 8183 8186 0
-8195 -8183 -8186 0
8195 -8183 8186 0
8195 8183 -8186 0
-8196 8198 8199 0
-8196 8197 8198 0
-8196 8197 8199 0
8196 -8197 -8198 0
8196 -8198 -8199 0
8196 -8197 -8199 0
8197 6329 -8156 0
8197 -6329 8156 0
-8197 -6329 -8156 0
-8197 6329 8156 0
8198 6897 -8159 0
8198 -6897 8159 0
-8198 -6897 -8159 0
-8198 6897 8159 0
-8199 -4295 -8191 0
-8199 4295 8191 0
8199 4295 -8191 0
8199 -4295 8191 0
-8200 8201 8215 0
-8200 8201 8217 0
8200 -8201 0
8200 -8215 -8217 0
8201 -8202 -8213 0
-8201 8202 0
-8201 8213 0
-8202 8206 8210 0
-8202 8203 8206 0
-8202 8203 8210 0
8202 -8203 -8206 0
8202 -8206 -8210 0
8202 -8203 -8210 0
-8203 -8204 -8205 0
-8203 8204 8205 0
8203 8204 -8205 0
8203 -8204 8205 0
8204 7193 -7199 0
-8204 -7193 0
-8204 7199 0
8205 -7185 -7198 0
8205 -6895 -7198 0
8205 -7180 -7198 0
-8205 7198 0
-8205 6895 7180 7185 0
8206 8207 -8209 0
8206 -8207 8209 0
-8206 -8207 -8209 0
-8206 8207 8209 0
8207 -8208 8113 0
-8207 8208 0
-8207 -8113 0
-8208 6121 6123 0
8208 -6121 0
8208 -6123 0
8209 -6124 -6332 0
8209 -6191 -6332 0
8209 -6033 -6332 0
-8209 6332 0
-8209 6033 6124 6191 0
8210 8211 -8212 0
8210 -8211 8212 0
-8210 -8211 -8212 0
-8210 8211 8212 0
8211 4180 -4445 0
-8211 -4180 0
-8211 4445 0
8212 -4444 -8181 0
8212 -3986 -4444 0
-8212 4444 0
-8212 3986 8181 0
-8213 -8214 -8119 0
-8213 8214 8119 0
8213 8214 -8119 0
8213 -8214 8119 0
-8214 8117 8118 0
-8214 -8117 -8118 0
8214 -8117 8118 0
8214 8117 -8118 0
-8215 -8216 -8210 0
-8215 8216 8210 0
8215 8216 -8210 0
8215 -8216 8210 0
-8216 -8203 -8206 0
-8216 8203 8206 0
8216 8203 -8206 0
8216 -8203 8206 0
-8217 8218 8178 0
-8217 8218 8139 0
8217 -8218 0
8217 -8139 -8178 0
8218 -8140 -8158 0
-8218 8140 0
-8218 8158 0
8219 -8213 -8217 0
8219 -8202 -8215 0
8219 -8213 -8215 0
8219 -8202 -8213 0
8219 -8202 -8217 0
-8219 8202 8213 0
-8219 8202 8215 8217 0
-8219 8213 8215 8217 0
-8220 8200 8221 8340 0
-8220 8200 8221 8230 0
8220 -8200 0
8220 -8221 0
8220 -8230 -8340 0
-8221 8222 8223 8226 0
-8221 8222 8223 8224 0
8221 -8222 0
8221 -8223 0
8221 -8224 -8226 0
8222 -8138 -8182 0
-8222 8138 0
-8222 8182 0
8223 -8194 -8196 0
-8223 8194 0
-8223 8196 0
8224 -8199 8225 0
8224 8199 -8225 0
-8224 8199 8225 0
-8224 -8199 -8225 0
-8225 -8197 -8198 0
-8225 8197 8198 0
8225 8197 -8198 0
8225 -8197 8198 0
-8226 8227 8228 0
-8226 8228 8229 0
-8226 8227 8229 0
8226 -8227 -8229 0
8226 -8228 -8229 0
8226 -8227 -8228 0
-8227 6193 6330 0
-8227 -6193 -6330 0
8227 -6193 6330 0
8227 6193 -6330 0
-8228 -6995 -7043 0
-8228 6995 7043 0
8228 6995 -7043 0
8228 -6995 7043 0
-8229 -4299 -4301 0
-8229 4299 4301 0
8229 4299 -4301 0
8229 -4299 4301 0
-8230 8231 8250 8338 0
-8230 8231 8250 8337 0
8230 -8231 0
8230 -8250 0
8230 -8337 -8338 0
8231 -8232 -8244 0
-8231 8232 0
-8231 8244 0
-8232 8233 8236 0
-8232 -8233 -8236 0
8232 -8233 8236 0
8232 8233 -8236 0
8233 8234 -8235 0
8233 -8234 8235 0
-8233 -8234 -8235 0
-8233 8234 8235 0
8234 4436 -4442 0
-8234 -4436 0
-8234 4442 0
8235 -4302 -4441 0
8235 -4424 -4441 0
-8235 4441 0
-8235 4302 4424 0
-8236 -8237 -8240 0
-8236 8237 8240 0
8236 8237 -8240 0
8236 -8237 8240 0
8237 -8238 8239 0
8237 -7045 8239 0
8237 -8161 8239 0
-8237 -8239 0
-8237 7045 8161 8238 0
-8238 -7101 -7103 0
-8238 7101 7103 0
8238 7101 -7103 0
8238 -7101 7103 0
8239 -7044 -7179 -8238 0
8239 -7104 -7179 -8238 0
-8239 8238 0
-8239 7179 0
-8239 7044 7104 0
8240 -6248 8242 0
8240 -8157 8242 0
8240 -8241 8242 0
-8240 -8242 0
-8240 6248 8157 8241 0
8241 6194 -6326 0
-8241 -6194 0
-8241 6326 0
8242 6194 -6248 -6325 0
8242 6194 -6325 -8243 0
-8242 -6194 0
-8242 6325 0
-8242 6248 8243 0
-8243 6217 6252 0
8243 -6217 0
8243 -6252 0
-8244 8245 8247 0
-8244 8246 8247 0
-8244 8245 8246 0
8244 -8245 -8246 0
8244 -8246 -8247 0
8244 -8245 -8247 0
8245 8157 -8243 0
8245 -8149 8157 0
-8245 -8157 0
-8245 8149 8243 0
8246 -7085 8161 0
8246 -7104 8161 0
8246 -8162 8161 0
-8246 -8161 0
-8246 7085 7104 8162 0
8247 -8248 8249 0
8247 8248 -8249 0
-8247 8248 8249 0
-8247 -8248 -8249 0
8248 4425 -4441 0
-8248 -4425 0
-8248 4441 0
-8249 4302 4435 0
8249 -4302 0
8249 -4435 0
8250 -8251 -8336 0
8250 -8333 -8335 -8336 0
-8250 8336 0
-8250 8251 8333 0
-8250 8251 8335 0
8251 -8331 -8332 0
8251 -8252 -8325 0
8251 -8252 -8331 0
8251 -8325 -8332 0
8251 -8325 -8331 0
-8251 8325 8331 0
-8251 8252 8325 8332 0
-8251 8252 8331 8332 0
8252 -8253 -8317 8318 0
8252 -8253 8317 -8318 0
-8252 8253 0
-8252 8317 8318 0
-8252 -8317 -8318 0
8253 -8254 -8316 0
8253 -8254 -8309 0
8253 -8309 -8316 0
-8253 8309 8316 0
-8253 8254 8316 0
-8253 8254 8309 0
8254 -8301 -8308 0
8254 -8255 -8301 0
8254 -8255 -8308 0
-8254 8255 8301 0
-8254 8301 8308 0
-8254 8255 8308 0
8255 -8256 -8292 0
8255 -8292 -8300 0
8255 -8256 -8300 0
-8255 8256 8300 0
-8255 8292 8300 0
-8255 8256 8292 0
8256 -8266 -8270 0
8256 -8257 -8270 0
8256 -8257 -8266 0
-8256 8257 8270 0
-8256 8257 8266 0
-8256 8266 8270 0
-8257 8258 -8260 0
-8257 8258 8265 0
-8257 -8258 8260 -8265 0
8257 -8258 8265 0
8257 8258 8260 -8265 0
8257 -8258 -8260 0
-8258 -4400 -8259 0
-8258 4400 8259 0
8258 4400 -8259 0
8258 -4400 8259 0
8259 4386 -4393 0
8259 -4386 4393 0
-8259 -4386 -4393 0
-8259 4386 4393 0
8260 -8261 -8263 0
-8260 8261 0
-8260 8263 0
8261 6299 -8262 0
8261 -6299 8262 0
-8261 -6299 -8262 0
-8261 6299 8262 0
8262 6284 -6292 0
8262 -6284 6292 0
-8262 -6284 -6292 0
-8262 6284 6292 0
-8263 -7151 -8264 0
-8263 7151 8264 0
8263 7151 -8264 0
8263 -7151 8264 0
8264 -7137 7144 0
8264 7137 -7144 0
-8264 7137 7144 0
-8264 -7137 -7144 0
-8265 8261 8263 0
8265 -8261 0
8265 -8263 0
8266 -8267 -8269 0
8266 -8267 -8268 0
8266 -8268 -8269 0
-8266 8268 8269 0
-8266 8267 8269 0
-8266 8267 8268 0
8267 -6300 6302 0
8267 6300 -6302 0
-8267 6300 6302 0
-8267 -6300 -6302 0
-8268 -7152 -7154 0
-8268 7152 7154 0
8268 7152 -7154 0
8268 -7152 7154 0
8269 4401 -4403 0
8269 -4401 4403 0
-8269 -4401 -4403 0
-8269 4401 4403 0
-8270 8271 8287 0
-8270 8269 8271 8291 0
-8270 -8269 8287 -8291 0
-8270 -8269 8271 -8291 0
-8270 8269 8287 8291 0
8270 -8271 -8287 0
8270 -8269 -8287 8291 0
8270 8269 -8271 -8291 0
8270 8269 -8287 -8291 0
8270 -8269 -8271 8291 0
-8271 8274 8280 0
-8271 8279 8280 0
-8271 8272 8280 0
8271 -8280 0
8271 -8272 -8274 -8279 0
8272 3640 -8273 0
8272 -3640 8273 0
-8272 -3640 -8273 0
-8272 3640 8273 0
8273 -8387 -8445 0
-8273 8387 0
-8273 8445 0
8274 -8275 -8277 0
-8274 8275 0
-8274 8277 0
8275 1225 -8276 0
8275 -1225 8276 0
-8275 -1225 -8276 0
-8275 1225 8276 0
8276 -8451 -8463 0
-8276 8451 0
-8276 8463 0
8277 2430 -8278 0
8277 -2430 8278 0
-8277 -2430 -8278 0
-8277 2430 8278 0
8278 -8370 -8376 0
-8278 8370 0
-8278 8376 0
8279 -3960 -3961 0
8279 -3961 -3962 0
8279 -3960 -3962 0
-8279 3960 3962 0
-8279 3961 3962 0
-8279 3960 3961 0
8280 8281 -8282 -8285 0
8280 -8281 8282 -8285 0
-8280 8285 0
-8280 8281 8282 0
-8280 -8281 -8282 0
8281 4404 -4405 0
8281 -4404 4405 0
-8281 -4404 -4405 0
-8281 4404 4405 0
8282 8283 -8284 0
8282 -8283 8284 0
-8282 -8283 -8284 0
-8282 8283 8284 0
8283 -7155 7156 0
8283 7155 -7156 0
-8283 7155 7156 0
-8283 -7155 -7156 0
8284 -6287 -6303 6304 0
8284 6287 -6304 6305 0
8284 6287 -6303 -6305 0
8284 -6287 6304 6305 0
-8284 -6287 -6304 0
-8284 6303 -6305 0
-8284 6287 6304 6305 0
-8285 8272 8274 8279 0
-8285 8274 8286 8279 0
-8285 8272 8274 8286 0
8285 -8272 -8286 0
8285 -8286 -8279 0
8285 -8274 0
8285 -8272 -8279 0
8286 8275 -8277 0
8286 -8275 8277 0
-8286 -8275 -8277 0
-8286 8275 8277 0
-8287 8288 8289 0
8287 -8288 0
8287 -8289 0
8288 -8283 -8284 0
-8288 8283 0
-8288 8284 0
8289 -8281 -8290 0
-8289 8281 0
-8289 8290 0
-8290 8283 8284 0
8290 -8283 0
8290 -8284 0
-8291 8267 8268 0
-8291 -8267 -8268 0
8291 -8267 8268 0
8291 8267 -8268 0
8292 -8293 8298 0
8292 8293 -8298 0
-8292 8293 8298 0
-8292 -8293 -8298 0
-8293 -8294 -8296 0
-8293 8294 8296 0
8293 8294 -8296 0
8293 -8294 8296 0
8294 7136 -8295 0
8294 -7136 8295 0
-8294 -7136 -8295 0
-8294 7136 8295 0
8295 7157 -7161 0
-8295 -7157 0
-8295 7161 0
8296 6283 -8297 0
8296 -6283 8297 0
-8296 -6283 -8297 0
-8296 6283 8297 0
8297 6306 -6308 0
8297 -6306 6308 0
-8297 -6306 -6308 0
-8297 6306 6308 0
-8298 -4385 -8299 0
-8298 4385 8299 0
8298 4385 -8299 0
8298 -4385 8299 0
8299 -4406 4408 0
8299 4406 -4408 0
-8299 4406 4408 0
-8299 -4406 -4408 0
8300 -8260 -8265 0
8300 -8258 -8265 0
-8300 8265 0
-8300 8258 8260 0
-8301 8302 8304 0
-8301 -8302 -8304 0
8301 -8302 8304 0
8301 8302 -8304 0
-8302 -4384 -8303 0
-8302 4384 8303 0
8302 4384 -8303 0
8302 -4384 8303 0
8303 -4377 4409 0
-8303 4377 0
-8303 -4409 0
-8304 8305 8307 0
-8304 -8305 -8307 0
8304 -8305 8307 0
8304 8305 -8307 0
8305 7134 -8306 0
-8305 -7134 0
-8305 8306 0
-8306 7135 8169 0
8306 -7135 0
8306 -8169 0
-8307 -6255 6282 0
-8307 6282 6309 0
-8307 6255 -6282 -6309 0
8307 -6255 -6282 0
8307 -6282 6309 0
8307 6255 6282 -6309 0
-8308 8296 8298 0
-8308 8294 8296 0
-8308 8294 8298 0
8308 -8294 -8296 0
8308 -8296 -8298 0
8308 -8294 -8298 0
-8309 8310 8311 0
-8309 -8310 -8311 0
8309 -8310 8311 0
8309 8310 -8311 0
-8310 4376 4410 0
-8310 -4376 -4410 0
8310 -4376 4410 0
8310 4376 -4410 0
-8311 -8312 -8313 0
-8311 8312 8313 0
8311 8312 -8313 0
8311 -8312 8313 0
-8312 7106 7162 0
-8312 -7106 -7162 0
8312 -7106 7162 0
8312 7106 -7162 0
8313 8314 -8315 0
8313 -8314 8315 0
-8313 -8314 -8315 0
-8313 8314 8315 0
8314 -6311 6322 0
-8314 6311 0
-8314 -6322 0
8315 -6254 -6309 0
-8315 6254 0
-8315 6309 0
8316 -8305 -8307 0
8316 -8302 -8307 0
8316 -8302 -8305 0
-8316 8302 8307 0
-8316 8302 8305 0
-8316 8305 8307 0
-8317 8310 8312 0
-8317 8312 8313 0
-8317 8310 8313 0
8317 -8312 -8313 0
8317 -8310 -8312 0
8317 -8310 -8313 0
-8318 8319 8322 0
-8318 -8319 -8322 0
8318 -8319 8322 0
8318 8319 -8322 0
-8319 -8320 -8321 0
-8319 8320 8321 0
8319 8320 -8321 0
8319 -8320 8321 0
-8320 4354 4375 0
8320 -4354 0
8320 -4375 0
8321 4305 -4423 0
-8321 -4305 0
-8321 4423 0
-8322 8323 8324 0
-8322 -8323 -8324 0
8322 -8323 8324 0
8322 8323 -8324 0
-8323 -8165 -8170 0
-8323 8165 8170 0
8323 8165 -8170 0
8323 -8165 8170 0
-8324 8146 8147 0
-8324 -8146 -8147 0
8324 -8146 8147 0
8324 8146 -8147 0
-8325 -8326 -8329 0
-8325 8326 8329 0
8325 8326 -8329 0
8325 -8326 8329 0
-8326 -8327 -8328 0
-8326 8327 8328 0
8326 8327 -8328 0
8326 -8327 8328 0
8327 6252 -8145 0
8327 -6319 6252 0
8327 -6324 6252 0
-8327 -6252 0
-8327 6319 6324 8145 0
8328 7104 -8164 0
8328 -7175 7104 0
8328 -7170 7104 0
-8328 -7104 0
-8328 7170 7175 8164 0
8329 4302 -8330 0
8329 -4411 4302 0
-8329 -4302 0
-8329 4411 8330 0
8330 -4303 -4423 0
-8330 4303 0
-8330 4423 0
-8331 8319 8323 0
-8331 8323 8324 0
-8331 8319 8324 0
8331 -8319 -8324 0
8331 -8323 -8324 0
8331 -8319 -8323 0
8332 -8317 -8318 0
-8332 8317 0
-8332 8318 0
-8333 -8334 -8247 0
-8333 8334 8247 0
8333 8334 -8247 0
8333 -8334 8247 0
-8334 -8245 -8246 0
-8334 8245 8246 0
8334 8245 -8246 0
8334 -8245 8246 0
-8335 8327 8329 0
-8335 8328 8329 0
-8335 8327 8328 0
8335 -8327 -8328 0
8335 -8328 -8329 0
8335 -8327 -8329 0
8336 -8333 -8232 8244 0
8336 -8335 8232 -8244 0
8336 -8335 -8232 8244 0
8336 -8333 8232 -8244 0
-8336 -8232 -8244 0
-8336 8232 8244 0
-8336 8333 8335 0
-8337 8233 8240 0
-8337 8237 8240 0
-8337 8233 8237 0
8337 -8233 -8237 0
8337 -8237 -8240 0
8337 -8233 -8240 0
-8338 8339 8229 0
-8338 -8339 -8229 0
8338 -8339 8229 0
8338 8339 -8229 0
-8339 8227 8228 0
-8339 -8227 -8228 0
8339 -8227 8228 0
8339 8227 -8228 0
8340 -8224 8226 -8338 0
8340 8224 -8226 -8337 0
8340 8224 -8226 -8338 0
8340 -8224 8226 -8337 0
-8340 8224 8226 0
-8340 -8224 -8226 0
-8340 8337 8338 0
8341 -8120 -8343 -8344 0
8341 -8342 -8120 -8343 0
-8341 8120 0
-8341 8343 0
-8341 8342 8344 0
8342 -8101 -8116 0
-8342 8101 0
-8342 8116 0
-8343 8134 8135 0
8343 -8134 0
8343 -8135 0
8344 -8134 -8135 0
-8344 8134 0
-8344 8135 0
-8345 8079 8080 8346 0
-8345 8079 8097 8346 0
8345 -8079 0
8345 -8346 0
8345 -8080 -8097 0
8346 8086 -8087 -8347 0
8346 -8086 8087 -8347 0
-8346 8347 0
-8346 8086 8087 0
-8346 -8086 -8087 0
-8347 8133 8348 0
8347 -8133 0
8347 -8348 0
8348 -8122 -8124 0
-8348 8122 0
-8348 8124 0
8349 -8009 -8034 -8350 0
8349 -8009 -8036 -8350 0
8349 -8009 -8034 -8036 0
-8349 8034 8350 0
-8349 8034 8036 0
-8349 8009 0
-8349 8036 8350 0
8350 -8050 -8054 0
-8350 8050 0
-8350 8054 0
-8351 7988 8352 0
-8351 7990 8352 0
8351 -8352 0
8351 -7988 -7990 0
8352 7995 -8010 -8027 -8353 0
8352 -7995 8010 -8027 -8353 0
-8352 8027 0
-8352 -7995 -8010 0
-8352 8353 0
-8352 7995 8010 0
-8353 8012 8028 0
8353 -8012 0
8353 -8028 0
-8354 7999 8355 0
-8354 7962 8355 0
-8354 7938 8355 0
8354 -8355 0
8354 -7938 -7962 -7999 0
-8355 7817 8356 8357 0
-8355 7841 8356 8357 0
8355 -8357 0
8355 -8356 0
8355 -7817 -7841 0
8356 -7855 -7857 0
-8356 7855 0
-8356 7857 0
8357 -8000 -8002 0
-8357 8000 0
-8357 8002 0
8358 -7863 -7882 -8361 0
8358 -7863 -7882 -8359 0
-8358 7863 0
-8358 7882 0
-8358 8359 8361 0
8359 -7720 -7860 -8360 0
8359 -7720 -7861 -8360 0
8359 -7720 -7860 -7861 0
-8359 7860 7861 0
-8359 7861 8360 0
-8359 7720 0
-8359 7860 8360 0
8360 -7775 -7794 0
-8360 7775 0
-8360 7794 0
-8361 7721 7883 8362 0
-8361 7749 7883 8362 0
8361 -8362 0
8361 -7883 0
8361 -7721 -7749 0
8362 -7884 -7886 0
-8362 7884 0
-8362 7886 0
8363 3636 -3641 0
-8363 -3636 0
-8363 3641 0
-8478 0
2 0
-8363 0

