c Result of efficient AIG-to-CNF conversion using package CNF
p cnf 9933 43890
-2 3 -9644 -9646 9648 0
-2 3 9644 9646 9648 0
2 -9648 0
2 9644 -9646 0
2 -3 0
2 -9644 9646 0
-3 4 5581 0
-3 -4 -5581 0
3 -4 5581 0
3 4 -5581 0
-4 5 5457 0
-4 -5 -5457 0
4 -5 5457 0
4 5 -5457 0
-5 6 7 0
-5 -6 -7 0
5 -6 7 0
5 6 -7 0
6 -9900 -9932 0
-6 9900 0
-6 9932 0
-7 8 5106 0
-7 -8 -5106 0
7 -8 5106 0
7 8 -5106 0
-8 9 5102 0
-8 -9 -5102 0
8 -9 5102 0
8 9 -5102 0
-9 10 4751 0
-9 -10 -4751 0
9 -10 4751 0
9 10 -4751 0
-10 11 4747 0
-10 -11 -4747 0
10 -11 4747 0
10 11 -4747 0
-11 12 4396 0
-11 -12 -4396 0
11 -12 4396 0
11 12 -4396 0
-12 13 4392 0
-12 -13 -4392 0
12 -13 4392 0
12 13 -4392 0
-13 14 4041 0
-13 -14 -4041 0
13 -14 4041 0
13 14 -4041 0
-14 15 4037 0
-14 -15 -4037 0
14 -15 4037 0
14 15 -4037 0
-15 16 3686 0
-15 -16 -3686 0
15 -16 3686 0
15 16 -3686 0
-16 17 3682 0
-16 -17 -3682 0
16 -17 3682 0
16 17 -3682 0
-17 18 3331 0
-17 -18 -3331 0
17 -18 3331 0
17 18 -3331 0
-18 19 3327 0
-18 -19 -3327 0
18 -19 3327 0
18 19 -3327 0
-19 20 2976 0
-19 -20 -2976 0
19 -20 2976 0
19 20 -2976 0
-20 21 2972 0
-20 -21 -2972 0
20 -21 2972 0
20 21 -2972 0
-21 22 2621 0
-21 -22 -2621 0
21 -22 2621 0
21 22 -2621 0
-22 23 2617 0
-22 -23 -2617 0
22 -23 2617 0
22 23 -2617 0
-23 24 2266 0
-23 -24 -2266 0
23 -24 2266 0
23 24 -2266 0
-24 25 2262 0
-24 -25 -2262 0
24 -25 2262 0
24 25 -2262 0
-25 26 1911 0
-25 -26 -1911 0
25 -26 1911 0
25 26 -1911 0
-26 27 1907 0
-26 -27 -1907 0
26 -27 1907 0
26 27 -1907 0
-27 28 1556 0
-27 -28 -1556 0
27 -28 1556 0
27 28 -1556 0
-28 29 1552 0
-28 -29 -1552 0
28 -29 1552 0
28 29 -1552 0
-29 30 1201 0
-29 -30 -1201 0
29 -30 1201 0
29 30 -1201 0
-30 31 1197 0
-30 -31 -1197 0
30 -31 1197 0
30 31 -1197 0
-31 32 846 0
-31 -32 -846 0
31 -32 846 0
31 32 -846 0
-32 33 842 0
-32 -33 -842 0
32 -33 842 0
32 33 -842 0
-33 34 491 0
-33 -34 -491 0
33 -34 491 0
33 34 -491 0
-34 35 487 0
-34 -35 -487 0
34 -35 487 0
34 35 -487 0
-35 36 74 0
-35 -36 -74 0
35 -36 74 0
35 36 -74 0
-36 37 70 0
-36 -37 -70 0
36 -37 70 0
36 37 -70 0
-37 38 0
37 -38 0
38 -9902 -39 0
-38 9902 0
-38 39 0
-39 9900 40 0
39 -9900 0
39 -40 0
-40 9899 41 0
40 -9899 0
40 -41 0
-41 9898 42 0
41 -9898 0
41 -42 0
-42 9897 43 0
42 -9897 0
42 -43 0
-43 9896 44 0
43 -9896 0
43 -44 0
-44 9895 45 0
44 -9895 0
44 -45 0
-45 9894 46 0
45 -9894 0
45 -46 0
-46 9893 47 0
46 -9893 0
46 -47 0
-47 9892 48 0
47 -9892 0
47 -48 0
-48 9891 49 0
48 -9891 0
48 -49 0
-49 9890 50 0
49 -9890 0
49 -50 0
-50 9889 51 0
50 -9889 0
50 -51 0
-51 9888 52 0
51 -9888 0
51 -52 0
-52 9887 53 0
52 -9887 0
52 -53 0
-53 9886 54 0
53 -9886 0
53 -54 0
-54 9885 55 0
54 -9885 0
54 -55 0
-55 9884 56 0
55 -9884 0
55 -56 0
-56 9883 57 0
56 -9883 0
56 -57 0
-57 9882 58 0
57 -9882 0
57 -58 0
-58 9881 59 0
58 -9881 0
58 -59 0
-59 9880 60 0
59 -9880 0
59 -60 0
-60 9879 61 0
60 -9879 0
60 -61 0
-61 9878 62 0
61 -9878 0
61 -62 0
-62 9877 63 0
62 -9877 0
62 -63 0
-63 9876 64 0
63 -9876 0
63 -64 0
-64 9875 65 0
64 -9875 0
64 -65 0
-65 9874 66 0
65 -9874 0
65 -66 0
-66 9873 67 0
66 -9873 0
66 -67 0
-67 9872 68 0
67 -9872 0
67 -68 0
-68 9871 69 0
68 -9871 0
68 -69 0
-69 9869 9870 0
69 -9869 0
69 -9870 0
-70 71 0
70 -71 0
71 -39 -72 0
-71 39 0
-71 72 0
-72 73 0
72 -73 0
73 9903 -9904 0
73 9902 -9904 0
-73 9904 0
-73 -9902 -9903 0
-74 37 75 0
-74 75 481 0
-74 37 481 0
74 -37 -481 0
74 -75 -481 0
74 -37 -75 0
-75 37 76 0
-75 76 473 0
-75 37 473 0
75 -37 -473 0
75 -76 -473 0
75 -37 -76 0
-76 77 81 0
-76 81 465 0
-76 77 465 0
76 -77 -465 0
76 -81 -465 0
76 -77 -81 0
-77 -78 -80 0
-77 78 80 0
77 78 -80 0
77 -78 80 0
-78 79 0
78 -79 0
79 -9901 -9902 0
79 9900 -9902 0
-79 9902 0
-79 -9900 9901 0
80 9900 -9902 40 0
80 9901 -9902 40 0
-80 -40 0
-80 9902 0
-80 -9900 -9901 0
-81 82 86 0
-81 86 457 0
-81 82 457 0
81 -82 -457 0
81 -86 -457 0
81 -82 -86 0
-82 -83 -85 0
-82 83 85 0
82 83 -85 0
82 -83 85 0
-83 9902 84 0
-83 -9902 -84 0
83 -9902 84 0
83 9902 -84 0
-84 9901 9902 0
-84 9900 -9901 0
-84 9899 9901 0
84 -9900 -9901 0
84 -9899 9901 -9902 0
85 9899 -9902 41 0
85 9901 -9902 41 0
-85 -41 0
-85 9902 0
-85 -9899 -9901 0
-86 87 91 0
-86 91 449 0
-86 87 449 0
86 -87 -449 0
86 -91 -449 0
86 -87 -91 0
-87 -88 -90 0
-87 88 90 0
87 88 -90 0
87 -88 90 0
-88 9902 89 0
-88 -9902 -89 0
88 -9902 89 0
88 9902 -89 0
-89 9901 9902 0
-89 9899 -9901 0
-89 9898 9901 0
89 -9899 -9901 0
89 -9898 9901 -9902 0
90 9898 -9902 42 0
90 9901 -9902 42 0
-90 -42 0
-90 9902 0
-90 -9898 -9901 0
-91 92 96 0
-91 96 441 0
-91 92 441 0
91 -92 -441 0
91 -96 -441 0
91 -92 -96 0
-92 -93 -95 0
-92 93 95 0
92 93 -95 0
92 -93 95 0
-93 9902 94 0
-93 -9902 -94 0
93 -9902 94 0
93 9902 -94 0
-94 9901 9902 0
-94 9898 -9901 0
-94 9897 9901 0
94 -9898 -9901 0
94 -9897 9901 -9902 0
95 9897 -9902 43 0
95 9901 -9902 43 0
-95 -43 0
-95 9902 0
-95 -9897 -9901 0
-96 97 101 0
-96 101 433 0
-96 97 433 0
96 -97 -433 0
96 -101 -433 0
96 -97 -101 0
-97 -98 -100 0
-97 98 100 0
97 98 -100 0
97 -98 100 0
-98 9902 99 0
-98 -9902 -99 0
98 -9902 99 0
98 9902 -99 0
-99 9901 9902 0
-99 9897 -9901 0
-99 9896 9901 0
99 -9897 -9901 0
99 -9896 9901 -9902 0
100 9896 -9902 44 0
100 9901 -9902 44 0
-100 -44 0
-100 9902 0
-100 -9896 -9901 0
-101 102 106 0
-101 106 425 0
-101 102 425 0
101 -102 -425 0
101 -106 -425 0
101 -102 -106 0
-102 -103 -105 0
-102 103 105 0
102 103 -105 0
102 -103 105 0
-103 9902 104 0
-103 -9902 -104 0
103 -9902 104 0
103 9902 -104 0
-104 9901 9902 0
-104 9896 -9901 0
-104 9895 9901 0
104 -9896 -9901 0
104 -9895 9901 -9902 0
105 9895 -9902 45 0
105 9901 -9902 45 0
-105 -45 0
-105 9902 0
-105 -9895 -9901 0
-106 107 111 0
-106 111 417 0
-106 107 417 0
106 -107 -417 0
106 -111 -417 0
106 -107 -111 0
-107 -108 -110 0
-107 108 110 0
107 108 -110 0
107 -108 110 0
-108 9902 109 0
-108 -9902 -109 0
108 -9902 109 0
108 9902 -109 0
-109 9901 9902 0
-109 9895 -9901 0
-109 9894 9901 0
109 -9895 -9901 0
109 -9894 9901 -9902 0
110 9894 -9902 46 0
110 9901 -9902 46 0
-110 -46 0
-110 9902 0
-110 -9894 -9901 0
-111 112 116 0
-111 116 409 0
-111 112 409 0
111 -112 -409 0
111 -116 -409 0
111 -112 -116 0
-112 -113 -115 0
-112 113 115 0
112 113 -115 0
112 -113 115 0
-113 9902 114 0
-113 -9902 -114 0
113 -9902 114 0
113 9902 -114 0
-114 9901 9902 0
-114 9894 -9901 0
-114 9893 9901 0
114 -9894 -9901 0
114 -9893 9901 -9902 0
115 9893 -9902 47 0
115 9901 -9902 47 0
-115 -47 0
-115 9902 0
-115 -9893 -9901 0
-116 117 121 0
-116 121 401 0
-116 117 401 0
116 -117 -401 0
116 -121 -401 0
116 -117 -121 0
-117 -118 -120 0
-117 118 120 0
117 118 -120 0
117 -118 120 0
-118 9902 119 0
-118 -9902 -119 0
118 -9902 119 0
118 9902 -119 0
-119 9901 9902 0
-119 9893 -9901 0
-119 9892 9901 0
119 -9893 -9901 0
119 -9892 9901 -9902 0
120 9892 -9902 48 0
120 9901 -9902 48 0
-120 -48 0
-120 9902 0
-120 -9892 -9901 0
-121 122 126 0
-121 126 393 0
-121 122 393 0
121 -122 -393 0
121 -126 -393 0
121 -122 -126 0
-122 -123 -125 0
-122 123 125 0
122 123 -125 0
122 -123 125 0
-123 9902 124 0
-123 -9902 -124 0
123 -9902 124 0
123 9902 -124 0
-124 9901 9902 0
-124 9892 -9901 0
-124 9891 9901 0
124 -9892 -9901 0
124 -9891 9901 -9902 0
125 9891 -9902 49 0
125 9901 -9902 49 0
-125 -49 0
-125 9902 0
-125 -9891 -9901 0
-126 127 131 0
-126 131 385 0
-126 127 385 0
126 -127 -385 0
126 -131 -385 0
126 -127 -131 0
-127 -128 -130 0
-127 128 130 0
127 128 -130 0
127 -128 130 0
-128 9902 129 0
-128 -9902 -129 0
128 -9902 129 0
128 9902 -129 0
-129 9901 9902 0
-129 9891 -9901 0
-129 9890 9901 0
129 -9891 -9901 0
129 -9890 9901 -9902 0
130 9890 -9902 50 0
130 9901 -9902 50 0
-130 -50 0
-130 9902 0
-130 -9890 -9901 0
-131 132 136 0
-131 136 377 0
-131 132 377 0
131 -132 -377 0
131 -136 -377 0
131 -132 -136 0
-132 -133 -135 0
-132 133 135 0
132 133 -135 0
132 -133 135 0
-133 9902 134 0
-133 -9902 -134 0
133 -9902 134 0
133 9902 -134 0
-134 9901 9902 0
-134 9890 -9901 0
-134 9889 9901 0
134 -9890 -9901 0
134 -9889 9901 -9902 0
135 9889 -9902 51 0
135 9901 -9902 51 0
-135 -51 0
-135 9902 0
-135 -9889 -9901 0
-136 137 141 0
-136 141 369 0
-136 137 369 0
136 -137 -369 0
136 -141 -369 0
136 -137 -141 0
-137 -138 -140 0
-137 138 140 0
137 138 -140 0
137 -138 140 0
-138 9902 139 0
-138 -9902 -139 0
138 -9902 139 0
138 9902 -139 0
-139 9901 9902 0
-139 9889 -9901 0
-139 9888 9901 0
139 -9889 -9901 0
139 -9888 9901 -9902 0
140 9888 -9902 52 0
140 9901 -9902 52 0
-140 -52 0
-140 9902 0
-140 -9888 -9901 0
-141 142 146 0
-141 146 361 0
-141 142 361 0
141 -142 -361 0
141 -146 -361 0
141 -142 -146 0
-142 -143 -145 0
-142 143 145 0
142 143 -145 0
142 -143 145 0
-143 9902 144 0
-143 -9902 -144 0
143 -9902 144 0
143 9902 -144 0
-144 9901 9902 0
-144 9888 -9901 0
-144 9887 9901 0
144 -9888 -9901 0
144 -9887 9901 -9902 0
145 9887 -9902 53 0
145 9901 -9902 53 0
-145 -53 0
-145 9902 0
-145 -9887 -9901 0
-146 147 151 0
-146 151 353 0
-146 147 353 0
146 -147 -353 0
146 -151 -353 0
146 -147 -151 0
-147 -148 -150 0
-147 148 150 0
147 148 -150 0
147 -148 150 0
-148 9902 149 0
-148 -9902 -149 0
148 -9902 149 0
148 9902 -149 0
-149 9901 9902 0
-149 9887 -9901 0
-149 9886 9901 0
149 -9887 -9901 0
149 -9886 9901 -9902 0
150 9886 -9902 54 0
150 9901 -9902 54 0
-150 -54 0
-150 9902 0
-150 -9886 -9901 0
-151 152 156 0
-151 156 345 0
-151 152 345 0
151 -152 -345 0
151 -156 -345 0
151 -152 -156 0
-152 -153 -155 0
-152 153 155 0
152 153 -155 0
152 -153 155 0
-153 9902 154 0
-153 -9902 -154 0
153 -9902 154 0
153 9902 -154 0
-154 9901 9902 0
-154 9886 -9901 0
-154 9885 9901 0
154 -9886 -9901 0
154 -9885 9901 -9902 0
155 9885 -9902 55 0
155 9901 -9902 55 0
-155 -55 0
-155 9902 0
-155 -9885 -9901 0
-156 157 161 0
-156 161 337 0
-156 157 337 0
156 -157 -337 0
156 -161 -337 0
156 -157 -161 0
-157 -158 -160 0
-157 158 160 0
157 158 -160 0
157 -158 160 0
-158 9902 159 0
-158 -9902 -159 0
158 -9902 159 0
158 9902 -159 0
-159 9901 9902 0
-159 9885 -9901 0
-159 9884 9901 0
159 -9885 -9901 0
159 -9884 9901 -9902 0
160 9884 -9902 56 0
160 9901 -9902 56 0
-160 -56 0
-160 9902 0
-160 -9884 -9901 0
-161 162 166 0
-161 166 329 0
-161 162 329 0
161 -162 -329 0
161 -166 -329 0
161 -162 -166 0
-162 -163 -165 0
-162 163 165 0
162 163 -165 0
162 -163 165 0
-163 9902 164 0
-163 -9902 -164 0
163 -9902 164 0
163 9902 -164 0
-164 9901 9902 0
-164 9884 -9901 0
-164 9883 9901 0
164 -9884 -9901 0
164 -9883 9901 -9902 0
165 9883 -9902 57 0
165 9901 -9902 57 0
-165 -57 0
-165 9902 0
-165 -9883 -9901 0
-166 167 171 0
-166 171 321 0
-166 167 321 0
166 -167 -321 0
166 -171 -321 0
166 -167 -171 0
-167 -168 -170 0
-167 168 170 0
167 168 -170 0
167 -168 170 0
-168 9902 169 0
-168 -9902 -169 0
168 -9902 169 0
168 9902 -169 0
-169 9901 9902 0
-169 9883 -9901 0
-169 9882 9901 0
169 -9883 -9901 0
169 -9882 9901 -9902 0
170 9882 -9902 58 0
170 9901 -9902 58 0
-170 -58 0
-170 9902 0
-170 -9882 -9901 0
-171 172 176 0
-171 176 313 0
-171 172 313 0
171 -172 -313 0
171 -176 -313 0
171 -172 -176 0
-172 -173 -175 0
-172 173 175 0
172 173 -175 0
172 -173 175 0
-173 9902 174 0
-173 -9902 -174 0
173 -9902 174 0
173 9902 -174 0
-174 9901 9902 0
-174 9882 -9901 0
-174 9881 9901 0
174 -9882 -9901 0
174 -9881 9901 -9902 0
175 9881 -9902 59 0
175 9901 -9902 59 0
-175 -59 0
-175 9902 0
-175 -9881 -9901 0
-176 177 181 0
-176 181 305 0
-176 177 305 0
176 -177 -305 0
176 -181 -305 0
176 -177 -181 0
-177 -178 -180 0
-177 178 180 0
177 178 -180 0
177 -178 180 0
-178 9902 179 0
-178 -9902 -179 0
178 -9902 179 0
178 9902 -179 0
-179 9901 9902 0
-179 9881 -9901 0
-179 9880 9901 0
179 -9881 -9901 0
179 -9880 9901 -9902 0
180 9880 -9902 60 0
180 9901 -9902 60 0
-180 -60 0
-180 9902 0
-180 -9880 -9901 0
-181 182 186 0
-181 186 297 0
-181 182 297 0
181 -182 -297 0
181 -186 -297 0
181 -182 -186 0
-182 -183 -185 0
-182 183 185 0
182 183 -185 0
182 -183 185 0
-183 9902 184 0
-183 -9902 -184 0
183 -9902 184 0
183 9902 -184 0
-184 9901 9902 0
-184 9880 -9901 0
-184 9879 9901 0
184 -9880 -9901 0
184 -9879 9901 -9902 0
185 9879 -9902 61 0
185 9901 -9902 61 0
-185 -61 0
-185 9902 0
-185 -9879 -9901 0
-186 187 191 0
-186 191 289 0
-186 187 289 0
186 -187 -289 0
186 -191 -289 0
186 -187 -191 0
-187 -188 -190 0
-187 188 190 0
187 188 -190 0
187 -188 190 0
-188 9902 189 0
-188 -9902 -189 0
188 -9902 189 0
188 9902 -189 0
-189 9901 9902 0
-189 9879 -9901 0
-189 9878 9901 0
189 -9879 -9901 0
189 -9878 9901 -9902 0
190 9878 -9902 62 0
190 9901 -9902 62 0
-190 -62 0
-190 9902 0
-190 -9878 -9901 0
-191 192 196 0
-191 196 281 0
-191 192 281 0
191 -192 -281 0
191 -196 -281 0
191 -192 -196 0
-192 -193 -195 0
-192 193 195 0
192 193 -195 0
192 -193 195 0
-193 9902 194 0
-193 -9902 -194 0
193 -9902 194 0
193 9902 -194 0
-194 9901 9902 0
-194 9878 -9901 0
-194 9877 9901 0
194 -9878 -9901 0
194 -9877 9901 -9902 0
195 9877 -9902 63 0
195 9901 -9902 63 0
-195 -63 0
-195 9902 0
-195 -9877 -9901 0
-196 197 201 0
-196 201 273 0
-196 197 273 0
196 -197 -273 0
196 -201 -273 0
196 -197 -201 0
-197 -198 -200 0
-197 198 200 0
197 198 -200 0
197 -198 200 0
-198 9902 199 0
-198 -9902 -199 0
198 -9902 199 0
198 9902 -199 0
-199 9901 9902 0
-199 9877 -9901 0
-199 9876 9901 0
199 -9877 -9901 0
199 -9876 9901 -9902 0
200 9876 -9902 64 0
200 9901 -9902 64 0
-200 -64 0
-200 9902 0
-200 -9876 -9901 0
-201 202 206 0
-201 206 265 0
-201 202 265 0
201 -202 -265 0
201 -206 -265 0
201 -202 -206 0
-202 -203 -205 0
-202 203 205 0
202 203 -205 0
202 -203 205 0
-203 9902 204 0
-203 -9902 -204 0
203 -9902 204 0
203 9902 -204 0
-204 9901 9902 0
-204 9876 -9901 0
-204 9875 9901 0
204 -9876 -9901 0
204 -9875 9901 -9902 0
205 9875 -9902 65 0
205 9901 -9902 65 0
-205 -65 0
-205 9902 0
-205 -9875 -9901 0
-206 207 211 0
-206 211 257 0
-206 207 257 0
206 -207 -257 0
206 -211 -257 0
206 -207 -211 0
-207 -208 -210 0
-207 208 210 0
207 208 -210 0
207 -208 210 0
-208 9902 209 0
-208 -9902 -209 0
208 -9902 209 0
208 9902 -209 0
-209 9901 9902 0
-209 9875 -9901 0
-209 9874 9901 0
209 -9875 -9901 0
209 -9874 9901 -9902 0
210 9874 -9902 66 0
210 9901 -9902 66 0
-210 -66 0
-210 9902 0
-210 -9874 -9901 0
-211 212 216 0
-211 216 249 0
-211 212 249 0
211 -212 -249 0
211 -216 -249 0
211 -212 -216 0
-212 -213 -215 0
-212 213 215 0
212 213 -215 0
212 -213 215 0
-213 9902 214 0
-213 -9902 -214 0
213 -9902 214 0
213 9902 -214 0
-214 9901 9902 0
-214 9874 -9901 0
-214 9873 9901 0
214 -9874 -9901 0
214 -9873 9901 -9902 0
215 9873 -9902 67 0
215 9901 -9902 67 0
-215 -67 0
-215 9902 0
-215 -9873 -9901 0
-216 217 221 0
-216 221 241 0
-216 217 241 0
216 -217 -241 0
216 -221 -241 0
216 -217 -221 0
-217 -218 -220 0
-217 218 220 0
217 218 -220 0
217 -218 220 0
-218 9902 219 0
-218 -9902 -219 0
218 -9902 219 0
218 9902 -219 0
-219 9901 9902 0
-219 9873 -9901 0
-219 9872 9901 0
219 -9873 -9901 0
219 -9872 9901 -9902 0
220 9872 -9902 68 0
220 9901 -9902 68 0
-220 -68 0
-220 9902 0
-220 -9872 -9901 0
-221 222 233 0
-221 222 226 0
-221 226 233 0
221 -226 -233 0
221 -222 -233 0
221 -222 -226 0
-222 -223 -225 0
-222 223 225 0
222 223 -225 0
222 -223 225 0
-223 9902 224 0
-223 -9902 -224 0
223 -9902 224 0
223 9902 -224 0
-224 9901 9902 0
-224 9872 -9901 0
-224 9871 9901 0
224 -9872 -9901 0
224 -9871 9901 -9902 0
225 9871 -9902 69 0
225 9901 -9902 69 0
-225 -69 0
-225 9902 0
-225 -9871 -9901 0
226 -227 -229 0
-226 227 0
-226 229 0
227 -9869 -228 0
-227 9869 0
-227 228 0
-228 -9902 -9903 0
-228 9902 9903 0
228 9902 -9903 0
228 -9902 9903 0
-229 -230 -232 0
-229 230 232 0
229 230 -232 0
229 -230 232 0
-230 9902 231 0
-230 -9902 -231 0
230 -9902 231 0
230 9902 -231 0
-231 9901 9902 0
-231 9871 -9901 0
-231 9870 9901 0
231 -9871 -9901 0
231 -9870 9901 -9902 0
232 9869 9870 -9902 0
232 9869 9901 -9902 0
-232 -9869 0
-232 9902 0
-232 -9870 -9901 0
-233 -234 -239 0
-233 234 239 0
233 234 -239 0
233 -234 239 0
-234 72 235 0
-234 -72 -235 0
234 -72 235 0
234 72 -235 0
-235 -236 -237 0
-235 236 237 0
235 236 -237 0
235 -236 237 0
236 -9870 -228 0
-236 9870 0
-236 228 0
237 -9869 -238 0
-237 9869 0
-237 238 0
-238 -9902 -9904 0
-238 9903 9904 0
-238 9902 -9903 0
238 -9902 -9903 9904 0
238 9902 9903 -9904 0
239 -72 238 -240 0
239 -72 -238 240 0
-239 72 0
-239 238 240 0
-239 -238 -240 0
240 9869 -228 0
-240 -9869 0
-240 228 0
-241 -242 -246 0
-241 242 246 0
241 242 -246 0
241 -242 246 0
-242 72 243 0
-242 -72 -243 0
242 -72 243 0
242 72 -243 0
-243 -244 -245 0
-243 244 245 0
243 244 -245 0
243 -244 245 0
244 -9871 -228 0
-244 9871 0
-244 228 0
245 -9870 -238 0
-245 9870 0
-245 238 0
246 -72 -247 248 0
246 -72 247 -248 0
-246 72 0
-246 -247 -248 0
-246 247 248 0
247 69 -228 0
-247 -69 0
-247 228 0
248 9869 -238 0
-248 -9869 0
-248 238 0
-249 -250 -254 0
-249 250 254 0
249 250 -254 0
249 -250 254 0
-250 72 251 0
-250 -72 -251 0
250 -72 251 0
250 72 -251 0
-251 -252 -253 0
-251 252 253 0
251 252 -253 0
251 -252 253 0
252 -9872 -228 0
-252 9872 0
-252 228 0
253 -9871 -238 0
-253 9871 0
-253 238 0
254 -72 -255 256 0
254 -72 255 -256 0
-254 72 0
-254 -255 -256 0
-254 255 256 0
255 68 -228 0
-255 -68 0
-255 228 0
256 69 -238 0
-256 -69 0
-256 238 0
-257 -258 -262 0
-257 258 262 0
257 258 -262 0
257 -258 262 0
-258 72 259 0
-258 -72 -259 0
258 -72 259 0
258 72 -259 0
-259 -260 -261 0
-259 260 261 0
259 260 -261 0
259 -260 261 0
260 -9873 -228 0
-260 9873 0
-260 228 0
261 -9872 -238 0
-261 9872 0
-261 238 0
262 -72 -263 264 0
262 -72 263 -264 0
-262 72 0
-262 -263 -264 0
-262 263 264 0
263 67 -228 0
-263 -67 0
-263 228 0
264 68 -238 0
-264 -68 0
-264 238 0
-265 -266 -270 0
-265 266 270 0
265 266 -270 0
265 -266 270 0
-266 72 267 0
-266 -72 -267 0
266 -72 267 0
266 72 -267 0
-267 -268 -269 0
-267 268 269 0
267 268 -269 0
267 -268 269 0
268 -9874 -228 0
-268 9874 0
-268 228 0
269 -9873 -238 0
-269 9873 0
-269 238 0
270 -72 -271 272 0
270 -72 271 -272 0
-270 72 0
-270 -271 -272 0
-270 271 272 0
271 66 -228 0
-271 -66 0
-271 228 0
272 67 -238 0
-272 -67 0
-272 238 0
-273 -274 -278 0
-273 274 278 0
273 274 -278 0
273 -274 278 0
-274 72 275 0
-274 -72 -275 0
274 -72 275 0
274 72 -275 0
-275 -276 -277 0
-275 276 277 0
275 276 -277 0
275 -276 277 0
276 -9875 -228 0
-276 9875 0
-276 228 0
277 -9874 -238 0
-277 9874 0
-277 238 0
278 -72 -279 280 0
278 -72 279 -280 0
-278 72 0
-278 -279 -280 0
-278 279 280 0
279 65 -228 0
-279 -65 0
-279 228 0
280 66 -238 0
-280 -66 0
-280 238 0
-281 -282 -286 0
-281 282 286 0
281 282 -286 0
281 -282 286 0
-282 72 283 0
-282 -72 -283 0
282 -72 283 0
282 72 -283 0
-283 -284 -285 0
-283 284 285 0
283 284 -285 0
283 -284 285 0
284 -9876 -228 0
-284 9876 0
-284 228 0
285 -9875 -238 0
-285 9875 0
-285 238 0
286 -72 -287 288 0
286 -72 287 -288 0
-286 72 0
-286 -287 -288 0
-286 287 288 0
287 64 -228 0
-287 -64 0
-287 228 0
288 65 -238 0
-288 -65 0
-288 238 0
-289 -290 -294 0
-289 290 294 0
289 290 -294 0
289 -290 294 0
-290 72 291 0
-290 -72 -291 0
290 -72 291 0
290 72 -291 0
-291 -292 -293 0
-291 292 293 0
291 292 -293 0
291 -292 293 0
292 -9877 -228 0
-292 9877 0
-292 228 0
293 -9876 -238 0
-293 9876 0
-293 238 0
294 -72 -295 296 0
294 -72 295 -296 0
-294 72 0
-294 -295 -296 0
-294 295 296 0
295 63 -228 0
-295 -63 0
-295 228 0
296 64 -238 0
-296 -64 0
-296 238 0
-297 -298 -302 0
-297 298 302 0
297 298 -302 0
297 -298 302 0
-298 72 299 0
-298 -72 -299 0
298 -72 299 0
298 72 -299 0
-299 -300 -301 0
-299 300 301 0
299 300 -301 0
299 -300 301 0
300 -9878 -228 0
-300 9878 0
-300 228 0
301 -9877 -238 0
-301 9877 0
-301 238 0
302 -72 -303 304 0
302 -72 303 -304 0
-302 72 0
-302 -303 -304 0
-302 303 304 0
303 62 -228 0
-303 -62 0
-303 228 0
304 63 -238 0
-304 -63 0
-304 238 0
-305 -306 -310 0
-305 306 310 0
305 306 -310 0
305 -306 310 0
-306 72 307 0
-306 -72 -307 0
306 -72 307 0
306 72 -307 0
-307 -308 -309 0
-307 308 309 0
307 308 -309 0
307 -308 309 0
308 -9879 -228 0
-308 9879 0
-308 228 0
309 -9878 -238 0
-309 9878 0
-309 238 0
310 -72 -311 312 0
310 -72 311 -312 0
-310 72 0
-310 -311 -312 0
-310 311 312 0
311 61 -228 0
-311 -61 0
-311 228 0
312 62 -238 0
-312 -62 0
-312 238 0
-313 -314 -318 0
-313 314 318 0
313 314 -318 0
313 -314 318 0
-314 72 315 0
-314 -72 -315 0
314 -72 315 0
314 72 -315 0
-315 -316 -317 0
-315 316 317 0
315 316 -317 0
315 -316 317 0
316 -9880 -228 0
-316 9880 0
-316 228 0
317 -9879 -238 0
-317 9879 0
-317 238 0
318 -72 -319 320 0
318 -72 319 -320 0
-318 72 0
-318 -319 -320 0
-318 319 320 0
319 60 -228 0
-319 -60 0
-319 228 0
320 61 -238 0
-320 -61 0
-320 238 0
-321 -322 -326 0
-321 322 326 0
321 322 -326 0
321 -322 326 0
-322 72 323 0
-322 -72 -323 0
322 -72 323 0
322 72 -323 0
-323 -324 -325 0
-323 324 325 0
323 324 -325 0
323 -324 325 0
324 -9881 -228 0
-324 9881 0
-324 228 0
325 -9880 -238 0
-325 9880 0
-325 238 0
326 -72 -327 328 0
326 -72 327 -328 0
-326 72 0
-326 -327 -328 0
-326 327 328 0
327 59 -228 0
-327 -59 0
-327 228 0
328 60 -238 0
-328 -60 0
-328 238 0
-329 -330 -334 0
-329 330 334 0
329 330 -334 0
329 -330 334 0
-330 72 331 0
-330 -72 -331 0
330 -72 331 0
330 72 -331 0
-331 -332 -333 0
-331 332 333 0
331 332 -333 0
331 -332 333 0
332 -9882 -228 0
-332 9882 0
-332 228 0
333 -9881 -238 0
-333 9881 0
-333 238 0
334 -72 -335 336 0
334 -72 335 -336 0
-334 72 0
-334 -335 -336 0
-334 335 336 0
335 58 -228 0
-335 -58 0
-335 228 0
336 59 -238 0
-336 -59 0
-336 238 0
-337 -338 -342 0
-337 338 342 0
337 338 -342 0
337 -338 342 0
-338 72 339 0
-338 -72 -339 0
338 -72 339 0
338 72 -339 0
-339 -340 -341 0
-339 340 341 0
339 340 -341 0
339 -340 341 0
340 -9883 -228 0
-340 9883 0
-340 228 0
341 -9882 -238 0
-341 9882 0
-341 238 0
342 -72 -343 344 0
342 -72 343 -344 0
-342 72 0
-342 -343 -344 0
-342 343 344 0
343 57 -228 0
-343 -57 0
-343 228 0
344 58 -238 0
-344 -58 0
-344 238 0
-345 -346 -350 0
-345 346 350 0
345 346 -350 0
345 -346 350 0
-346 72 347 0
-346 -72 -347 0
346 -72 347 0
346 72 -347 0
-347 -348 -349 0
-347 348 349 0
347 348 -349 0
347 -348 349 0
348 -9884 -228 0
-348 9884 0
-348 228 0
349 -9883 -238 0
-349 9883 0
-349 238 0
350 -72 -351 352 0
350 -72 351 -352 0
-350 72 0
-350 -351 -352 0
-350 351 352 0
351 56 -228 0
-351 -56 0
-351 228 0
352 57 -238 0
-352 -57 0
-352 238 0
-353 -354 -358 0
-353 354 358 0
353 354 -358 0
353 -354 358 0
-354 72 355 0
-354 -72 -355 0
354 -72 355 0
354 72 -355 0
-355 -356 -357 0
-355 356 357 0
355 356 -357 0
355 -356 357 0
356 -9885 -228 0
-356 9885 0
-356 228 0
357 -9884 -238 0
-357 9884 0
-357 238 0
358 -72 -359 360 0
358 -72 359 -360 0
-358 72 0
-358 -359 -360 0
-358 359 360 0
359 55 -228 0
-359 -55 0
-359 228 0
360 56 -238 0
-360 -56 0
-360 238 0
-361 -362 -366 0
-361 362 366 0
361 362 -366 0
361 -362 366 0
-362 72 363 0
-362 -72 -363 0
362 -72 363 0
362 72 -363 0
-363 -364 -365 0
-363 364 365 0
363 364 -365 0
363 -364 365 0
364 -9886 -228 0
-364 9886 0
-364 228 0
365 -9885 -238 0
-365 9885 0
-365 238 0
366 -72 -367 368 0
366 -72 367 -368 0
-366 72 0
-366 -367 -368 0
-366 367 368 0
367 54 -228 0
-367 -54 0
-367 228 0
368 55 -238 0
-368 -55 0
-368 238 0
-369 -370 -374 0
-369 370 374 0
369 370 -374 0
369 -370 374 0
-370 72 371 0
-370 -72 -371 0
370 -72 371 0
370 72 -371 0
-371 -372 -373 0
-371 372 373 0
371 372 -373 0
371 -372 373 0
372 -9887 -228 0
-372 9887 0
-372 228 0
373 -9886 -238 0
-373 9886 0
-373 238 0
374 -72 -375 376 0
374 -72 375 -376 0
-374 72 0
-374 -375 -376 0
-374 375 376 0
375 53 -228 0
-375 -53 0
-375 228 0
376 54 -238 0
-376 -54 0
-376 238 0
-377 -378 -382 0
-377 378 382 0
377 378 -382 0
377 -378 382 0
-378 72 379 0
-378 -72 -379 0
378 -72 379 0
378 72 -379 0
-379 -380 -381 0
-379 380 381 0
379 380 -381 0
379 -380 381 0
380 -9888 -228 0
-380 9888 0
-380 228 0
381 -9887 -238 0
-381 9887 0
-381 238 0
382 -72 -383 384 0
382 -72 383 -384 0
-382 72 0
-382 -383 -384 0
-382 383 384 0
383 52 -228 0
-383 -52 0
-383 228 0
384 53 -238 0
-384 -53 0
-384 238 0
-385 -386 -390 0
-385 386 390 0
385 386 -390 0
385 -386 390 0
-386 72 387 0
-386 -72 -387 0
386 -72 387 0
386 72 -387 0
-387 -388 -389 0
-387 388 389 0
387 388 -389 0
387 -388 389 0
388 -9889 -228 0
-388 9889 0
-388 228 0
389 -9888 -238 0
-389 9888 0
-389 238 0
390 -72 -391 392 0
390 -72 391 -392 0
-390 72 0
-390 -391 -392 0
-390 391 392 0
391 51 -228 0
-391 -51 0
-391 228 0
392 52 -238 0
-392 -52 0
-392 238 0
-393 -394 -398 0
-393 394 398 0
393 394 -398 0
393 -394 398 0
-394 72 395 0
-394 -72 -395 0
394 -72 395 0
394 72 -395 0
-395 -396 -397 0
-395 396 397 0
395 396 -397 0
395 -396 397 0
396 -9890 -228 0
-396 9890 0
-396 228 0
397 -9889 -238 0
-397 9889 0
-397 238 0
398 -72 -399 400 0
398 -72 399 -400 0
-398 72 0
-398 -399 -400 0
-398 399 400 0
399 50 -228 0
-399 -50 0
-399 228 0
400 51 -238 0
-400 -51 0
-400 238 0
-401 -402 -406 0
-401 402 406 0
401 402 -406 0
401 -402 406 0
-402 72 403 0
-402 -72 -403 0
402 -72 403 0
402 72 -403 0
-403 -404 -405 0
-403 404 405 0
403 404 -405 0
403 -404 405 0
404 -9891 -228 0
-404 9891 0
-404 228 0
405 -9890 -238 0
-405 9890 0
-405 238 0
406 -72 -407 408 0
406 -72 407 -408 0
-406 72 0
-406 -407 -408 0
-406 407 408 0
407 49 -228 0
-407 -49 0
-407 228 0
408 50 -238 0
-408 -50 0
-408 238 0
-409 -410 -414 0
-409 410 414 0
409 410 -414 0
409 -410 414 0
-410 72 411 0
-410 -72 -411 0
410 -72 411 0
410 72 -411 0
-411 -412 -413 0
-411 412 413 0
411 412 -413 0
411 -412 413 0
412 -9892 -228 0
-412 9892 0
-412 228 0
413 -9891 -238 0
-413 9891 0
-413 238 0
414 -72 -415 416 0
414 -72 415 -416 0
-414 72 0
-414 -415 -416 0
-414 415 416 0
415 48 -228 0
-415 -48 0
-415 228 0
416 49 -238 0
-416 -49 0
-416 238 0
-417 -418 -422 0
-417 418 422 0
417 418 -422 0
417 -418 422 0
-418 72 419 0
-418 -72 -419 0
418 -72 419 0
418 72 -419 0
-419 -420 -421 0
-419 420 421 0
419 420 -421 0
419 -420 421 0
420 -9893 -228 0
-420 9893 0
-420 228 0
421 -9892 -238 0
-421 9892 0
-421 238 0
422 -72 -423 424 0
422 -72 423 -424 0
-422 72 0
-422 -423 -424 0
-422 423 424 0
423 47 -228 0
-423 -47 0
-423 228 0
424 48 -238 0
-424 -48 0
-424 238 0
-425 -426 -430 0
-425 426 430 0
425 426 -430 0
425 -426 430 0
-426 72 427 0
-426 -72 -427 0
426 -72 427 0
426 72 -427 0
-427 -428 -429 0
-427 428 429 0
427 428 -429 0
427 -428 429 0
428 -9894 -228 0
-428 9894 0
-428 228 0
429 -9893 -238 0
-429 9893 0
-429 238 0
430 -72 -431 432 0
430 -72 431 -432 0
-430 72 0
-430 -431 -432 0
-430 431 432 0
431 46 -228 0
-431 -46 0
-431 228 0
432 47 -238 0
-432 -47 0
-432 238 0
-433 -434 -438 0
-433 434 438 0
433 434 -438 0
433 -434 438 0
-434 72 435 0
-434 -72 -435 0
434 -72 435 0
434 72 -435 0
-435 -436 -437 0
-435 436 437 0
435 436 -437 0
435 -436 437 0
436 -9895 -228 0
-436 9895 0
-436 228 0
437 -9894 -238 0
-437 9894 0
-437 238 0
438 -72 -439 440 0
438 -72 439 -440 0
-438 72 0
-438 -439 -440 0
-438 439 440 0
439 45 -228 0
-439 -45 0
-439 228 0
440 46 -238 0
-440 -46 0
-440 238 0
-441 -442 -446 0
-441 442 446 0
441 442 -446 0
441 -442 446 0
-442 72 443 0
-442 -72 -443 0
442 -72 443 0
442 72 -443 0
-443 -444 -445 0
-443 444 445 0
443 444 -445 0
443 -444 445 0
444 -9896 -228 0
-444 9896 0
-444 228 0
445 -9895 -238 0
-445 9895 0
-445 238 0
446 -72 -447 448 0
446 -72 447 -448 0
-446 72 0
-446 -447 -448 0
-446 447 448 0
447 44 -228 0
-447 -44 0
-447 228 0
448 45 -238 0
-448 -45 0
-448 238 0
-449 -450 -454 0
-449 450 454 0
449 450 -454 0
449 -450 454 0
-450 72 451 0
-450 -72 -451 0
450 -72 451 0
450 72 -451 0
-451 -452 -453 0
-451 452 453 0
451 452 -453 0
451 -452 453 0
452 -9897 -228 0
-452 9897 0
-452 228 0
453 -9896 -238 0
-453 9896 0
-453 238 0
454 -72 -455 456 0
454 -72 455 -456 0
-454 72 0
-454 -455 -456 0
-454 455 456 0
455 43 -228 0
-455 -43 0
-455 228 0
456 44 -238 0
-456 -44 0
-456 238 0
-457 -458 -462 0
-457 458 462 0
457 458 -462 0
457 -458 462 0
-458 72 459 0
-458 -72 -459 0
458 -72 459 0
458 72 -459 0
-459 -460 -461 0
-459 460 461 0
459 460 -461 0
459 -460 461 0
460 -9898 -228 0
-460 9898 0
-460 228 0
461 -9897 -238 0
-461 9897 0
-461 238 0
462 -72 -463 464 0
462 -72 463 -464 0
-462 72 0
-462 -463 -464 0
-462 463 464 0
463 42 -228 0
-463 -42 0
-463 228 0
464 43 -238 0
-464 -43 0
-464 238 0
-465 -466 -470 0
-465 466 470 0
465 466 -470 0
465 -466 470 0
-466 72 467 0
-466 -72 -467 0
466 -72 467 0
466 72 -467 0
-467 -468 -469 0
-467 468 469 0
467 468 -469 0
467 -468 469 0
468 -9899 -228 0
-468 9899 0
-468 228 0
469 -9898 -238 0
-469 9898 0
-469 238 0
470 -72 -471 472 0
470 -72 471 -472 0
-470 72 0
-470 -471 -472 0
-470 471 472 0
471 41 -228 0
-471 -41 0
-471 228 0
472 42 -238 0
-472 -42 0
-472 238 0
-473 -474 -478 0
-473 474 478 0
473 474 -478 0
473 -474 478 0
-474 72 475 0
-474 -72 -475 0
474 -72 475 0
474 72 -475 0
-475 -476 -477 0
-475 476 477 0
475 476 -477 0
475 -476 477 0
476 -9900 -228 0
-476 9900 0
-476 228 0
477 -9899 -238 0
-477 9899 0
-477 238 0
478 -72 -479 480 0
478 -72 479 -480 0
-478 72 0
-478 -479 -480 0
-478 479 480 0
479 40 -228 0
-479 -40 0
-479 228 0
480 41 -238 0
-480 -41 0
-480 238 0
-481 -482 -484 0
-481 482 484 0
481 482 -484 0
481 -482 484 0
-482 -72 -483 0
-482 72 483 0
482 72 -483 0
482 -72 483 0
483 -9900 -238 0
-483 9900 0
-483 238 0
484 -72 -485 486 0
484 -72 485 -486 0
-484 72 0
-484 -485 -486 0
-484 485 486 0
485 39 -228 0
-485 -39 0
-485 228 0
486 40 -238 0
-486 -40 0
-486 238 0
-487 488 0
487 -488 0
488 -39 -489 0
-488 39 0
-488 489 0
-489 490 0
489 -490 0
490 9905 -9906 0
490 9904 -9906 0
-490 9906 0
-490 -9904 -9905 0
-491 35 492 0
-491 492 836 0
-491 35 836 0
491 -35 -836 0
491 -492 -836 0
491 -35 -492 0
-492 35 493 0
-492 493 828 0
-492 35 828 0
492 -35 -828 0
492 -493 -828 0
492 -35 -493 0
-493 494 496 0
-493 496 820 0
-493 494 820 0
493 -494 -820 0
493 -496 -820 0
493 -494 -496 0
-494 75 495 0
-494 -75 -495 0
494 -75 495 0
494 75 -495 0
-495 37 481 0
-495 -37 -481 0
495 -37 481 0
495 37 -481 0
-496 497 499 0
-496 499 812 0
-496 497 812 0
496 -497 -812 0
496 -499 -812 0
496 -497 -499 0
-497 76 498 0
-497 -76 -498 0
497 -76 498 0
497 76 -498 0
-498 37 473 0
-498 -37 -473 0
498 -37 473 0
498 37 -473 0
-499 500 502 0
-499 502 804 0
-499 500 804 0
499 -500 -804 0
499 -502 -804 0
499 -500 -502 0
-500 81 501 0
-500 -81 -501 0
500 -81 501 0
500 81 -501 0
-501 77 465 0
-501 -77 -465 0
501 -77 465 0
501 77 -465 0
-502 503 505 0
-502 505 796 0
-502 503 796 0
502 -503 -796 0
502 -505 -796 0
502 -503 -505 0
-503 86 504 0
-503 -86 -504 0
503 -86 504 0
503 86 -504 0
-504 82 457 0
-504 -82 -457 0
504 -82 457 0
504 82 -457 0
-505 506 508 0
-505 508 788 0
-505 506 788 0
505 -506 -788 0
505 -508 -788 0
505 -506 -508 0
-506 91 507 0
-506 -91 -507 0
506 -91 507 0
506 91 -507 0
-507 87 449 0
-507 -87 -449 0
507 -87 449 0
507 87 -449 0
-508 509 511 0
-508 511 780 0
-508 509 780 0
508 -509 -780 0
508 -511 -780 0
508 -509 -511 0
-509 96 510 0
-509 -96 -510 0
509 -96 510 0
509 96 -510 0
-510 92 441 0
-510 -92 -441 0
510 -92 441 0
510 92 -441 0
-511 512 514 0
-511 514 772 0
-511 512 772 0
511 -512 -772 0
511 -514 -772 0
511 -512 -514 0
-512 101 513 0
-512 -101 -513 0
512 -101 513 0
512 101 -513 0
-513 97 433 0
-513 -97 -433 0
513 -97 433 0
513 97 -433 0
-514 515 517 0
-514 517 764 0
-514 515 764 0
514 -515 -764 0
514 -517 -764 0
514 -515 -517 0
-515 106 516 0
-515 -106 -516 0
515 -106 516 0
515 106 -516 0
-516 102 425 0
-516 -102 -425 0
516 -102 425 0
516 102 -425 0
-517 518 520 0
-517 520 756 0
-517 518 756 0
517 -518 -756 0
517 -520 -756 0
517 -518 -520 0
-518 111 519 0
-518 -111 -519 0
518 -111 519 0
518 111 -519 0
-519 107 417 0
-519 -107 -417 0
519 -107 417 0
519 107 -417 0
-520 521 523 0
-520 523 748 0
-520 521 748 0
520 -521 -748 0
520 -523 -748 0
520 -521 -523 0
-521 116 522 0
-521 -116 -522 0
521 -116 522 0
521 116 -522 0
-522 112 409 0
-522 -112 -409 0
522 -112 409 0
522 112 -409 0
-523 524 526 0
-523 526 740 0
-523 524 740 0
523 -524 -740 0
523 -526 -740 0
523 -524 -526 0
-524 121 525 0
-524 -121 -525 0
524 -121 525 0
524 121 -525 0
-525 117 401 0
-525 -117 -401 0
525 -117 401 0
525 117 -401 0
-526 527 529 0
-526 529 732 0
-526 527 732 0
526 -527 -732 0
526 -529 -732 0
526 -527 -529 0
-527 126 528 0
-527 -126 -528 0
527 -126 528 0
527 126 -528 0
-528 122 393 0
-528 -122 -393 0
528 -122 393 0
528 122 -393 0
-529 530 532 0
-529 532 724 0
-529 530 724 0
529 -530 -724 0
529 -532 -724 0
529 -530 -532 0
-530 131 531 0
-530 -131 -531 0
530 -131 531 0
530 131 -531 0
-531 127 385 0
-531 -127 -385 0
531 -127 385 0
531 127 -385 0
-532 533 535 0
-532 535 716 0
-532 533 716 0
532 -533 -716 0
532 -535 -716 0
532 -533 -535 0
-533 136 534 0
-533 -136 -534 0
533 -136 534 0
533 136 -534 0
-534 132 377 0
-534 -132 -377 0
534 -132 377 0
534 132 -377 0
-535 536 538 0
-535 538 708 0
-535 536 708 0
535 -536 -708 0
535 -538 -708 0
535 -536 -538 0
-536 141 537 0
-536 -141 -537 0
536 -141 537 0
536 141 -537 0
-537 137 369 0
-537 -137 -369 0
537 -137 369 0
537 137 -369 0
-538 539 541 0
-538 541 700 0
-538 539 700 0
538 -539 -700 0
538 -541 -700 0
538 -539 -541 0
-539 146 540 0
-539 -146 -540 0
539 -146 540 0
539 146 -540 0
-540 142 361 0
-540 -142 -361 0
540 -142 361 0
540 142 -361 0
-541 542 544 0
-541 544 692 0
-541 542 692 0
541 -542 -692 0
541 -544 -692 0
541 -542 -544 0
-542 151 543 0
-542 -151 -543 0
542 -151 543 0
542 151 -543 0
-543 147 353 0
-543 -147 -353 0
543 -147 353 0
543 147 -353 0
-544 545 547 0
-544 547 684 0
-544 545 684 0
544 -545 -684 0
544 -547 -684 0
544 -545 -547 0
-545 156 546 0
-545 -156 -546 0
545 -156 546 0
545 156 -546 0
-546 152 345 0
-546 -152 -345 0
546 -152 345 0
546 152 -345 0
-547 548 550 0
-547 550 676 0
-547 548 676 0
547 -548 -676 0
547 -550 -676 0
547 -548 -550 0
-548 161 549 0
-548 -161 -549 0
548 -161 549 0
548 161 -549 0
-549 157 337 0
-549 -157 -337 0
549 -157 337 0
549 157 -337 0
-550 551 553 0
-550 553 668 0
-550 551 668 0
550 -551 -668 0
550 -553 -668 0
550 -551 -553 0
-551 166 552 0
-551 -166 -552 0
551 -166 552 0
551 166 -552 0
-552 162 329 0
-552 -162 -329 0
552 -162 329 0
552 162 -329 0
-553 554 556 0
-553 556 660 0
-553 554 660 0
553 -554 -660 0
553 -556 -660 0
553 -554 -556 0
-554 171 555 0
-554 -171 -555 0
554 -171 555 0
554 171 -555 0
-555 167 321 0
-555 -167 -321 0
555 -167 321 0
555 167 -321 0
-556 557 559 0
-556 559 652 0
-556 557 652 0
556 -557 -652 0
556 -559 -652 0
556 -557 -559 0
-557 176 558 0
-557 -176 -558 0
557 -176 558 0
557 176 -558 0
-558 172 313 0
-558 -172 -313 0
558 -172 313 0
558 172 -313 0
-559 560 562 0
-559 562 644 0
-559 560 644 0
559 -560 -644 0
559 -562 -644 0
559 -560 -562 0
-560 181 561 0
-560 -181 -561 0
560 -181 561 0
560 181 -561 0
-561 177 305 0
-561 -177 -305 0
561 -177 305 0
561 177 -305 0
-562 563 565 0
-562 565 636 0
-562 563 636 0
562 -563 -636 0
562 -565 -636 0
562 -563 -565 0
-563 186 564 0
-563 -186 -564 0
563 -186 564 0
563 186 -564 0
-564 182 297 0
-564 -182 -297 0
564 -182 297 0
564 182 -297 0
-565 566 568 0
-565 568 628 0
-565 566 628 0
565 -566 -628 0
565 -568 -628 0
565 -566 -568 0
-566 191 567 0
-566 -191 -567 0
566 -191 567 0
566 191 -567 0
-567 187 289 0
-567 -187 -289 0
567 -187 289 0
567 187 -289 0
-568 569 571 0
-568 571 620 0
-568 569 620 0
568 -569 -620 0
568 -571 -620 0
568 -569 -571 0
-569 196 570 0
-569 -196 -570 0
569 -196 570 0
569 196 -570 0
-570 192 281 0
-570 -192 -281 0
570 -192 281 0
570 192 -281 0
-571 572 574 0
-571 574 612 0
-571 572 612 0
571 -572 -612 0
571 -574 -612 0
571 -572 -574 0
-572 201 573 0
-572 -201 -573 0
572 -201 573 0
572 201 -573 0
-573 197 273 0
-573 -197 -273 0
573 -197 273 0
573 197 -273 0
-574 575 577 0
-574 577 604 0
-574 575 604 0
574 -575 -604 0
574 -577 -604 0
574 -575 -577 0
-575 206 576 0
-575 -206 -576 0
575 -206 576 0
575 206 -576 0
-576 202 265 0
-576 -202 -265 0
576 -202 265 0
576 202 -265 0
-577 578 580 0
-577 580 596 0
-577 578 596 0
577 -578 -596 0
577 -580 -596 0
577 -578 -580 0
-578 211 579 0
-578 -211 -579 0
578 -211 579 0
578 211 -579 0
-579 207 257 0
-579 -207 -257 0
579 -207 257 0
579 207 -257 0
-580 581 588 0
-580 581 583 0
-580 583 588 0
580 -583 -588 0
580 -581 -588 0
580 -581 -583 0
-581 216 582 0
-581 -216 -582 0
581 -216 582 0
581 216 -582 0
-582 212 249 0
-582 -212 -249 0
582 -212 249 0
582 212 -249 0
583 -584 -586 0
-583 584 0
-583 586 0
584 -9869 -585 0
-584 9869 0
-584 585 0
-585 -9904 -9905 0
-585 9904 9905 0
585 9904 -9905 0
585 -9904 9905 0
-586 221 587 0
-586 -221 -587 0
586 -221 587 0
586 221 -587 0
-587 217 241 0
-587 -217 -241 0
587 -217 241 0
587 217 -241 0
-588 -589 -594 0
-588 589 594 0
588 589 -594 0
588 -589 594 0
-589 489 590 0
-589 -489 -590 0
589 -489 590 0
589 489 -590 0
-590 -591 -592 0
-590 591 592 0
590 591 -592 0
590 -591 592 0
591 -9870 -585 0
-591 9870 0
-591 585 0
592 -9869 -593 0
-592 9869 0
-592 593 0
-593 -9904 -9906 0
-593 9905 9906 0
-593 9904 -9905 0
593 -9904 -9905 9906 0
593 9904 9905 -9906 0
594 -489 593 -595 0
594 -489 -593 595 0
-594 489 0
-594 593 595 0
-594 -593 -595 0
595 9869 -585 0
-595 -9869 0
-595 585 0
-596 -597 -601 0
-596 597 601 0
596 597 -601 0
596 -597 601 0
-597 489 598 0
-597 -489 -598 0
597 -489 598 0
597 489 -598 0
-598 -599 -600 0
-598 599 600 0
598 599 -600 0
598 -599 600 0
599 -9871 -585 0
-599 9871 0
-599 585 0
600 -9870 -593 0
-600 9870 0
-600 593 0
601 -489 -602 603 0
601 -489 602 -603 0
-601 489 0
-601 -602 -603 0
-601 602 603 0
602 69 -585 0
-602 -69 0
-602 585 0
603 9869 -593 0
-603 -9869 0
-603 593 0
-604 -605 -609 0
-604 605 609 0
604 605 -609 0
604 -605 609 0
-605 489 606 0
-605 -489 -606 0
605 -489 606 0
605 489 -606 0
-606 -607 -608 0
-606 607 608 0
606 607 -608 0
606 -607 608 0
607 -9872 -585 0
-607 9872 0
-607 585 0
608 -9871 -593 0
-608 9871 0
-608 593 0
609 -489 -610 611 0
609 -489 610 -611 0
-609 489 0
-609 -610 -611 0
-609 610 611 0
610 68 -585 0
-610 -68 0
-610 585 0
611 69 -593 0
-611 -69 0
-611 593 0
-612 -613 -617 0
-612 613 617 0
612 613 -617 0
612 -613 617 0
-613 489 614 0
-613 -489 -614 0
613 -489 614 0
613 489 -614 0
-614 -615 -616 0
-614 615 616 0
614 615 -616 0
614 -615 616 0
615 -9873 -585 0
-615 9873 0
-615 585 0
616 -9872 -593 0
-616 9872 0
-616 593 0
617 -489 -618 619 0
617 -489 618 -619 0
-617 489 0
-617 -618 -619 0
-617 618 619 0
618 67 -585 0
-618 -67 0
-618 585 0
619 68 -593 0
-619 -68 0
-619 593 0
-620 -621 -625 0
-620 621 625 0
620 621 -625 0
620 -621 625 0
-621 489 622 0
-621 -489 -622 0
621 -489 622 0
621 489 -622 0
-622 -623 -624 0
-622 623 624 0
622 623 -624 0
622 -623 624 0
623 -9874 -585 0
-623 9874 0
-623 585 0
624 -9873 -593 0
-624 9873 0
-624 593 0
625 -489 -626 627 0
625 -489 626 -627 0
-625 489 0
-625 -626 -627 0
-625 626 627 0
626 66 -585 0
-626 -66 0
-626 585 0
627 67 -593 0
-627 -67 0
-627 593 0
-628 -629 -633 0
-628 629 633 0
628 629 -633 0
628 -629 633 0
-629 489 630 0
-629 -489 -630 0
629 -489 630 0
629 489 -630 0
-630 -631 -632 0
-630 631 632 0
630 631 -632 0
630 -631 632 0
631 -9875 -585 0
-631 9875 0
-631 585 0
632 -9874 -593 0
-632 9874 0
-632 593 0
633 -489 -634 635 0
633 -489 634 -635 0
-633 489 0
-633 -634 -635 0
-633 634 635 0
634 65 -585 0
-634 -65 0
-634 585 0
635 66 -593 0
-635 -66 0
-635 593 0
-636 -637 -641 0
-636 637 641 0
636 637 -641 0
636 -637 641 0
-637 489 638 0
-637 -489 -638 0
637 -489 638 0
637 489 -638 0
-638 -639 -640 0
-638 639 640 0
638 639 -640 0
638 -639 640 0
639 -9876 -585 0
-639 9876 0
-639 585 0
640 -9875 -593 0
-640 9875 0
-640 593 0
641 -489 -642 643 0
641 -489 642 -643 0
-641 489 0
-641 -642 -643 0
-641 642 643 0
642 64 -585 0
-642 -64 0
-642 585 0
643 65 -593 0
-643 -65 0
-643 593 0
-644 -645 -649 0
-644 645 649 0
644 645 -649 0
644 -645 649 0
-645 489 646 0
-645 -489 -646 0
645 -489 646 0
645 489 -646 0
-646 -647 -648 0
-646 647 648 0
646 647 -648 0
646 -647 648 0
647 -9877 -585 0
-647 9877 0
-647 585 0
648 -9876 -593 0
-648 9876 0
-648 593 0
649 -489 -650 651 0
649 -489 650 -651 0
-649 489 0
-649 -650 -651 0
-649 650 651 0
650 63 -585 0
-650 -63 0
-650 585 0
651 64 -593 0
-651 -64 0
-651 593 0
-652 -653 -657 0
-652 653 657 0
652 653 -657 0
652 -653 657 0
-653 489 654 0
-653 -489 -654 0
653 -489 654 0
653 489 -654 0
-654 -655 -656 0
-654 655 656 0
654 655 -656 0
654 -655 656 0
655 -9878 -585 0
-655 9878 0
-655 585 0
656 -9877 -593 0
-656 9877 0
-656 593 0
657 -489 -658 659 0
657 -489 658 -659 0
-657 489 0
-657 -658 -659 0
-657 658 659 0
658 62 -585 0
-658 -62 0
-658 585 0
659 63 -593 0
-659 -63 0
-659 593 0
-660 -661 -665 0
-660 661 665 0
660 661 -665 0
660 -661 665 0
-661 489 662 0
-661 -489 -662 0
661 -489 662 0
661 489 -662 0
-662 -663 -664 0
-662 663 664 0
662 663 -664 0
662 -663 664 0
663 -9879 -585 0
-663 9879 0
-663 585 0
664 -9878 -593 0
-664 9878 0
-664 593 0
665 -489 -666 667 0
665 -489 666 -667 0
-665 489 0
-665 -666 -667 0
-665 666 667 0
666 61 -585 0
-666 -61 0
-666 585 0
667 62 -593 0
-667 -62 0
-667 593 0
-668 -669 -673 0
-668 669 673 0
668 669 -673 0
668 -669 673 0
-669 489 670 0
-669 -489 -670 0
669 -489 670 0
669 489 -670 0
-670 -671 -672 0
-670 671 672 0
670 671 -672 0
670 -671 672 0
671 -9880 -585 0
-671 9880 0
-671 585 0
672 -9879 -593 0
-672 9879 0
-672 593 0
673 -489 -674 675 0
673 -489 674 -675 0
-673 489 0
-673 -674 -675 0
-673 674 675 0
674 60 -585 0
-674 -60 0
-674 585 0
675 61 -593 0
-675 -61 0
-675 593 0
-676 -677 -681 0
-676 677 681 0
676 677 -681 0
676 -677 681 0
-677 489 678 0
-677 -489 -678 0
677 -489 678 0
677 489 -678 0
-678 -679 -680 0
-678 679 680 0
678 679 -680 0
678 -679 680 0
679 -9881 -585 0
-679 9881 0
-679 585 0
680 -9880 -593 0
-680 9880 0
-680 593 0
681 -489 -682 683 0
681 -489 682 -683 0
-681 489 0
-681 -682 -683 0
-681 682 683 0
682 59 -585 0
-682 -59 0
-682 585 0
683 60 -593 0
-683 -60 0
-683 593 0
-684 -685 -689 0
-684 685 689 0
684 685 -689 0
684 -685 689 0
-685 489 686 0
-685 -489 -686 0
685 -489 686 0
685 489 -686 0
-686 -687 -688 0
-686 687 688 0
686 687 -688 0
686 -687 688 0
687 -9882 -585 0
-687 9882 0
-687 585 0
688 -9881 -593 0
-688 9881 0
-688 593 0
689 -489 -690 691 0
689 -489 690 -691 0
-689 489 0
-689 -690 -691 0
-689 690 691 0
690 58 -585 0
-690 -58 0
-690 585 0
691 59 -593 0
-691 -59 0
-691 593 0
-692 -693 -697 0
-692 693 697 0
692 693 -697 0
692 -693 697 0
-693 489 694 0
-693 -489 -694 0
693 -489 694 0
693 489 -694 0
-694 -695 -696 0
-694 695 696 0
694 695 -696 0
694 -695 696 0
695 -9883 -585 0
-695 9883 0
-695 585 0
696 -9882 -593 0
-696 9882 0
-696 593 0
697 -489 -698 699 0
697 -489 698 -699 0
-697 489 0
-697 -698 -699 0
-697 698 699 0
698 57 -585 0
-698 -57 0
-698 585 0
699 58 -593 0
-699 -58 0
-699 593 0
-700 -701 -705 0
-700 701 705 0
700 701 -705 0
700 -701 705 0
-701 489 702 0
-701 -489 -702 0
701 -489 702 0
701 489 -702 0
-702 -703 -704 0
-702 703 704 0
702 703 -704 0
702 -703 704 0
703 -9884 -585 0
-703 9884 0
-703 585 0
704 -9883 -593 0
-704 9883 0
-704 593 0
705 -489 -706 707 0
705 -489 706 -707 0
-705 489 0
-705 -706 -707 0
-705 706 707 0
706 56 -585 0
-706 -56 0
-706 585 0
707 57 -593 0
-707 -57 0
-707 593 0
-708 -709 -713 0
-708 709 713 0
708 709 -713 0
708 -709 713 0
-709 489 710 0
-709 -489 -710 0
709 -489 710 0
709 489 -710 0
-710 -711 -712 0
-710 711 712 0
710 711 -712 0
710 -711 712 0
711 -9885 -585 0
-711 9885 0
-711 585 0
712 -9884 -593 0
-712 9884 0
-712 593 0
713 -489 -714 715 0
713 -489 714 -715 0
-713 489 0
-713 -714 -715 0
-713 714 715 0
714 55 -585 0
-714 -55 0
-714 585 0
715 56 -593 0
-715 -56 0
-715 593 0
-716 -717 -721 0
-716 717 721 0
716 717 -721 0
716 -717 721 0
-717 489 718 0
-717 -489 -718 0
717 -489 718 0
717 489 -718 0
-718 -719 -720 0
-718 719 720 0
718 719 -720 0
718 -719 720 0
719 -9886 -585 0
-719 9886 0
-719 585 0
720 -9885 -593 0
-720 9885 0
-720 593 0
721 -489 -722 723 0
721 -489 722 -723 0
-721 489 0
-721 -722 -723 0
-721 722 723 0
722 54 -585 0
-722 -54 0
-722 585 0
723 55 -593 0
-723 -55 0
-723 593 0
-724 -725 -729 0
-724 725 729 0
724 725 -729 0
724 -725 729 0
-725 489 726 0
-725 -489 -726 0
725 -489 726 0
725 489 -726 0
-726 -727 -728 0
-726 727 728 0
726 727 -728 0
726 -727 728 0
727 -9887 -585 0
-727 9887 0
-727 585 0
728 -9886 -593 0
-728 9886 0
-728 593 0
729 -489 -730 731 0
729 -489 730 -731 0
-729 489 0
-729 -730 -731 0
-729 730 731 0
730 53 -585 0
-730 -53 0
-730 585 0
731 54 -593 0
-731 -54 0
-731 593 0
-732 -733 -737 0
-732 733 737 0
732 733 -737 0
732 -733 737 0
-733 489 734 0
-733 -489 -734 0
733 -489 734 0
733 489 -734 0
-734 -735 -736 0
-734 735 736 0
734 735 -736 0
734 -735 736 0
735 -9888 -585 0
-735 9888 0
-735 585 0
736 -9887 -593 0
-736 9887 0
-736 593 0
737 -489 -738 739 0
737 -489 738 -739 0
-737 489 0
-737 -738 -739 0
-737 738 739 0
738 52 -585 0
-738 -52 0
-738 585 0
739 53 -593 0
-739 -53 0
-739 593 0
-740 -741 -745 0
-740 741 745 0
740 741 -745 0
740 -741 745 0
-741 489 742 0
-741 -489 -742 0
741 -489 742 0
741 489 -742 0
-742 -743 -744 0
-742 743 744 0
742 743 -744 0
742 -743 744 0
743 -9889 -585 0
-743 9889 0
-743 585 0
744 -9888 -593 0
-744 9888 0
-744 593 0
745 -489 -746 747 0
745 -489 746 -747 0
-745 489 0
-745 -746 -747 0
-745 746 747 0
746 51 -585 0
-746 -51 0
-746 585 0
747 52 -593 0
-747 -52 0
-747 593 0
-748 -749 -753 0
-748 749 753 0
748 749 -753 0
748 -749 753 0
-749 489 750 0
-749 -489 -750 0
749 -489 750 0
749 489 -750 0
-750 -751 -752 0
-750 751 752 0
750 751 -752 0
750 -751 752 0
751 -9890 -585 0
-751 9890 0
-751 585 0
752 -9889 -593 0
-752 9889 0
-752 593 0
753 -489 -754 755 0
753 -489 754 -755 0
-753 489 0
-753 -754 -755 0
-753 754 755 0
754 50 -585 0
-754 -50 0
-754 585 0
755 51 -593 0
-755 -51 0
-755 593 0
-756 -757 -761 0
-756 757 761 0
756 757 -761 0
756 -757 761 0
-757 489 758 0
-757 -489 -758 0
757 -489 758 0
757 489 -758 0
-758 -759 -760 0
-758 759 760 0
758 759 -760 0
758 -759 760 0
759 -9891 -585 0
-759 9891 0
-759 585 0
760 -9890 -593 0
-760 9890 0
-760 593 0
761 -489 -762 763 0
761 -489 762 -763 0
-761 489 0
-761 -762 -763 0
-761 762 763 0
762 49 -585 0
-762 -49 0
-762 585 0
763 50 -593 0
-763 -50 0
-763 593 0
-764 -765 -769 0
-764 765 769 0
764 765 -769 0
764 -765 769 0
-765 489 766 0
-765 -489 -766 0
765 -489 766 0
765 489 -766 0
-766 -767 -768 0
-766 767 768 0
766 767 -768 0
766 -767 768 0
767 -9892 -585 0
-767 9892 0
-767 585 0
768 -9891 -593 0
-768 9891 0
-768 593 0
769 -489 -770 771 0
769 -489 770 -771 0
-769 489 0
-769 -770 -771 0
-769 770 771 0
770 48 -585 0
-770 -48 0
-770 585 0
771 49 -593 0
-771 -49 0
-771 593 0
-772 -773 -777 0
-772 773 777 0
772 773 -777 0
772 -773 777 0
-773 489 774 0
-773 -489 -774 0
773 -489 774 0
773 489 -774 0
-774 -775 -776 0
-774 775 776 0
774 775 -776 0
774 -775 776 0
775 -9893 -585 0
-775 9893 0
-775 585 0
776 -9892 -593 0
-776 9892 0
-776 593 0
777 -489 -778 779 0
777 -489 778 -779 0
-777 489 0
-777 -778 -779 0
-777 778 779 0
778 47 -585 0
-778 -47 0
-778 585 0
779 48 -593 0
-779 -48 0
-779 593 0
-780 -781 -785 0
-780 781 785 0
780 781 -785 0
780 -781 785 0
-781 489 782 0
-781 -489 -782 0
781 -489 782 0
781 489 -782 0
-782 -783 -784 0
-782 783 784 0
782 783 -784 0
782 -783 784 0
783 -9894 -585 0
-783 9894 0
-783 585 0
784 -9893 -593 0
-784 9893 0
-784 593 0
785 -489 -786 787 0
785 -489 786 -787 0
-785 489 0
-785 -786 -787 0
-785 786 787 0
786 46 -585 0
-786 -46 0
-786 585 0
787 47 -593 0
-787 -47 0
-787 593 0
-788 -789 -793 0
-788 789 793 0
788 789 -793 0
788 -789 793 0
-789 489 790 0
-789 -489 -790 0
789 -489 790 0
789 489 -790 0
-790 -791 -792 0
-790 791 792 0
790 791 -792 0
790 -791 792 0
791 -9895 -585 0
-791 9895 0
-791 585 0
792 -9894 -593 0
-792 9894 0
-792 593 0
793 -489 -794 795 0
793 -489 794 -795 0
-793 489 0
-793 -794 -795 0
-793 794 795 0
794 45 -585 0
-794 -45 0
-794 585 0
795 46 -593 0
-795 -46 0
-795 593 0
-796 -797 -801 0
-796 797 801 0
796 797 -801 0
796 -797 801 0
-797 489 798 0
-797 -489 -798 0
797 -489 798 0
797 489 -798 0
-798 -799 -800 0
-798 799 800 0
798 799 -800 0
798 -799 800 0
799 -9896 -585 0
-799 9896 0
-799 585 0
800 -9895 -593 0
-800 9895 0
-800 593 0
801 -489 -802 803 0
801 -489 802 -803 0
-801 489 0
-801 -802 -803 0
-801 802 803 0
802 44 -585 0
-802 -44 0
-802 585 0
803 45 -593 0
-803 -45 0
-803 593 0
-804 -805 -809 0
-804 805 809 0
804 805 -809 0
804 -805 809 0
-805 489 806 0
-805 -489 -806 0
805 -489 806 0
805 489 -806 0
-806 -807 -808 0
-806 807 808 0
806 807 -808 0
806 -807 808 0
807 -9897 -585 0
-807 9897 0
-807 585 0
808 -9896 -593 0
-808 9896 0
-808 593 0
809 -489 -810 811 0
809 -489 810 -811 0
-809 489 0
-809 -810 -811 0
-809 810 811 0
810 43 -585 0
-810 -43 0
-810 585 0
811 44 -593 0
-811 -44 0
-811 593 0
-812 -813 -817 0
-812 813 817 0
812 813 -817 0
812 -813 817 0
-813 489 814 0
-813 -489 -814 0
813 -489 814 0
813 489 -814 0
-814 -815 -816 0
-814 815 816 0
814 815 -816 0
814 -815 816 0
815 -9898 -585 0
-815 9898 0
-815 585 0
816 -9897 -593 0
-816 9897 0
-816 593 0
817 -489 -818 819 0
817 -489 818 -819 0
-817 489 0
-817 -818 -819 0
-817 818 819 0
818 42 -585 0
-818 -42 0
-818 585 0
819 43 -593 0
-819 -43 0
-819 593 0
-820 -821 -825 0
-820 821 825 0
820 821 -825 0
820 -821 825 0
-821 489 822 0
-821 -489 -822 0
821 -489 822 0
821 489 -822 0
-822 -823 -824 0
-822 823 824 0
822 823 -824 0
822 -823 824 0
823 -9899 -585 0
-823 9899 0
-823 585 0
824 -9898 -593 0
-824 9898 0
-824 593 0
825 -489 -826 827 0
825 -489 826 -827 0
-825 489 0
-825 -826 -827 0
-825 826 827 0
826 41 -585 0
-826 -41 0
-826 585 0
827 42 -593 0
-827 -42 0
-827 593 0
-828 -829 -833 0
-828 829 833 0
828 829 -833 0
828 -829 833 0
-829 489 830 0
-829 -489 -830 0
829 -489 830 0
829 489 -830 0
-830 -831 -832 0
-830 831 832 0
830 831 -832 0
830 -831 832 0
831 -9900 -585 0
-831 9900 0
-831 585 0
832 -9899 -593 0
-832 9899 0
-832 593 0
833 -489 -834 835 0
833 -489 834 -835 0
-833 489 0
-833 -834 -835 0
-833 834 835 0
834 40 -585 0
-834 -40 0
-834 585 0
835 41 -593 0
-835 -41 0
-835 593 0
-836 -837 -839 0
-836 837 839 0
836 837 -839 0
836 -837 839 0
-837 -489 -838 0
-837 489 838 0
837 489 -838 0
837 -489 838 0
838 -9900 -593 0
-838 9900 0
-838 593 0
839 -489 -840 841 0
839 -489 840 -841 0
-839 489 0
-839 -840 -841 0
-839 840 841 0
840 39 -585 0
-840 -39 0
-840 585 0
841 40 -593 0
-841 -40 0
-841 593 0
-842 843 0
842 -843 0
843 -39 -844 0
-843 39 0
-843 844 0
-844 845 0
844 -845 0
845 9907 -9908 0
845 9906 -9908 0
-845 9908 0
-845 -9906 -9907 0
-846 33 847 0
-846 847 1191 0
-846 33 1191 0
846 -33 -1191 0
846 -847 -1191 0
846 -33 -847 0
-847 33 848 0
-847 848 1183 0
-847 33 1183 0
847 -33 -1183 0
847 -848 -1183 0
847 -33 -848 0
-848 849 851 0
-848 851 1175 0
-848 849 1175 0
848 -849 -1175 0
848 -851 -1175 0
848 -849 -851 0
-849 492 850 0
-849 -492 -850 0
849 -492 850 0
849 492 -850 0
-850 35 836 0
-850 -35 -836 0
850 -35 836 0
850 35 -836 0
-851 852 854 0
-851 854 1167 0
-851 852 1167 0
851 -852 -1167 0
851 -854 -1167 0
851 -852 -854 0
-852 493 853 0
-852 -493 -853 0
852 -493 853 0
852 493 -853 0
-853 35 828 0
-853 -35 -828 0
853 -35 828 0
853 35 -828 0
-854 855 857 0
-854 857 1159 0
-854 855 1159 0
854 -855 -1159 0
854 -857 -1159 0
854 -855 -857 0
-855 496 856 0
-855 -496 -856 0
855 -496 856 0
855 496 -856 0
-856 494 820 0
-856 -494 -820 0
856 -494 820 0
856 494 -820 0
-857 858 860 0
-857 860 1151 0
-857 858 1151 0
857 -858 -1151 0
857 -860 -1151 0
857 -858 -860 0
-858 499 859 0
-858 -499 -859 0
858 -499 859 0
858 499 -859 0
-859 497 812 0
-859 -497 -812 0
859 -497 812 0
859 497 -812 0
-860 861 863 0
-860 863 1143 0
-860 861 1143 0
860 -861 -1143 0
860 -863 -1143 0
860 -861 -863 0
-861 502 862 0
-861 -502 -862 0
861 -502 862 0
861 502 -862 0
-862 500 804 0
-862 -500 -804 0
862 -500 804 0
862 500 -804 0
-863 864 866 0
-863 866 1135 0
-863 864 1135 0
863 -864 -1135 0
863 -866 -1135 0
863 -864 -866 0
-864 505 865 0
-864 -505 -865 0
864 -505 865 0
864 505 -865 0
-865 503 796 0
-865 -503 -796 0
865 -503 796 0
865 503 -796 0
-866 867 869 0
-866 869 1127 0
-866 867 1127 0
866 -867 -1127 0
866 -869 -1127 0
866 -867 -869 0
-867 508 868 0
-867 -508 -868 0
867 -508 868 0
867 508 -868 0
-868 506 788 0
-868 -506 -788 0
868 -506 788 0
868 506 -788 0
-869 870 872 0
-869 872 1119 0
-869 870 1119 0
869 -870 -1119 0
869 -872 -1119 0
869 -870 -872 0
-870 511 871 0
-870 -511 -871 0
870 -511 871 0
870 511 -871 0
-871 509 780 0
-871 -509 -780 0
871 -509 780 0
871 509 -780 0
-872 873 875 0
-872 875 1111 0
-872 873 1111 0
872 -873 -1111 0
872 -875 -1111 0
872 -873 -875 0
-873 514 874 0
-873 -514 -874 0
873 -514 874 0
873 514 -874 0
-874 512 772 0
-874 -512 -772 0
874 -512 772 0
874 512 -772 0
-875 876 878 0
-875 878 1103 0
-875 876 1103 0
875 -876 -1103 0
875 -878 -1103 0
875 -876 -878 0
-876 517 877 0
-876 -517 -877 0
876 -517 877 0
876 517 -877 0
-877 515 764 0
-877 -515 -764 0
877 -515 764 0
877 515 -764 0
-878 879 881 0
-878 881 1095 0
-878 879 1095 0
878 -879 -1095 0
878 -881 -1095 0
878 -879 -881 0
-879 520 880 0
-879 -520 -880 0
879 -520 880 0
879 520 -880 0
-880 518 756 0
-880 -518 -756 0
880 -518 756 0
880 518 -756 0
-881 882 884 0
-881 884 1087 0
-881 882 1087 0
881 -882 -1087 0
881 -884 -1087 0
881 -882 -884 0
-882 523 883 0
-882 -523 -883 0
882 -523 883 0
882 523 -883 0
-883 521 748 0
-883 -521 -748 0
883 -521 748 0
883 521 -748 0
-884 885 887 0
-884 887 1079 0
-884 885 1079 0
884 -885 -1079 0
884 -887 -1079 0
884 -885 -887 0
-885 526 886 0
-885 -526 -886 0
885 -526 886 0
885 526 -886 0
-886 524 740 0
-886 -524 -740 0
886 -524 740 0
886 524 -740 0
-887 888 890 0
-887 890 1071 0
-887 888 1071 0
887 -888 -1071 0
887 -890 -1071 0
887 -888 -890 0
-888 529 889 0
-888 -529 -889 0
888 -529 889 0
888 529 -889 0
-889 527 732 0
-889 -527 -732 0
889 -527 732 0
889 527 -732 0
-890 891 893 0
-890 893 1063 0
-890 891 1063 0
890 -891 -1063 0
890 -893 -1063 0
890 -891 -893 0
-891 532 892 0
-891 -532 -892 0
891 -532 892 0
891 532 -892 0
-892 530 724 0
-892 -530 -724 0
892 -530 724 0
892 530 -724 0
-893 894 896 0
-893 896 1055 0
-893 894 1055 0
893 -894 -1055 0
893 -896 -1055 0
893 -894 -896 0
-894 535 895 0
-894 -535 -895 0
894 -535 895 0
894 535 -895 0
-895 533 716 0
-895 -533 -716 0
895 -533 716 0
895 533 -716 0
-896 897 899 0
-896 899 1047 0
-896 897 1047 0
896 -897 -1047 0
896 -899 -1047 0
896 -897 -899 0
-897 538 898 0
-897 -538 -898 0
897 -538 898 0
897 538 -898 0
-898 536 708 0
-898 -536 -708 0
898 -536 708 0
898 536 -708 0
-899 900 902 0
-899 902 1039 0
-899 900 1039 0
899 -900 -1039 0
899 -902 -1039 0
899 -900 -902 0
-900 541 901 0
-900 -541 -901 0
900 -541 901 0
900 541 -901 0
-901 539 700 0
-901 -539 -700 0
901 -539 700 0
901 539 -700 0
-902 903 905 0
-902 905 1031 0
-902 903 1031 0
902 -903 -1031 0
902 -905 -1031 0
902 -903 -905 0
-903 544 904 0
-903 -544 -904 0
903 -544 904 0
903 544 -904 0
-904 542 692 0
-904 -542 -692 0
904 -542 692 0
904 542 -692 0
-905 906 908 0
-905 908 1023 0
-905 906 1023 0
905 -906 -1023 0
905 -908 -1023 0
905 -906 -908 0
-906 547 907 0
-906 -547 -907 0
906 -547 907 0
906 547 -907 0
-907 545 684 0
-907 -545 -684 0
907 -545 684 0
907 545 -684 0
-908 909 911 0
-908 911 1015 0
-908 909 1015 0
908 -909 -1015 0
908 -911 -1015 0
908 -909 -911 0
-909 550 910 0
-909 -550 -910 0
909 -550 910 0
909 550 -910 0
-910 548 676 0
-910 -548 -676 0
910 -548 676 0
910 548 -676 0
-911 912 914 0
-911 914 1007 0
-911 912 1007 0
911 -912 -1007 0
911 -914 -1007 0
911 -912 -914 0
-912 553 913 0
-912 -553 -913 0
912 -553 913 0
912 553 -913 0
-913 551 668 0
-913 -551 -668 0
913 -551 668 0
913 551 -668 0
-914 915 917 0
-914 917 999 0
-914 915 999 0
914 -915 -999 0
914 -917 -999 0
914 -915 -917 0
-915 556 916 0
-915 -556 -916 0
915 -556 916 0
915 556 -916 0
-916 554 660 0
-916 -554 -660 0
916 -554 660 0
916 554 -660 0
-917 918 920 0
-917 920 991 0
-917 918 991 0
917 -918 -991 0
917 -920 -991 0
917 -918 -920 0
-918 559 919 0
-918 -559 -919 0
918 -559 919 0
918 559 -919 0
-919 557 652 0
-919 -557 -652 0
919 -557 652 0
919 557 -652 0
-920 921 923 0
-920 923 983 0
-920 921 983 0
920 -921 -983 0
920 -923 -983 0
920 -921 -923 0
-921 562 922 0
-921 -562 -922 0
921 -562 922 0
921 562 -922 0
-922 560 644 0
-922 -560 -644 0
922 -560 644 0
922 560 -644 0
-923 924 926 0
-923 926 975 0
-923 924 975 0
923 -924 -975 0
923 -926 -975 0
923 -924 -926 0
-924 565 925 0
-924 -565 -925 0
924 -565 925 0
924 565 -925 0
-925 563 636 0
-925 -563 -636 0
925 -563 636 0
925 563 -636 0
-926 927 929 0
-926 929 967 0
-926 927 967 0
926 -927 -967 0
926 -929 -967 0
926 -927 -929 0
-927 568 928 0
-927 -568 -928 0
927 -568 928 0
927 568 -928 0
-928 566 628 0
-928 -566 -628 0
928 -566 628 0
928 566 -628 0
-929 930 932 0
-929 932 959 0
-929 930 959 0
929 -930 -959 0
929 -932 -959 0
929 -930 -932 0
-930 571 931 0
-930 -571 -931 0
930 -571 931 0
930 571 -931 0
-931 569 620 0
-931 -569 -620 0
931 -569 620 0
931 569 -620 0
-932 933 935 0
-932 935 951 0
-932 933 951 0
932 -933 -951 0
932 -935 -951 0
932 -933 -935 0
-933 574 934 0
-933 -574 -934 0
933 -574 934 0
933 574 -934 0
-934 572 612 0
-934 -572 -612 0
934 -572 612 0
934 572 -612 0
-935 936 943 0
-935 936 938 0
-935 938 943 0
935 -938 -943 0
935 -936 -943 0
935 -936 -938 0
-936 577 937 0
-936 -577 -937 0
936 -577 937 0
936 577 -937 0
-937 575 604 0
-937 -575 -604 0
937 -575 604 0
937 575 -604 0
938 -939 -941 0
-938 939 0
-938 941 0
939 -9869 -940 0
-939 9869 0
-939 940 0
-940 -9906 -9907 0
-940 9906 9907 0
940 9906 -9907 0
940 -9906 9907 0
-941 580 942 0
-941 -580 -942 0
941 -580 942 0
941 580 -942 0
-942 578 596 0
-942 -578 -596 0
942 -578 596 0
942 578 -596 0
-943 -944 -949 0
-943 944 949 0
943 944 -949 0
943 -944 949 0
-944 844 945 0
-944 -844 -945 0
944 -844 945 0
944 844 -945 0
-945 -946 -947 0
-945 946 947 0
945 946 -947 0
945 -946 947 0
946 -9870 -940 0
-946 9870 0
-946 940 0
947 -9869 -948 0
-947 9869 0
-947 948 0
-948 -9906 -9908 0
-948 9907 9908 0
-948 9906 -9907 0
948 -9906 -9907 9908 0
948 9906 9907 -9908 0
949 -844 948 -950 0
949 -844 -948 950 0
-949 844 0
-949 948 950 0
-949 -948 -950 0
950 9869 -940 0
-950 -9869 0
-950 940 0
-951 -952 -956 0
-951 952 956 0
951 952 -956 0
951 -952 956 0
-952 844 953 0
-952 -844 -953 0
952 -844 953 0
952 844 -953 0
-953 -954 -955 0
-953 954 955 0
953 954 -955 0
953 -954 955 0
954 -9871 -940 0
-954 9871 0
-954 940 0
955 -9870 -948 0
-955 9870 0
-955 948 0
956 -844 -957 958 0
956 -844 957 -958 0
-956 844 0
-956 -957 -958 0
-956 957 958 0
957 69 -940 0
-957 -69 0
-957 940 0
958 9869 -948 0
-958 -9869 0
-958 948 0
-959 -960 -964 0
-959 960 964 0
959 960 -964 0
959 -960 964 0
-960 844 961 0
-960 -844 -961 0
960 -844 961 0
960 844 -961 0
-961 -962 -963 0
-961 962 963 0
961 962 -963 0
961 -962 963 0
962 -9872 -940 0
-962 9872 0
-962 940 0
963 -9871 -948 0
-963 9871 0
-963 948 0
964 -844 -965 966 0
964 -844 965 -966 0
-964 844 0
-964 -965 -966 0
-964 965 966 0
965 68 -940 0
-965 -68 0
-965 940 0
966 69 -948 0
-966 -69 0
-966 948 0
-967 -968 -972 0
-967 968 972 0
967 968 -972 0
967 -968 972 0
-968 844 969 0
-968 -844 -969 0
968 -844 969 0
968 844 -969 0
-969 -970 -971 0
-969 970 971 0
969 970 -971 0
969 -970 971 0
970 -9873 -940 0
-970 9873 0
-970 940 0
971 -9872 -948 0
-971 9872 0
-971 948 0
972 -844 -973 974 0
972 -844 973 -974 0
-972 844 0
-972 -973 -974 0
-972 973 974 0
973 67 -940 0
-973 -67 0
-973 940 0
974 68 -948 0
-974 -68 0
-974 948 0
-975 -976 -980 0
-975 976 980 0
975 976 -980 0
975 -976 980 0
-976 844 977 0
-976 -844 -977 0
976 -844 977 0
976 844 -977 0
-977 -978 -979 0
-977 978 979 0
977 978 -979 0
977 -978 979 0
978 -9874 -940 0
-978 9874 0
-978 940 0
979 -9873 -948 0
-979 9873 0
-979 948 0
980 -844 -981 982 0
980 -844 981 -982 0
-980 844 0
-980 -981 -982 0
-980 981 982 0
981 66 -940 0
-981 -66 0
-981 940 0
982 67 -948 0
-982 -67 0
-982 948 0
-983 -984 -988 0
-983 984 988 0
983 984 -988 0
983 -984 988 0
-984 844 985 0
-984 -844 -985 0
984 -844 985 0
984 844 -985 0
-985 -986 -987 0
-985 986 987 0
985 986 -987 0
985 -986 987 0
986 -9875 -940 0
-986 9875 0
-986 940 0
987 -9874 -948 0
-987 9874 0
-987 948 0
988 -844 -989 990 0
988 -844 989 -990 0
-988 844 0
-988 -989 -990 0
-988 989 990 0
989 65 -940 0
-989 -65 0
-989 940 0
990 66 -948 0
-990 -66 0
-990 948 0
-991 -992 -996 0
-991 992 996 0
991 992 -996 0
991 -992 996 0
-992 844 993 0
-992 -844 -993 0
992 -844 993 0
992 844 -993 0
-993 -994 -995 0
-993 994 995 0
993 994 -995 0
993 -994 995 0
994 -9876 -940 0
-994 9876 0
-994 940 0
995 -9875 -948 0
-995 9875 0
-995 948 0
996 -844 -997 998 0
996 -844 997 -998 0
-996 844 0
-996 -997 -998 0
-996 997 998 0
997 64 -940 0
-997 -64 0
-997 940 0
998 65 -948 0
-998 -65 0
-998 948 0
-999 -1000 -1004 0
-999 1000 1004 0
999 1000 -1004 0
999 -1000 1004 0
-1000 844 1001 0
-1000 -844 -1001 0
1000 -844 1001 0
1000 844 -1001 0
-1001 -1002 -1003 0
-1001 1002 1003 0
1001 1002 -1003 0
1001 -1002 1003 0
1002 -9877 -940 0
-1002 9877 0
-1002 940 0
1003 -9876 -948 0
-1003 9876 0
-1003 948 0
1004 -844 -1005 1006 0
1004 -844 1005 -1006 0
-1004 844 0
-1004 -1005 -1006 0
-1004 1005 1006 0
1005 63 -940 0
-1005 -63 0
-1005 940 0
1006 64 -948 0
-1006 -64 0
-1006 948 0
-1007 -1008 -1012 0
-1007 1008 1012 0
1007 1008 -1012 0
1007 -1008 1012 0
-1008 844 1009 0
-1008 -844 -1009 0
1008 -844 1009 0
1008 844 -1009 0
-1009 -1010 -1011 0
-1009 1010 1011 0
1009 1010 -1011 0
1009 -1010 1011 0
1010 -9878 -940 0
-1010 9878 0
-1010 940 0
1011 -9877 -948 0
-1011 9877 0
-1011 948 0
1012 -844 -1013 1014 0
1012 -844 1013 -1014 0
-1012 844 0
-1012 -1013 -1014 0
-1012 1013 1014 0
1013 62 -940 0
-1013 -62 0
-1013 940 0
1014 63 -948 0
-1014 -63 0
-1014 948 0
-1015 -1016 -1020 0
-1015 1016 1020 0
1015 1016 -1020 0
1015 -1016 1020 0
-1016 844 1017 0
-1016 -844 -1017 0
1016 -844 1017 0
1016 844 -1017 0
-1017 -1018 -1019 0
-1017 1018 1019 0
1017 1018 -1019 0
1017 -1018 1019 0
1018 -9879 -940 0
-1018 9879 0
-1018 940 0
1019 -9878 -948 0
-1019 9878 0
-1019 948 0
1020 -844 -1021 1022 0
1020 -844 1021 -1022 0
-1020 844 0
-1020 -1021 -1022 0
-1020 1021 1022 0
1021 61 -940 0
-1021 -61 0
-1021 940 0
1022 62 -948 0
-1022 -62 0
-1022 948 0
-1023 -1024 -1028 0
-1023 1024 1028 0
1023 1024 -1028 0
1023 -1024 1028 0
-1024 844 1025 0
-1024 -844 -1025 0
1024 -844 1025 0
1024 844 -1025 0
-1025 -1026 -1027 0
-1025 1026 1027 0
1025 1026 -1027 0
1025 -1026 1027 0
1026 -9880 -940 0
-1026 9880 0
-1026 940 0
1027 -9879 -948 0
-1027 9879 0
-1027 948 0
1028 -844 -1029 1030 0
1028 -844 1029 -1030 0
-1028 844 0
-1028 -1029 -1030 0
-1028 1029 1030 0
1029 60 -940 0
-1029 -60 0
-1029 940 0
1030 61 -948 0
-1030 -61 0
-1030 948 0
-1031 -1032 -1036 0
-1031 1032 1036 0
1031 1032 -1036 0
1031 -1032 1036 0
-1032 844 1033 0
-1032 -844 -1033 0
1032 -844 1033 0
1032 844 -1033 0
-1033 -1034 -1035 0
-1033 1034 1035 0
1033 1034 -1035 0
1033 -1034 1035 0
1034 -9881 -940 0
-1034 9881 0
-1034 940 0
1035 -9880 -948 0
-1035 9880 0
-1035 948 0
1036 -844 -1037 1038 0
1036 -844 1037 -1038 0
-1036 844 0
-1036 -1037 -1038 0
-1036 1037 1038 0
1037 59 -940 0
-1037 -59 0
-1037 940 0
1038 60 -948 0
-1038 -60 0
-1038 948 0
-1039 -1040 -1044 0
-1039 1040 1044 0
1039 1040 -1044 0
1039 -1040 1044 0
-1040 844 1041 0
-1040 -844 -1041 0
1040 -844 1041 0
1040 844 -1041 0
-1041 -1042 -1043 0
-1041 1042 1043 0
1041 1042 -1043 0
1041 -1042 1043 0
1042 -9882 -940 0
-1042 9882 0
-1042 940 0
1043 -9881 -948 0
-1043 9881 0
-1043 948 0
1044 -844 -1045 1046 0
1044 -844 1045 -1046 0
-1044 844 0
-1044 -1045 -1046 0
-1044 1045 1046 0
1045 58 -940 0
-1045 -58 0
-1045 940 0
1046 59 -948 0
-1046 -59 0
-1046 948 0
-1047 -1048 -1052 0
-1047 1048 1052 0
1047 1048 -1052 0
1047 -1048 1052 0
-1048 844 1049 0
-1048 -844 -1049 0
1048 -844 1049 0
1048 844 -1049 0
-1049 -1050 -1051 0
-1049 1050 1051 0
1049 1050 -1051 0
1049 -1050 1051 0
1050 -9883 -940 0
-1050 9883 0
-1050 940 0
1051 -9882 -948 0
-1051 9882 0
-1051 948 0
1052 -844 -1053 1054 0
1052 -844 1053 -1054 0
-1052 844 0
-1052 -1053 -1054 0
-1052 1053 1054 0
1053 57 -940 0
-1053 -57 0
-1053 940 0
1054 58 -948 0
-1054 -58 0
-1054 948 0
-1055 -1056 -1060 0
-1055 1056 1060 0
1055 1056 -1060 0
1055 -1056 1060 0
-1056 844 1057 0
-1056 -844 -1057 0
1056 -844 1057 0
1056 844 -1057 0
-1057 -1058 -1059 0
-1057 1058 1059 0
1057 1058 -1059 0
1057 -1058 1059 0
1058 -9884 -940 0
-1058 9884 0
-1058 940 0
1059 -9883 -948 0
-1059 9883 0
-1059 948 0
1060 -844 -1061 1062 0
1060 -844 1061 -1062 0
-1060 844 0
-1060 -1061 -1062 0
-1060 1061 1062 0
1061 56 -940 0
-1061 -56 0
-1061 940 0
1062 57 -948 0
-1062 -57 0
-1062 948 0
-1063 -1064 -1068 0
-1063 1064 1068 0
1063 1064 -1068 0
1063 -1064 1068 0
-1064 844 1065 0
-1064 -844 -1065 0
1064 -844 1065 0
1064 844 -1065 0
-1065 -1066 -1067 0
-1065 1066 1067 0
1065 1066 -1067 0
1065 -1066 1067 0
1066 -9885 -940 0
-1066 9885 0
-1066 940 0
1067 -9884 -948 0
-1067 9884 0
-1067 948 0
1068 -844 -1069 1070 0
1068 -844 1069 -1070 0
-1068 844 0
-1068 -1069 -1070 0
-1068 1069 1070 0
1069 55 -940 0
-1069 -55 0
-1069 940 0
1070 56 -948 0
-1070 -56 0
-1070 948 0
-1071 -1072 -1076 0
-1071 1072 1076 0
1071 1072 -1076 0
1071 -1072 1076 0
-1072 844 1073 0
-1072 -844 -1073 0
1072 -844 1073 0
1072 844 -1073 0
-1073 -1074 -1075 0
-1073 1074 1075 0
1073 1074 -1075 0
1073 -1074 1075 0
1074 -9886 -940 0
-1074 9886 0
-1074 940 0
1075 -9885 -948 0
-1075 9885 0
-1075 948 0
1076 -844 -1077 1078 0
1076 -844 1077 -1078 0
-1076 844 0
-1076 -1077 -1078 0
-1076 1077 1078 0
1077 54 -940 0
-1077 -54 0
-1077 940 0
1078 55 -948 0
-1078 -55 0
-1078 948 0
-1079 -1080 -1084 0
-1079 1080 1084 0
1079 1080 -1084 0
1079 -1080 1084 0
-1080 844 1081 0
-1080 -844 -1081 0
1080 -844 1081 0
1080 844 -1081 0
-1081 -1082 -1083 0
-1081 1082 1083 0
1081 1082 -1083 0
1081 -1082 1083 0
1082 -9887 -940 0
-1082 9887 0
-1082 940 0
1083 -9886 -948 0
-1083 9886 0
-1083 948 0
1084 -844 -1085 1086 0
1084 -844 1085 -1086 0
-1084 844 0
-1084 -1085 -1086 0
-1084 1085 1086 0
1085 53 -940 0
-1085 -53 0
-1085 940 0
1086 54 -948 0
-1086 -54 0
-1086 948 0
-1087 -1088 -1092 0
-1087 1088 1092 0
1087 1088 -1092 0
1087 -1088 1092 0
-1088 844 1089 0
-1088 -844 -1089 0
1088 -844 1089 0
1088 844 -1089 0
-1089 -1090 -1091 0
-1089 1090 1091 0
1089 1090 -1091 0
1089 -1090 1091 0
1090 -9888 -940 0
-1090 9888 0
-1090 940 0
1091 -9887 -948 0
-1091 9887 0
-1091 948 0
1092 -844 -1093 1094 0
1092 -844 1093 -1094 0
-1092 844 0
-1092 -1093 -1094 0
-1092 1093 1094 0
1093 52 -940 0
-1093 -52 0
-1093 940 0
1094 53 -948 0
-1094 -53 0
-1094 948 0
-1095 -1096 -1100 0
-1095 1096 1100 0
1095 1096 -1100 0
1095 -1096 1100 0
-1096 844 1097 0
-1096 -844 -1097 0
1096 -844 1097 0
1096 844 -1097 0
-1097 -1098 -1099 0
-1097 1098 1099 0
1097 1098 -1099 0
1097 -1098 1099 0
1098 -9889 -940 0
-1098 9889 0
-1098 940 0
1099 -9888 -948 0
-1099 9888 0
-1099 948 0
1100 -844 -1101 1102 0
1100 -844 1101 -1102 0
-1100 844 0
-1100 -1101 -1102 0
-1100 1101 1102 0
1101 51 -940 0
-1101 -51 0
-1101 940 0
1102 52 -948 0
-1102 -52 0
-1102 948 0
-1103 -1104 -1108 0
-1103 1104 1108 0
1103 1104 -1108 0
1103 -1104 1108 0
-1104 844 1105 0
-1104 -844 -1105 0
1104 -844 1105 0
1104 844 -1105 0
-1105 -1106 -1107 0
-1105 1106 1107 0
1105 1106 -1107 0
1105 -1106 1107 0
1106 -9890 -940 0
-1106 9890 0
-1106 940 0
1107 -9889 -948 0
-1107 9889 0
-1107 948 0
1108 -844 -1109 1110 0
1108 -844 1109 -1110 0
-1108 844 0
-1108 -1109 -1110 0
-1108 1109 1110 0
1109 50 -940 0
-1109 -50 0
-1109 940 0
1110 51 -948 0
-1110 -51 0
-1110 948 0
-1111 -1112 -1116 0
-1111 1112 1116 0
1111 1112 -1116 0
1111 -1112 1116 0
-1112 844 1113 0
-1112 -844 -1113 0
1112 -844 1113 0
1112 844 -1113 0
-1113 -1114 -1115 0
-1113 1114 1115 0
1113 1114 -1115 0
1113 -1114 1115 0
1114 -9891 -940 0
-1114 9891 0
-1114 940 0
1115 -9890 -948 0
-1115 9890 0
-1115 948 0
1116 -844 -1117 1118 0
1116 -844 1117 -1118 0
-1116 844 0
-1116 -1117 -1118 0
-1116 1117 1118 0
1117 49 -940 0
-1117 -49 0
-1117 940 0
1118 50 -948 0
-1118 -50 0
-1118 948 0
-1119 -1120 -1124 0
-1119 1120 1124 0
1119 1120 -1124 0
1119 -1120 1124 0
-1120 844 1121 0
-1120 -844 -1121 0
1120 -844 1121 0
1120 844 -1121 0
-1121 -1122 -1123 0
-1121 1122 1123 0
1121 1122 -1123 0
1121 -1122 1123 0
1122 -9892 -940 0
-1122 9892 0
-1122 940 0
1123 -9891 -948 0
-1123 9891 0
-1123 948 0
1124 -844 -1125 1126 0
1124 -844 1125 -1126 0
-1124 844 0
-1124 -1125 -1126 0
-1124 1125 1126 0
1125 48 -940 0
-1125 -48 0
-1125 940 0
1126 49 -948 0
-1126 -49 0
-1126 948 0
-1127 -1128 -1132 0
-1127 1128 1132 0
1127 1128 -1132 0
1127 -1128 1132 0
-1128 844 1129 0
-1128 -844 -1129 0
1128 -844 1129 0
1128 844 -1129 0
-1129 -1130 -1131 0
-1129 1130 1131 0
1129 1130 -1131 0
1129 -1130 1131 0
1130 -9893 -940 0
-1130 9893 0
-1130 940 0
1131 -9892 -948 0
-1131 9892 0
-1131 948 0
1132 -844 -1133 1134 0
1132 -844 1133 -1134 0
-1132 844 0
-1132 -1133 -1134 0
-1132 1133 1134 0
1133 47 -940 0
-1133 -47 0
-1133 940 0
1134 48 -948 0
-1134 -48 0
-1134 948 0
-1135 -1136 -1140 0
-1135 1136 1140 0
1135 1136 -1140 0
1135 -1136 1140 0
-1136 844 1137 0
-1136 -844 -1137 0
1136 -844 1137 0
1136 844 -1137 0
-1137 -1138 -1139 0
-1137 1138 1139 0
1137 1138 -1139 0
1137 -1138 1139 0
1138 -9894 -940 0
-1138 9894 0
-1138 940 0
1139 -9893 -948 0
-1139 9893 0
-1139 948 0
1140 -844 -1141 1142 0
1140 -844 1141 -1142 0
-1140 844 0
-1140 -1141 -1142 0
-1140 1141 1142 0
1141 46 -940 0
-1141 -46 0
-1141 940 0
1142 47 -948 0
-1142 -47 0
-1142 948 0
-1143 -1144 -1148 0
-1143 1144 1148 0
1143 1144 -1148 0
1143 -1144 1148 0
-1144 844 1145 0
-1144 -844 -1145 0
1144 -844 1145 0
1144 844 -1145 0
-1145 -1146 -1147 0
-1145 1146 1147 0
1145 1146 -1147 0
1145 -1146 1147 0
1146 -9895 -940 0
-1146 9895 0
-1146 940 0
1147 -9894 -948 0
-1147 9894 0
-1147 948 0
1148 -844 -1149 1150 0
1148 -844 1149 -1150 0
-1148 844 0
-1148 -1149 -1150 0
-1148 1149 1150 0
1149 45 -940 0
-1149 -45 0
-1149 940 0
1150 46 -948 0
-1150 -46 0
-1150 948 0
-1151 -1152 -1156 0
-1151 1152 1156 0
1151 1152 -1156 0
1151 -1152 1156 0
-1152 844 1153 0
-1152 -844 -1153 0
1152 -844 1153 0
1152 844 -1153 0
-1153 -1154 -1155 0
-1153 1154 1155 0
1153 1154 -1155 0
1153 -1154 1155 0
1154 -9896 -940 0
-1154 9896 0
-1154 940 0
1155 -9895 -948 0
-1155 9895 0
-1155 948 0
1156 -844 -1157 1158 0
1156 -844 1157 -1158 0
-1156 844 0
-1156 -1157 -1158 0
-1156 1157 1158 0
1157 44 -940 0
-1157 -44 0
-1157 940 0
1158 45 -948 0
-1158 -45 0
-1158 948 0
-1159 -1160 -1164 0
-1159 1160 1164 0
1159 1160 -1164 0
1159 -1160 1164 0
-1160 844 1161 0
-1160 -844 -1161 0
1160 -844 1161 0
1160 844 -1161 0
-1161 -1162 -1163 0
-1161 1162 1163 0
1161 1162 -1163 0
1161 -1162 1163 0
1162 -9897 -940 0
-1162 9897 0
-1162 940 0
1163 -9896 -948 0
-1163 9896 0
-1163 948 0
1164 -844 -1165 1166 0
1164 -844 1165 -1166 0
-1164 844 0
-1164 -1165 -1166 0
-1164 1165 1166 0
1165 43 -940 0
-1165 -43 0
-1165 940 0
1166 44 -948 0
-1166 -44 0
-1166 948 0
-1167 -1168 -1172 0
-1167 1168 1172 0
1167 1168 -1172 0
1167 -1168 1172 0
-1168 844 1169 0
-1168 -844 -1169 0
1168 -844 1169 0
1168 844 -1169 0
-1169 -1170 -1171 0
-1169 1170 1171 0
1169 1170 -1171 0
1169 -1170 1171 0
1170 -9898 -940 0
-1170 9898 0
-1170 940 0
1171 -9897 -948 0
-1171 9897 0
-1171 948 0
1172 -844 -1173 1174 0
1172 -844 1173 -1174 0
-1172 844 0
-1172 -1173 -1174 0
-1172 1173 1174 0
1173 42 -940 0
-1173 -42 0
-1173 940 0
1174 43 -948 0
-1174 -43 0
-1174 948 0
-1175 -1176 -1180 0
-1175 1176 1180 0
1175 1176 -1180 0
1175 -1176 1180 0
-1176 844 1177 0
-1176 -844 -1177 0
1176 -844 1177 0
1176 844 -1177 0
-1177 -1178 -1179 0
-1177 1178 1179 0
1177 1178 -1179 0
1177 -1178 1179 0
1178 -9899 -940 0
-1178 9899 0
-1178 940 0
1179 -9898 -948 0
-1179 9898 0
-1179 948 0
1180 -844 -1181 1182 0
1180 -844 1181 -1182 0
-1180 844 0
-1180 -1181 -1182 0
-1180 1181 1182 0
1181 41 -940 0
-1181 -41 0
-1181 940 0
1182 42 -948 0
-1182 -42 0
-1182 948 0
-1183 -1184 -1188 0
-1183 1184 1188 0
1183 1184 -1188 0
1183 -1184 1188 0
-1184 844 1185 0
-1184 -844 -1185 0
1184 -844 1185 0
1184 844 -1185 0
-1185 -1186 -1187 0
-1185 1186 1187 0
1185 1186 -1187 0
1185 -1186 1187 0
1186 -9900 -940 0
-1186 9900 0
-1186 940 0
1187 -9899 -948 0
-1187 9899 0
-1187 948 0
1188 -844 -1189 1190 0
1188 -844 1189 -1190 0
-1188 844 0
-1188 -1189 -1190 0
-1188 1189 1190 0
1189 40 -940 0
-1189 -40 0
-1189 940 0
1190 41 -948 0
-1190 -41 0
-1190 948 0
-1191 -1192 -1194 0
-1191 1192 1194 0
1191 1192 -1194 0
1191 -1192 1194 0
-1192 -844 -1193 0
-1192 844 1193 0
1192 844 -1193 0
1192 -844 1193 0
1193 -9900 -948 0
-1193 9900 0
-1193 948 0
1194 -844 -1195 1196 0
1194 -844 1195 -1196 0
-1194 844 0
-1194 -1195 -1196 0
-1194 1195 1196 0
1195 39 -940 0
-1195 -39 0
-1195 940 0
1196 40 -948 0
-1196 -40 0
-1196 948 0
-1197 1198 0
1197 -1198 0
1198 -39 -1199 0
-1198 39 0
-1198 1199 0
-1199 1200 0
1199 -1200 0
1200 9909 -9910 0
1200 9908 -9910 0
-1200 9910 0
-1200 -9908 -9909 0
-1201 31 1202 0
-1201 1202 1546 0
-1201 31 1546 0
1201 -31 -1546 0
1201 -1202 -1546 0
1201 -31 -1202 0
-1202 31 1203 0
-1202 1203 1538 0
-1202 31 1538 0
1202 -31 -1538 0
1202 -1203 -1538 0
1202 -31 -1203 0
-1203 1204 1206 0
-1203 1206 1530 0
-1203 1204 1530 0
1203 -1204 -1530 0
1203 -1206 -1530 0
1203 -1204 -1206 0
-1204 847 1205 0
-1204 -847 -1205 0
1204 -847 1205 0
1204 847 -1205 0
-1205 33 1191 0
-1205 -33 -1191 0
1205 -33 1191 0
1205 33 -1191 0
-1206 1207 1209 0
-1206 1209 1522 0
-1206 1207 1522 0
1206 -1207 -1522 0
1206 -1209 -1522 0
1206 -1207 -1209 0
-1207 848 1208 0
-1207 -848 -1208 0
1207 -848 1208 0
1207 848 -1208 0
-1208 33 1183 0
-1208 -33 -1183 0
1208 -33 1183 0
1208 33 -1183 0
-1209 1210 1212 0
-1209 1212 1514 0
-1209 1210 1514 0
1209 -1210 -1514 0
1209 -1212 -1514 0
1209 -1210 -1212 0
-1210 851 1211 0
-1210 -851 -1211 0
1210 -851 1211 0
1210 851 -1211 0
-1211 849 1175 0
-1211 -849 -1175 0
1211 -849 1175 0
1211 849 -1175 0
-1212 1213 1215 0
-1212 1215 1506 0
-1212 1213 1506 0
1212 -1213 -1506 0
1212 -1215 -1506 0
1212 -1213 -1215 0
-1213 854 1214 0
-1213 -854 -1214 0
1213 -854 1214 0
1213 854 -1214 0
-1214 852 1167 0
-1214 -852 -1167 0
1214 -852 1167 0
1214 852 -1167 0
-1215 1216 1218 0
-1215 1218 1498 0
-1215 1216 1498 0
1215 -1216 -1498 0
1215 -1218 -1498 0
1215 -1216 -1218 0
-1216 857 1217 0
-1216 -857 -1217 0
1216 -857 1217 0
1216 857 -1217 0
-1217 855 1159 0
-1217 -855 -1159 0
1217 -855 1159 0
1217 855 -1159 0
-1218 1219 1221 0
-1218 1221 1490 0
-1218 1219 1490 0
1218 -1219 -1490 0
1218 -1221 -1490 0
1218 -1219 -1221 0
-1219 860 1220 0
-1219 -860 -1220 0
1219 -860 1220 0
1219 860 -1220 0
-1220 858 1151 0
-1220 -858 -1151 0
1220 -858 1151 0
1220 858 -1151 0
-1221 1222 1224 0
-1221 1224 1482 0
-1221 1222 1482 0
1221 -1222 -1482 0
1221 -1224 -1482 0
1221 -1222 -1224 0
-1222 863 1223 0
-1222 -863 -1223 0
1222 -863 1223 0
1222 863 -1223 0
-1223 861 1143 0
-1223 -861 -1143 0
1223 -861 1143 0
1223 861 -1143 0
-1224 1225 1227 0
-1224 1227 1474 0
-1224 1225 1474 0
1224 -1225 -1474 0
1224 -1227 -1474 0
1224 -1225 -1227 0
-1225 866 1226 0
-1225 -866 -1226 0
1225 -866 1226 0
1225 866 -1226 0
-1226 864 1135 0
-1226 -864 -1135 0
1226 -864 1135 0
1226 864 -1135 0
-1227 1228 1230 0
-1227 1230 1466 0
-1227 1228 1466 0
1227 -1228 -1466 0
1227 -1230 -1466 0
1227 -1228 -1230 0
-1228 869 1229 0
-1228 -869 -1229 0
1228 -869 1229 0
1228 869 -1229 0
-1229 867 1127 0
-1229 -867 -1127 0
1229 -867 1127 0
1229 867 -1127 0
-1230 1231 1233 0
-1230 1233 1458 0
-1230 1231 1458 0
1230 -1231 -1458 0
1230 -1233 -1458 0
1230 -1231 -1233 0
-1231 872 1232 0
-1231 -872 -1232 0
1231 -872 1232 0
1231 872 -1232 0
-1232 870 1119 0
-1232 -870 -1119 0
1232 -870 1119 0
1232 870 -1119 0
-1233 1234 1236 0
-1233 1236 1450 0
-1233 1234 1450 0
1233 -1234 -1450 0
1233 -1236 -1450 0
1233 -1234 -1236 0
-1234 875 1235 0
-1234 -875 -1235 0
1234 -875 1235 0
1234 875 -1235 0
-1235 873 1111 0
-1235 -873 -1111 0
1235 -873 1111 0
1235 873 -1111 0
-1236 1237 1239 0
-1236 1239 1442 0
-1236 1237 1442 0
1236 -1237 -1442 0
1236 -1239 -1442 0
1236 -1237 -1239 0
-1237 878 1238 0
-1237 -878 -1238 0
1237 -878 1238 0
1237 878 -1238 0
-1238 876 1103 0
-1238 -876 -1103 0
1238 -876 1103 0
1238 876 -1103 0
-1239 1240 1242 0
-1239 1242 1434 0
-1239 1240 1434 0
1239 -1240 -1434 0
1239 -1242 -1434 0
1239 -1240 -1242 0
-1240 881 1241 0
-1240 -881 -1241 0
1240 -881 1241 0
1240 881 -1241 0
-1241 879 1095 0
-1241 -879 -1095 0
1241 -879 1095 0
1241 879 -1095 0
-1242 1243 1245 0
-1242 1245 1426 0
-1242 1243 1426 0
1242 -1243 -1426 0
1242 -1245 -1426 0
1242 -1243 -1245 0
-1243 884 1244 0
-1243 -884 -1244 0
1243 -884 1244 0
1243 884 -1244 0
-1244 882 1087 0
-1244 -882 -1087 0
1244 -882 1087 0
1244 882 -1087 0
-1245 1246 1248 0
-1245 1248 1418 0
-1245 1246 1418 0
1245 -1246 -1418 0
1245 -1248 -1418 0
1245 -1246 -1248 0
-1246 887 1247 0
-1246 -887 -1247 0
1246 -887 1247 0
1246 887 -1247 0
-1247 885 1079 0
-1247 -885 -1079 0
1247 -885 1079 0
1247 885 -1079 0
-1248 1249 1251 0
-1248 1251 1410 0
-1248 1249 1410 0
1248 -1249 -1410 0
1248 -1251 -1410 0
1248 -1249 -1251 0
-1249 890 1250 0
-1249 -890 -1250 0
1249 -890 1250 0
1249 890 -1250 0
-1250 888 1071 0
-1250 -888 -1071 0
1250 -888 1071 0
1250 888 -1071 0
-1251 1252 1254 0
-1251 1254 1402 0
-1251 1252 1402 0
1251 -1252 -1402 0
1251 -1254 -1402 0
1251 -1252 -1254 0
-1252 893 1253 0
-1252 -893 -1253 0
1252 -893 1253 0
1252 893 -1253 0
-1253 891 1063 0
-1253 -891 -1063 0
1253 -891 1063 0
1253 891 -1063 0
-1254 1255 1257 0
-1254 1257 1394 0
-1254 1255 1394 0
1254 -1255 -1394 0
1254 -1257 -1394 0
1254 -1255 -1257 0
-1255 896 1256 0
-1255 -896 -1256 0
1255 -896 1256 0
1255 896 -1256 0
-1256 894 1055 0
-1256 -894 -1055 0
1256 -894 1055 0
1256 894 -1055 0
-1257 1258 1260 0
-1257 1260 1386 0
-1257 1258 1386 0
1257 -1258 -1386 0
1257 -1260 -1386 0
1257 -1258 -1260 0
-1258 899 1259 0
-1258 -899 -1259 0
1258 -899 1259 0
1258 899 -1259 0
-1259 897 1047 0
-1259 -897 -1047 0
1259 -897 1047 0
1259 897 -1047 0
-1260 1261 1263 0
-1260 1263 1378 0
-1260 1261 1378 0
1260 -1261 -1378 0
1260 -1263 -1378 0
1260 -1261 -1263 0
-1261 902 1262 0
-1261 -902 -1262 0
1261 -902 1262 0
1261 902 -1262 0
-1262 900 1039 0
-1262 -900 -1039 0
1262 -900 1039 0
1262 900 -1039 0
-1263 1264 1266 0
-1263 1266 1370 0
-1263 1264 1370 0
1263 -1264 -1370 0
1263 -1266 -1370 0
1263 -1264 -1266 0
-1264 905 1265 0
-1264 -905 -1265 0
1264 -905 1265 0
1264 905 -1265 0
-1265 903 1031 0
-1265 -903 -1031 0
1265 -903 1031 0
1265 903 -1031 0
-1266 1267 1269 0
-1266 1269 1362 0
-1266 1267 1362 0
1266 -1267 -1362 0
1266 -1269 -1362 0
1266 -1267 -1269 0
-1267 908 1268 0
-1267 -908 -1268 0
1267 -908 1268 0
1267 908 -1268 0
-1268 906 1023 0
-1268 -906 -1023 0
1268 -906 1023 0
1268 906 -1023 0
-1269 1270 1272 0
-1269 1272 1354 0
-1269 1270 1354 0
1269 -1270 -1354 0
1269 -1272 -1354 0
1269 -1270 -1272 0
-1270 911 1271 0
-1270 -911 -1271 0
1270 -911 1271 0
1270 911 -1271 0
-1271 909 1015 0
-1271 -909 -1015 0
1271 -909 1015 0
1271 909 -1015 0
-1272 1273 1275 0
-1272 1275 1346 0
-1272 1273 1346 0
1272 -1273 -1346 0
1272 -1275 -1346 0
1272 -1273 -1275 0
-1273 914 1274 0
-1273 -914 -1274 0
1273 -914 1274 0
1273 914 -1274 0
-1274 912 1007 0
-1274 -912 -1007 0
1274 -912 1007 0
1274 912 -1007 0
-1275 1276 1278 0
-1275 1278 1338 0
-1275 1276 1338 0
1275 -1276 -1338 0
1275 -1278 -1338 0
1275 -1276 -1278 0
-1276 917 1277 0
-1276 -917 -1277 0
1276 -917 1277 0
1276 917 -1277 0
-1277 915 999 0
-1277 -915 -999 0
1277 -915 999 0
1277 915 -999 0
-1278 1279 1281 0
-1278 1281 1330 0
-1278 1279 1330 0
1278 -1279 -1330 0
1278 -1281 -1330 0
1278 -1279 -1281 0
-1279 920 1280 0
-1279 -920 -1280 0
1279 -920 1280 0
1279 920 -1280 0
-1280 918 991 0
-1280 -918 -991 0
1280 -918 991 0
1280 918 -991 0
-1281 1282 1284 0
-1281 1284 1322 0
-1281 1282 1322 0
1281 -1282 -1322 0
1281 -1284 -1322 0
1281 -1282 -1284 0
-1282 923 1283 0
-1282 -923 -1283 0
1282 -923 1283 0
1282 923 -1283 0
-1283 921 983 0
-1283 -921 -983 0
1283 -921 983 0
1283 921 -983 0
-1284 1285 1287 0
-1284 1287 1314 0
-1284 1285 1314 0
1284 -1285 -1314 0
1284 -1287 -1314 0
1284 -1285 -1287 0
-1285 926 1286 0
-1285 -926 -1286 0
1285 -926 1286 0
1285 926 -1286 0
-1286 924 975 0
-1286 -924 -975 0
1286 -924 975 0
1286 924 -975 0
-1287 1288 1290 0
-1287 1290 1306 0
-1287 1288 1306 0
1287 -1288 -1306 0
1287 -1290 -1306 0
1287 -1288 -1290 0
-1288 929 1289 0
-1288 -929 -1289 0
1288 -929 1289 0
1288 929 -1289 0
-1289 927 967 0
-1289 -927 -967 0
1289 -927 967 0
1289 927 -967 0
-1290 1291 1298 0
-1290 1291 1293 0
-1290 1293 1298 0
1290 -1293 -1298 0
1290 -1291 -1298 0
1290 -1291 -1293 0
-1291 932 1292 0
-1291 -932 -1292 0
1291 -932 1292 0
1291 932 -1292 0
-1292 930 959 0
-1292 -930 -959 0
1292 -930 959 0
1292 930 -959 0
1293 -1294 -1296 0
-1293 1294 0
-1293 1296 0
1294 -9869 -1295 0
-1294 9869 0
-1294 1295 0
-1295 -9908 -9909 0
-1295 9908 9909 0
1295 9908 -9909 0
1295 -9908 9909 0
-1296 935 1297 0
-1296 -935 -1297 0
1296 -935 1297 0
1296 935 -1297 0
-1297 933 951 0
-1297 -933 -951 0
1297 -933 951 0
1297 933 -951 0
-1298 -1299 -1304 0
-1298 1299 1304 0
1298 1299 -1304 0
1298 -1299 1304 0
-1299 1199 1300 0
-1299 -1199 -1300 0
1299 -1199 1300 0
1299 1199 -1300 0
-1300 -1301 -1302 0
-1300 1301 1302 0
1300 1301 -1302 0
1300 -1301 1302 0
1301 -9870 -1295 0
-1301 9870 0
-1301 1295 0
1302 -9869 -1303 0
-1302 9869 0
-1302 1303 0
-1303 -9908 -9910 0
-1303 9909 9910 0
-1303 9908 -9909 0
1303 -9908 -9909 9910 0
1303 9908 9909 -9910 0
1304 -1199 1303 -1305 0
1304 -1199 -1303 1305 0
-1304 1199 0
-1304 1303 1305 0
-1304 -1303 -1305 0
1305 9869 -1295 0
-1305 -9869 0
-1305 1295 0
-1306 -1307 -1311 0
-1306 1307 1311 0
1306 1307 -1311 0
1306 -1307 1311 0
-1307 1199 1308 0
-1307 -1199 -1308 0
1307 -1199 1308 0
1307 1199 -1308 0
-1308 -1309 -1310 0
-1308 1309 1310 0
1308 1309 -1310 0
1308 -1309 1310 0
1309 -9871 -1295 0
-1309 9871 0
-1309 1295 0
1310 -9870 -1303 0
-1310 9870 0
-1310 1303 0
1311 -1199 -1312 1313 0
1311 -1199 1312 -1313 0
-1311 1199 0
-1311 -1312 -1313 0
-1311 1312 1313 0
1312 69 -1295 0
-1312 -69 0
-1312 1295 0
1313 9869 -1303 0
-1313 -9869 0
-1313 1303 0
-1314 -1315 -1319 0
-1314 1315 1319 0
1314 1315 -1319 0
1314 -1315 1319 0
-1315 1199 1316 0
-1315 -1199 -1316 0
1315 -1199 1316 0
1315 1199 -1316 0
-1316 -1317 -1318 0
-1316 1317 1318 0
1316 1317 -1318 0
1316 -1317 1318 0
1317 -9872 -1295 0
-1317 9872 0
-1317 1295 0
1318 -9871 -1303 0
-1318 9871 0
-1318 1303 0
1319 -1199 -1320 1321 0
1319 -1199 1320 -1321 0
-1319 1199 0
-1319 -1320 -1321 0
-1319 1320 1321 0
1320 68 -1295 0
-1320 -68 0
-1320 1295 0
1321 69 -1303 0
-1321 -69 0
-1321 1303 0
-1322 -1323 -1327 0
-1322 1323 1327 0
1322 1323 -1327 0
1322 -1323 1327 0
-1323 1199 1324 0
-1323 -1199 -1324 0
1323 -1199 1324 0
1323 1199 -1324 0
-1324 -1325 -1326 0
-1324 1325 1326 0
1324 1325 -1326 0
1324 -1325 1326 0
1325 -9873 -1295 0
-1325 9873 0
-1325 1295 0
1326 -9872 -1303 0
-1326 9872 0
-1326 1303 0
1327 -1199 -1328 1329 0
1327 -1199 1328 -1329 0
-1327 1199 0
-1327 -1328 -1329 0
-1327 1328 1329 0
1328 67 -1295 0
-1328 -67 0
-1328 1295 0
1329 68 -1303 0
-1329 -68 0
-1329 1303 0
-1330 -1331 -1335 0
-1330 1331 1335 0
1330 1331 -1335 0
1330 -1331 1335 0
-1331 1199 1332 0
-1331 -1199 -1332 0
1331 -1199 1332 0
1331 1199 -1332 0
-1332 -1333 -1334 0
-1332 1333 1334 0
1332 1333 -1334 0
1332 -1333 1334 0
1333 -9874 -1295 0
-1333 9874 0
-1333 1295 0
1334 -9873 -1303 0
-1334 9873 0
-1334 1303 0
1335 -1199 -1336 1337 0
1335 -1199 1336 -1337 0
-1335 1199 0
-1335 -1336 -1337 0
-1335 1336 1337 0
1336 66 -1295 0
-1336 -66 0
-1336 1295 0
1337 67 -1303 0
-1337 -67 0
-1337 1303 0
-1338 -1339 -1343 0
-1338 1339 1343 0
1338 1339 -1343 0
1338 -1339 1343 0
-1339 1199 1340 0
-1339 -1199 -1340 0
1339 -1199 1340 0
1339 1199 -1340 0
-1340 -1341 -1342 0
-1340 1341 1342 0
1340 1341 -1342 0
1340 -1341 1342 0
1341 -9875 -1295 0
-1341 9875 0
-1341 1295 0
1342 -9874 -1303 0
-1342 9874 0
-1342 1303 0
1343 -1199 -1344 1345 0
1343 -1199 1344 -1345 0
-1343 1199 0
-1343 -1344 -1345 0
-1343 1344 1345 0
1344 65 -1295 0
-1344 -65 0
-1344 1295 0
1345 66 -1303 0
-1345 -66 0
-1345 1303 0
-1346 -1347 -1351 0
-1346 1347 1351 0
1346 1347 -1351 0
1346 -1347 1351 0
-1347 1199 1348 0
-1347 -1199 -1348 0
1347 -1199 1348 0
1347 1199 -1348 0
-1348 -1349 -1350 0
-1348 1349 1350 0
1348 1349 -1350 0
1348 -1349 1350 0
1349 -9876 -1295 0
-1349 9876 0
-1349 1295 0
1350 -9875 -1303 0
-1350 9875 0
-1350 1303 0
1351 -1199 -1352 1353 0
1351 -1199 1352 -1353 0
-1351 1199 0
-1351 -1352 -1353 0
-1351 1352 1353 0
1352 64 -1295 0
-1352 -64 0
-1352 1295 0
1353 65 -1303 0
-1353 -65 0
-1353 1303 0
-1354 -1355 -1359 0
-1354 1355 1359 0
1354 1355 -1359 0
1354 -1355 1359 0
-1355 1199 1356 0
-1355 -1199 -1356 0
1355 -1199 1356 0
1355 1199 -1356 0
-1356 -1357 -1358 0
-1356 1357 1358 0
1356 1357 -1358 0
1356 -1357 1358 0
1357 -9877 -1295 0
-1357 9877 0
-1357 1295 0
1358 -9876 -1303 0
-1358 9876 0
-1358 1303 0
1359 -1199 -1360 1361 0
1359 -1199 1360 -1361 0
-1359 1199 0
-1359 -1360 -1361 0
-1359 1360 1361 0
1360 63 -1295 0
-1360 -63 0
-1360 1295 0
1361 64 -1303 0
-1361 -64 0
-1361 1303 0
-1362 -1363 -1367 0
-1362 1363 1367 0
1362 1363 -1367 0
1362 -1363 1367 0
-1363 1199 1364 0
-1363 -1199 -1364 0
1363 -1199 1364 0
1363 1199 -1364 0
-1364 -1365 -1366 0
-1364 1365 1366 0
1364 1365 -1366 0
1364 -1365 1366 0
1365 -9878 -1295 0
-1365 9878 0
-1365 1295 0
1366 -9877 -1303 0
-1366 9877 0
-1366 1303 0
1367 -1199 -1368 1369 0
1367 -1199 1368 -1369 0
-1367 1199 0
-1367 -1368 -1369 0
-1367 1368 1369 0
1368 62 -1295 0
-1368 -62 0
-1368 1295 0
1369 63 -1303 0
-1369 -63 0
-1369 1303 0
-1370 -1371 -1375 0
-1370 1371 1375 0
1370 1371 -1375 0
1370 -1371 1375 0
-1371 1199 1372 0
-1371 -1199 -1372 0
1371 -1199 1372 0
1371 1199 -1372 0
-1372 -1373 -1374 0
-1372 1373 1374 0
1372 1373 -1374 0
1372 -1373 1374 0
1373 -9879 -1295 0
-1373 9879 0
-1373 1295 0
1374 -9878 -1303 0
-1374 9878 0
-1374 1303 0
1375 -1199 -1376 1377 0
1375 -1199 1376 -1377 0
-1375 1199 0
-1375 -1376 -1377 0
-1375 1376 1377 0
1376 61 -1295 0
-1376 -61 0
-1376 1295 0
1377 62 -1303 0
-1377 -62 0
-1377 1303 0
-1378 -1379 -1383 0
-1378 1379 1383 0
1378 1379 -1383 0
1378 -1379 1383 0
-1379 1199 1380 0
-1379 -1199 -1380 0
1379 -1199 1380 0
1379 1199 -1380 0
-1380 -1381 -1382 0
-1380 1381 1382 0
1380 1381 -1382 0
1380 -1381 1382 0
1381 -9880 -1295 0
-1381 9880 0
-1381 1295 0
1382 -9879 -1303 0
-1382 9879 0
-1382 1303 0
1383 -1199 -1384 1385 0
1383 -1199 1384 -1385 0
-1383 1199 0
-1383 -1384 -1385 0
-1383 1384 1385 0
1384 60 -1295 0
-1384 -60 0
-1384 1295 0
1385 61 -1303 0
-1385 -61 0
-1385 1303 0
-1386 -1387 -1391 0
-1386 1387 1391 0
1386 1387 -1391 0
1386 -1387 1391 0
-1387 1199 1388 0
-1387 -1199 -1388 0
1387 -1199 1388 0
1387 1199 -1388 0
-1388 -1389 -1390 0
-1388 1389 1390 0
1388 1389 -1390 0
1388 -1389 1390 0
1389 -9881 -1295 0
-1389 9881 0
-1389 1295 0
1390 -9880 -1303 0
-1390 9880 0
-1390 1303 0
1391 -1199 -1392 1393 0
1391 -1199 1392 -1393 0
-1391 1199 0
-1391 -1392 -1393 0
-1391 1392 1393 0
1392 59 -1295 0
-1392 -59 0
-1392 1295 0
1393 60 -1303 0
-1393 -60 0
-1393 1303 0
-1394 -1395 -1399 0
-1394 1395 1399 0
1394 1395 -1399 0
1394 -1395 1399 0
-1395 1199 1396 0
-1395 -1199 -1396 0
1395 -1199 1396 0
1395 1199 -1396 0
-1396 -1397 -1398 0
-1396 1397 1398 0
1396 1397 -1398 0
1396 -1397 1398 0
1397 -9882 -1295 0
-1397 9882 0
-1397 1295 0
1398 -9881 -1303 0
-1398 9881 0
-1398 1303 0
1399 -1199 -1400 1401 0
1399 -1199 1400 -1401 0
-1399 1199 0
-1399 -1400 -1401 0
-1399 1400 1401 0
1400 58 -1295 0
-1400 -58 0
-1400 1295 0
1401 59 -1303 0
-1401 -59 0
-1401 1303 0
-1402 -1403 -1407 0
-1402 1403 1407 0
1402 1403 -1407 0
1402 -1403 1407 0
-1403 1199 1404 0
-1403 -1199 -1404 0
1403 -1199 1404 0
1403 1199 -1404 0
-1404 -1405 -1406 0
-1404 1405 1406 0
1404 1405 -1406 0
1404 -1405 1406 0
1405 -9883 -1295 0
-1405 9883 0
-1405 1295 0
1406 -9882 -1303 0
-1406 9882 0
-1406 1303 0
1407 -1199 -1408 1409 0
1407 -1199 1408 -1409 0
-1407 1199 0
-1407 -1408 -1409 0
-1407 1408 1409 0
1408 57 -1295 0
-1408 -57 0
-1408 1295 0
1409 58 -1303 0
-1409 -58 0
-1409 1303 0
-1410 -1411 -1415 0
-1410 1411 1415 0
1410 1411 -1415 0
1410 -1411 1415 0
-1411 1199 1412 0
-1411 -1199 -1412 0
1411 -1199 1412 0
1411 1199 -1412 0
-1412 -1413 -1414 0
-1412 1413 1414 0
1412 1413 -1414 0
1412 -1413 1414 0
1413 -9884 -1295 0
-1413 9884 0
-1413 1295 0
1414 -9883 -1303 0
-1414 9883 0
-1414 1303 0
1415 -1199 -1416 1417 0
1415 -1199 1416 -1417 0
-1415 1199 0
-1415 -1416 -1417 0
-1415 1416 1417 0
1416 56 -1295 0
-1416 -56 0
-1416 1295 0
1417 57 -1303 0
-1417 -57 0
-1417 1303 0
-1418 -1419 -1423 0
-1418 1419 1423 0
1418 1419 -1423 0
1418 -1419 1423 0
-1419 1199 1420 0
-1419 -1199 -1420 0
1419 -1199 1420 0
1419 1199 -1420 0
-1420 -1421 -1422 0
-1420 1421 1422 0
1420 1421 -1422 0
1420 -1421 1422 0
1421 -9885 -1295 0
-1421 9885 0
-1421 1295 0
1422 -9884 -1303 0
-1422 9884 0
-1422 1303 0
1423 -1199 -1424 1425 0
1423 -1199 1424 -1425 0
-1423 1199 0
-1423 -1424 -1425 0
-1423 1424 1425 0
1424 55 -1295 0
-1424 -55 0
-1424 1295 0
1425 56 -1303 0
-1425 -56 0
-1425 1303 0
-1426 -1427 -1431 0
-1426 1427 1431 0
1426 1427 -1431 0
1426 -1427 1431 0
-1427 1199 1428 0
-1427 -1199 -1428 0
1427 -1199 1428 0
1427 1199 -1428 0
-1428 -1429 -1430 0
-1428 1429 1430 0
1428 1429 -1430 0
1428 -1429 1430 0
1429 -9886 -1295 0
-1429 9886 0
-1429 1295 0
1430 -9885 -1303 0
-1430 9885 0
-1430 1303 0
1431 -1199 -1432 1433 0
1431 -1199 1432 -1433 0
-1431 1199 0
-1431 -1432 -1433 0
-1431 1432 1433 0
1432 54 -1295 0
-1432 -54 0
-1432 1295 0
1433 55 -1303 0
-1433 -55 0
-1433 1303 0
-1434 -1435 -1439 0
-1434 1435 1439 0
1434 1435 -1439 0
1434 -1435 1439 0
-1435 1199 1436 0
-1435 -1199 -1436 0
1435 -1199 1436 0
1435 1199 -1436 0
-1436 -1437 -1438 0
-1436 1437 1438 0
1436 1437 -1438 0
1436 -1437 1438 0
1437 -9887 -1295 0
-1437 9887 0
-1437 1295 0
1438 -9886 -1303 0
-1438 9886 0
-1438 1303 0
1439 -1199 -1440 1441 0
1439 -1199 1440 -1441 0
-1439 1199 0
-1439 -1440 -1441 0
-1439 1440 1441 0
1440 53 -1295 0
-1440 -53 0
-1440 1295 0
1441 54 -1303 0
-1441 -54 0
-1441 1303 0
-1442 -1443 -1447 0
-1442 1443 1447 0
1442 1443 -1447 0
1442 -1443 1447 0
-1443 1199 1444 0
-1443 -1199 -1444 0
1443 -1199 1444 0
1443 1199 -1444 0
-1444 -1445 -1446 0
-1444 1445 1446 0
1444 1445 -1446 0
1444 -1445 1446 0
1445 -9888 -1295 0
-1445 9888 0
-1445 1295 0
1446 -9887 -1303 0
-1446 9887 0
-1446 1303 0
1447 -1199 -1448 1449 0
1447 -1199 1448 -1449 0
-1447 1199 0
-1447 -1448 -1449 0
-1447 1448 1449 0
1448 52 -1295 0
-1448 -52 0
-1448 1295 0
1449 53 -1303 0
-1449 -53 0
-1449 1303 0
-1450 -1451 -1455 0
-1450 1451 1455 0
1450 1451 -1455 0
1450 -1451 1455 0
-1451 1199 1452 0
-1451 -1199 -1452 0
1451 -1199 1452 0
1451 1199 -1452 0
-1452 -1453 -1454 0
-1452 1453 1454 0
1452 1453 -1454 0
1452 -1453 1454 0
1453 -9889 -1295 0
-1453 9889 0
-1453 1295 0
1454 -9888 -1303 0
-1454 9888 0
-1454 1303 0
1455 -1199 -1456 1457 0
1455 -1199 1456 -1457 0
-1455 1199 0
-1455 -1456 -1457 0
-1455 1456 1457 0
1456 51 -1295 0
-1456 -51 0
-1456 1295 0
1457 52 -1303 0
-1457 -52 0
-1457 1303 0
-1458 -1459 -1463 0
-1458 1459 1463 0
1458 1459 -1463 0
1458 -1459 1463 0
-1459 1199 1460 0
-1459 -1199 -1460 0
1459 -1199 1460 0
1459 1199 -1460 0
-1460 -1461 -1462 0
-1460 1461 1462 0
1460 1461 -1462 0
1460 -1461 1462 0
1461 -9890 -1295 0
-1461 9890 0
-1461 1295 0
1462 -9889 -1303 0
-1462 9889 0
-1462 1303 0
1463 -1199 -1464 1465 0
1463 -1199 1464 -1465 0
-1463 1199 0
-1463 -1464 -1465 0
-1463 1464 1465 0
1464 50 -1295 0
-1464 -50 0
-1464 1295 0
1465 51 -1303 0
-1465 -51 0
-1465 1303 0
-1466 -1467 -1471 0
-1466 1467 1471 0
1466 1467 -1471 0
1466 -1467 1471 0
-1467 1199 1468 0
-1467 -1199 -1468 0
1467 -1199 1468 0
1467 1199 -1468 0
-1468 -1469 -1470 0
-1468 1469 1470 0
1468 1469 -1470 0
1468 -1469 1470 0
1469 -9891 -1295 0
-1469 9891 0
-1469 1295 0
1470 -9890 -1303 0
-1470 9890 0
-1470 1303 0
1471 -1199 -1472 1473 0
1471 -1199 1472 -1473 0
-1471 1199 0
-1471 -1472 -1473 0
-1471 1472 1473 0
1472 49 -1295 0
-1472 -49 0
-1472 1295 0
1473 50 -1303 0
-1473 -50 0
-1473 1303 0
-1474 -1475 -1479 0
-1474 1475 1479 0
1474 1475 -1479 0
1474 -1475 1479 0
-1475 1199 1476 0
-1475 -1199 -1476 0
1475 -1199 1476 0
1475 1199 -1476 0
-1476 -1477 -1478 0
-1476 1477 1478 0
1476 1477 -1478 0
1476 -1477 1478 0
1477 -9892 -1295 0
-1477 9892 0
-1477 1295 0
1478 -9891 -1303 0
-1478 9891 0
-1478 1303 0
1479 -1199 -1480 1481 0
1479 -1199 1480 -1481 0
-1479 1199 0
-1479 -1480 -1481 0
-1479 1480 1481 0
1480 48 -1295 0
-1480 -48 0
-1480 1295 0
1481 49 -1303 0
-1481 -49 0
-1481 1303 0
-1482 -1483 -1487 0
-1482 1483 1487 0
1482 1483 -1487 0
1482 -1483 1487 0
-1483 1199 1484 0
-1483 -1199 -1484 0
1483 -1199 1484 0
1483 1199 -1484 0
-1484 -1485 -1486 0
-1484 1485 1486 0
1484 1485 -1486 0
1484 -1485 1486 0
1485 -9893 -1295 0
-1485 9893 0
-1485 1295 0
1486 -9892 -1303 0
-1486 9892 0
-1486 1303 0
1487 -1199 -1488 1489 0
1487 -1199 1488 -1489 0
-1487 1199 0
-1487 -1488 -1489 0
-1487 1488 1489 0
1488 47 -1295 0
-1488 -47 0
-1488 1295 0
1489 48 -1303 0
-1489 -48 0
-1489 1303 0
-1490 -1491 -1495 0
-1490 1491 1495 0
1490 1491 -1495 0
1490 -1491 1495 0
-1491 1199 1492 0
-1491 -1199 -1492 0
1491 -1199 1492 0
1491 1199 -1492 0
-1492 -1493 -1494 0
-1492 1493 1494 0
1492 1493 -1494 0
1492 -1493 1494 0
1493 -9894 -1295 0
-1493 9894 0
-1493 1295 0
1494 -9893 -1303 0
-1494 9893 0
-1494 1303 0
1495 -1199 -1496 1497 0
1495 -1199 1496 -1497 0
-1495 1199 0
-1495 -1496 -1497 0
-1495 1496 1497 0
1496 46 -1295 0
-1496 -46 0
-1496 1295 0
1497 47 -1303 0
-1497 -47 0
-1497 1303 0
-1498 -1499 -1503 0
-1498 1499 1503 0
1498 1499 -1503 0
1498 -1499 1503 0
-1499 1199 1500 0
-1499 -1199 -1500 0
1499 -1199 1500 0
1499 1199 -1500 0
-1500 -1501 -1502 0
-1500 1501 1502 0
1500 1501 -1502 0
1500 -1501 1502 0
1501 -9895 -1295 0
-1501 9895 0
-1501 1295 0
1502 -9894 -1303 0
-1502 9894 0
-1502 1303 0
1503 -1199 -1504 1505 0
1503 -1199 1504 -1505 0
-1503 1199 0
-1503 -1504 -1505 0
-1503 1504 1505 0
1504 45 -1295 0
-1504 -45 0
-1504 1295 0
1505 46 -1303 0
-1505 -46 0
-1505 1303 0
-1506 -1507 -1511 0
-1506 1507 1511 0
1506 1507 -1511 0
1506 -1507 1511 0
-1507 1199 1508 0
-1507 -1199 -1508 0
1507 -1199 1508 0
1507 1199 -1508 0
-1508 -1509 -1510 0
-1508 1509 1510 0
1508 1509 -1510 0
1508 -1509 1510 0
1509 -9896 -1295 0
-1509 9896 0
-1509 1295 0
1510 -9895 -1303 0
-1510 9895 0
-1510 1303 0
1511 -1199 -1512 1513 0
1511 -1199 1512 -1513 0
-1511 1199 0
-1511 -1512 -1513 0
-1511 1512 1513 0
1512 44 -1295 0
-1512 -44 0
-1512 1295 0
1513 45 -1303 0
-1513 -45 0
-1513 1303 0
-1514 -1515 -1519 0
-1514 1515 1519 0
1514 1515 -1519 0
1514 -1515 1519 0
-1515 1199 1516 0
-1515 -1199 -1516 0
1515 -1199 1516 0
1515 1199 -1516 0
-1516 -1517 -1518 0
-1516 1517 1518 0
1516 1517 -1518 0
1516 -1517 1518 0
1517 -9897 -1295 0
-1517 9897 0
-1517 1295 0
1518 -9896 -1303 0
-1518 9896 0
-1518 1303 0
1519 -1199 -1520 1521 0
1519 -1199 1520 -1521 0
-1519 1199 0
-1519 -1520 -1521 0
-1519 1520 1521 0
1520 43 -1295 0
-1520 -43 0
-1520 1295 0
1521 44 -1303 0
-1521 -44 0
-1521 1303 0
-1522 -1523 -1527 0
-1522 1523 1527 0
1522 1523 -1527 0
1522 -1523 1527 0
-1523 1199 1524 0
-1523 -1199 -1524 0
1523 -1199 1524 0
1523 1199 -1524 0
-1524 -1525 -1526 0
-1524 1525 1526 0
1524 1525 -1526 0
1524 -1525 1526 0
1525 -9898 -1295 0
-1525 9898 0
-1525 1295 0
1526 -9897 -1303 0
-1526 9897 0
-1526 1303 0
1527 -1199 -1528 1529 0
1527 -1199 1528 -1529 0
-1527 1199 0
-1527 -1528 -1529 0
-1527 1528 1529 0
1528 42 -1295 0
-1528 -42 0
-1528 1295 0
1529 43 -1303 0
-1529 -43 0
-1529 1303 0
-1530 -1531 -1535 0
-1530 1531 1535 0
1530 1531 -1535 0
1530 -1531 1535 0
-1531 1199 1532 0
-1531 -1199 -1532 0
1531 -1199 1532 0
1531 1199 -1532 0
-1532 -1533 -1534 0
-1532 1533 1534 0
1532 1533 -1534 0
1532 -1533 1534 0
1533 -9899 -1295 0
-1533 9899 0
-1533 1295 0
1534 -9898 -1303 0
-1534 9898 0
-1534 1303 0
1535 -1199 -1536 1537 0
1535 -1199 1536 -1537 0
-1535 1199 0
-1535 -1536 -1537 0
-1535 1536 1537 0
1536 41 -1295 0
-1536 -41 0
-1536 1295 0
1537 42 -1303 0
-1537 -42 0
-1537 1303 0
-1538 -1539 -1543 0
-1538 1539 1543 0
1538 1539 -1543 0
1538 -1539 1543 0
-1539 1199 1540 0
-1539 -1199 -1540 0
1539 -1199 1540 0
1539 1199 -1540 0
-1540 -1541 -1542 0
-1540 1541 1542 0
1540 1541 -1542 0
1540 -1541 1542 0
1541 -9900 -1295 0
-1541 9900 0
-1541 1295 0
1542 -9899 -1303 0
-1542 9899 0
-1542 1303 0
1543 -1199 -1544 1545 0
1543 -1199 1544 -1545 0
-1543 1199 0
-1543 -1544 -1545 0
-1543 1544 1545 0
1544 40 -1295 0
-1544 -40 0
-1544 1295 0
1545 41 -1303 0
-1545 -41 0
-1545 1303 0
-1546 -1547 -1549 0
-1546 1547 1549 0
1546 1547 -1549 0
1546 -1547 1549 0
-1547 -1199 -1548 0
-1547 1199 1548 0
1547 1199 -1548 0
1547 -1199 1548 0
1548 -9900 -1303 0
-1548 9900 0
-1548 1303 0
1549 -1199 -1550 1551 0
1549 -1199 1550 -1551 0
-1549 1199 0
-1549 -1550 -1551 0
-1549 1550 1551 0
1550 39 -1295 0
-1550 -39 0
-1550 1295 0
1551 40 -1303 0
-1551 -40 0
-1551 1303 0
-1552 1553 0
1552 -1553 0
1553 -39 -1554 0
-1553 39 0
-1553 1554 0
-1554 1555 0
1554 -1555 0
1555 9911 -9912 0
1555 9910 -9912 0
-1555 9912 0
-1555 -9910 -9911 0
-1556 29 1557 0
-1556 1557 1901 0
-1556 29 1901 0
1556 -29 -1901 0
1556 -1557 -1901 0
1556 -29 -1557 0
-1557 29 1558 0
-1557 1558 1893 0
-1557 29 1893 0
1557 -29 -1893 0
1557 -1558 -1893 0
1557 -29 -1558 0
-1558 1559 1561 0
-1558 1561 1885 0
-1558 1559 1885 0
1558 -1559 -1885 0
1558 -1561 -1885 0
1558 -1559 -1561 0
-1559 1202 1560 0
-1559 -1202 -1560 0
1559 -1202 1560 0
1559 1202 -1560 0
-1560 31 1546 0
-1560 -31 -1546 0
1560 -31 1546 0
1560 31 -1546 0
-1561 1562 1564 0
-1561 1564 1877 0
-1561 1562 1877 0
1561 -1562 -1877 0
1561 -1564 -1877 0
1561 -1562 -1564 0
-1562 1203 1563 0
-1562 -1203 -1563 0
1562 -1203 1563 0
1562 1203 -1563 0
-1563 31 1538 0
-1563 -31 -1538 0
1563 -31 1538 0
1563 31 -1538 0
-1564 1565 1567 0
-1564 1567 1869 0
-1564 1565 1869 0
1564 -1565 -1869 0
1564 -1567 -1869 0
1564 -1565 -1567 0
-1565 1206 1566 0
-1565 -1206 -1566 0
1565 -1206 1566 0
1565 1206 -1566 0
-1566 1204 1530 0
-1566 -1204 -1530 0
1566 -1204 1530 0
1566 1204 -1530 0
-1567 1568 1570 0
-1567 1570 1861 0
-1567 1568 1861 0
1567 -1568 -1861 0
1567 -1570 -1861 0
1567 -1568 -1570 0
-1568 1209 1569 0
-1568 -1209 -1569 0
1568 -1209 1569 0
1568 1209 -1569 0
-1569 1207 1522 0
-1569 -1207 -1522 0
1569 -1207 1522 0
1569 1207 -1522 0
-1570 1571 1573 0
-1570 1573 1853 0
-1570 1571 1853 0
1570 -1571 -1853 0
1570 -1573 -1853 0
1570 -1571 -1573 0
-1571 1212 1572 0
-1571 -1212 -1572 0
1571 -1212 1572 0
1571 1212 -1572 0
-1572 1210 1514 0
-1572 -1210 -1514 0
1572 -1210 1514 0
1572 1210 -1514 0
-1573 1574 1576 0
-1573 1576 1845 0
-1573 1574 1845 0
1573 -1574 -1845 0
1573 -1576 -1845 0
1573 -1574 -1576 0
-1574 1215 1575 0
-1574 -1215 -1575 0
1574 -1215 1575 0
1574 1215 -1575 0
-1575 1213 1506 0
-1575 -1213 -1506 0
1575 -1213 1506 0
1575 1213 -1506 0
-1576 1577 1579 0
-1576 1579 1837 0
-1576 1577 1837 0
1576 -1577 -1837 0
1576 -1579 -1837 0
1576 -1577 -1579 0
-1577 1218 1578 0
-1577 -1218 -1578 0
1577 -1218 1578 0
1577 1218 -1578 0
-1578 1216 1498 0
-1578 -1216 -1498 0
1578 -1216 1498 0
1578 1216 -1498 0
-1579 1580 1582 0
-1579 1582 1829 0
-1579 1580 1829 0
1579 -1580 -1829 0
1579 -1582 -1829 0
1579 -1580 -1582 0
-1580 1221 1581 0
-1580 -1221 -1581 0
1580 -1221 1581 0
1580 1221 -1581 0
-1581 1219 1490 0
-1581 -1219 -1490 0
1581 -1219 1490 0
1581 1219 -1490 0
-1582 1583 1585 0
-1582 1585 1821 0
-1582 1583 1821 0
1582 -1583 -1821 0
1582 -1585 -1821 0
1582 -1583 -1585 0
-1583 1224 1584 0
-1583 -1224 -1584 0
1583 -1224 1584 0
1583 1224 -1584 0
-1584 1222 1482 0
-1584 -1222 -1482 0
1584 -1222 1482 0
1584 1222 -1482 0
-1585 1586 1588 0
-1585 1588 1813 0
-1585 1586 1813 0
1585 -1586 -1813 0
1585 -1588 -1813 0
1585 -1586 -1588 0
-1586 1227 1587 0
-1586 -1227 -1587 0
1586 -1227 1587 0
1586 1227 -1587 0
-1587 1225 1474 0
-1587 -1225 -1474 0
1587 -1225 1474 0
1587 1225 -1474 0
-1588 1589 1591 0
-1588 1591 1805 0
-1588 1589 1805 0
1588 -1589 -1805 0
1588 -1591 -1805 0
1588 -1589 -1591 0
-1589 1230 1590 0
-1589 -1230 -1590 0
1589 -1230 1590 0
1589 1230 -1590 0
-1590 1228 1466 0
-1590 -1228 -1466 0
1590 -1228 1466 0
1590 1228 -1466 0
-1591 1592 1594 0
-1591 1594 1797 0
-1591 1592 1797 0
1591 -1592 -1797 0
1591 -1594 -1797 0
1591 -1592 -1594 0
-1592 1233 1593 0
-1592 -1233 -1593 0
1592 -1233 1593 0
1592 1233 -1593 0
-1593 1231 1458 0
-1593 -1231 -1458 0
1593 -1231 1458 0
1593 1231 -1458 0
-1594 1595 1597 0
-1594 1597 1789 0
-1594 1595 1789 0
1594 -1595 -1789 0
1594 -1597 -1789 0
1594 -1595 -1597 0
-1595 1236 1596 0
-1595 -1236 -1596 0
1595 -1236 1596 0
1595 1236 -1596 0
-1596 1234 1450 0
-1596 -1234 -1450 0
1596 -1234 1450 0
1596 1234 -1450 0
-1597 1598 1600 0
-1597 1600 1781 0
-1597 1598 1781 0
1597 -1598 -1781 0
1597 -1600 -1781 0
1597 -1598 -1600 0
-1598 1239 1599 0
-1598 -1239 -1599 0
1598 -1239 1599 0
1598 1239 -1599 0
-1599 1237 1442 0
-1599 -1237 -1442 0
1599 -1237 1442 0
1599 1237 -1442 0
-1600 1601 1603 0
-1600 1603 1773 0
-1600 1601 1773 0
1600 -1601 -1773 0
1600 -1603 -1773 0
1600 -1601 -1603 0
-1601 1242 1602 0
-1601 -1242 -1602 0
1601 -1242 1602 0
1601 1242 -1602 0
-1602 1240 1434 0
-1602 -1240 -1434 0
1602 -1240 1434 0
1602 1240 -1434 0
-1603 1604 1606 0
-1603 1606 1765 0
-1603 1604 1765 0
1603 -1604 -1765 0
1603 -1606 -1765 0
1603 -1604 -1606 0
-1604 1245 1605 0
-1604 -1245 -1605 0
1604 -1245 1605 0
1604 1245 -1605 0
-1605 1243 1426 0
-1605 -1243 -1426 0
1605 -1243 1426 0
1605 1243 -1426 0
-1606 1607 1609 0
-1606 1609 1757 0
-1606 1607 1757 0
1606 -1607 -1757 0
1606 -1609 -1757 0
1606 -1607 -1609 0
-1607 1248 1608 0
-1607 -1248 -1608 0
1607 -1248 1608 0
1607 1248 -1608 0
-1608 1246 1418 0
-1608 -1246 -1418 0
1608 -1246 1418 0
1608 1246 -1418 0
-1609 1610 1612 0
-1609 1612 1749 0
-1609 1610 1749 0
1609 -1610 -1749 0
1609 -1612 -1749 0
1609 -1610 -1612 0
-1610 1251 1611 0
-1610 -1251 -1611 0
1610 -1251 1611 0
1610 1251 -1611 0
-1611 1249 1410 0
-1611 -1249 -1410 0
1611 -1249 1410 0
1611 1249 -1410 0
-1612 1613 1615 0
-1612 1615 1741 0
-1612 1613 1741 0
1612 -1613 -1741 0
1612 -1615 -1741 0
1612 -1613 -1615 0
-1613 1254 1614 0
-1613 -1254 -1614 0
1613 -1254 1614 0
1613 1254 -1614 0
-1614 1252 1402 0
-1614 -1252 -1402 0
1614 -1252 1402 0
1614 1252 -1402 0
-1615 1616 1618 0
-1615 1618 1733 0
-1615 1616 1733 0
1615 -1616 -1733 0
1615 -1618 -1733 0
1615 -1616 -1618 0
-1616 1257 1617 0
-1616 -1257 -1617 0
1616 -1257 1617 0
1616 1257 -1617 0
-1617 1255 1394 0
-1617 -1255 -1394 0
1617 -1255 1394 0
1617 1255 -1394 0
-1618 1619 1621 0
-1618 1621 1725 0
-1618 1619 1725 0
1618 -1619 -1725 0
1618 -1621 -1725 0
1618 -1619 -1621 0
-1619 1260 1620 0
-1619 -1260 -1620 0
1619 -1260 1620 0
1619 1260 -1620 0
-1620 1258 1386 0
-1620 -1258 -1386 0
1620 -1258 1386 0
1620 1258 -1386 0
-1621 1622 1624 0
-1621 1624 1717 0
-1621 1622 1717 0
1621 -1622 -1717 0
1621 -1624 -1717 0
1621 -1622 -1624 0
-1622 1263 1623 0
-1622 -1263 -1623 0
1622 -1263 1623 0
1622 1263 -1623 0
-1623 1261 1378 0
-1623 -1261 -1378 0
1623 -1261 1378 0
1623 1261 -1378 0
-1624 1625 1627 0
-1624 1627 1709 0
-1624 1625 1709 0
1624 -1625 -1709 0
1624 -1627 -1709 0
1624 -1625 -1627 0
-1625 1266 1626 0
-1625 -1266 -1626 0
1625 -1266 1626 0
1625 1266 -1626 0
-1626 1264 1370 0
-1626 -1264 -1370 0
1626 -1264 1370 0
1626 1264 -1370 0
-1627 1628 1630 0
-1627 1630 1701 0
-1627 1628 1701 0
1627 -1628 -1701 0
1627 -1630 -1701 0
1627 -1628 -1630 0
-1628 1269 1629 0
-1628 -1269 -1629 0
1628 -1269 1629 0
1628 1269 -1629 0
-1629 1267 1362 0
-1629 -1267 -1362 0
1629 -1267 1362 0
1629 1267 -1362 0
-1630 1631 1633 0
-1630 1633 1693 0
-1630 1631 1693 0
1630 -1631 -1693 0
1630 -1633 -1693 0
1630 -1631 -1633 0
-1631 1272 1632 0
-1631 -1272 -1632 0
1631 -1272 1632 0
1631 1272 -1632 0
-1632 1270 1354 0
-1632 -1270 -1354 0
1632 -1270 1354 0
1632 1270 -1354 0
-1633 1634 1636 0
-1633 1636 1685 0
-1633 1634 1685 0
1633 -1634 -1685 0
1633 -1636 -1685 0
1633 -1634 -1636 0
-1634 1275 1635 0
-1634 -1275 -1635 0
1634 -1275 1635 0
1634 1275 -1635 0
-1635 1273 1346 0
-1635 -1273 -1346 0
1635 -1273 1346 0
1635 1273 -1346 0
-1636 1637 1639 0
-1636 1639 1677 0
-1636 1637 1677 0
1636 -1637 -1677 0
1636 -1639 -1677 0
1636 -1637 -1639 0
-1637 1278 1638 0
-1637 -1278 -1638 0
1637 -1278 1638 0
1637 1278 -1638 0
-1638 1276 1338 0
-1638 -1276 -1338 0
1638 -1276 1338 0
1638 1276 -1338 0
-1639 1640 1642 0
-1639 1642 1669 0
-1639 1640 1669 0
1639 -1640 -1669 0
1639 -1642 -1669 0
1639 -1640 -1642 0
-1640 1281 1641 0
-1640 -1281 -1641 0
1640 -1281 1641 0
1640 1281 -1641 0
-1641 1279 1330 0
-1641 -1279 -1330 0
1641 -1279 1330 0
1641 1279 -1330 0
-1642 1643 1645 0
-1642 1645 1661 0
-1642 1643 1661 0
1642 -1643 -1661 0
1642 -1645 -1661 0
1642 -1643 -1645 0
-1643 1284 1644 0
-1643 -1284 -1644 0
1643 -1284 1644 0
1643 1284 -1644 0
-1644 1282 1322 0
-1644 -1282 -1322 0
1644 -1282 1322 0
1644 1282 -1322 0
-1645 1646 1653 0
-1645 1646 1648 0
-1645 1648 1653 0
1645 -1648 -1653 0
1645 -1646 -1653 0
1645 -1646 -1648 0
-1646 1287 1647 0
-1646 -1287 -1647 0
1646 -1287 1647 0
1646 1287 -1647 0
-1647 1285 1314 0
-1647 -1285 -1314 0
1647 -1285 1314 0
1647 1285 -1314 0
1648 -1649 -1651 0
-1648 1649 0
-1648 1651 0
1649 -9869 -1650 0
-1649 9869 0
-1649 1650 0
-1650 -9910 -9911 0
-1650 9910 9911 0
1650 9910 -9911 0
1650 -9910 9911 0
-1651 1290 1652 0
-1651 -1290 -1652 0
1651 -1290 1652 0
1651 1290 -1652 0
-1652 1288 1306 0
-1652 -1288 -1306 0
1652 -1288 1306 0
1652 1288 -1306 0
-1653 -1654 -1659 0
-1653 1654 1659 0
1653 1654 -1659 0
1653 -1654 1659 0
-1654 1554 1655 0
-1654 -1554 -1655 0
1654 -1554 1655 0
1654 1554 -1655 0
-1655 -1656 -1657 0
-1655 1656 1657 0
1655 1656 -1657 0
1655 -1656 1657 0
1656 -9870 -1650 0
-1656 9870 0
-1656 1650 0
1657 -9869 -1658 0
-1657 9869 0
-1657 1658 0
-1658 -9910 -9912 0
-1658 9911 9912 0
-1658 9910 -9911 0
1658 -9910 -9911 9912 0
1658 9910 9911 -9912 0
1659 -1554 1658 -1660 0
1659 -1554 -1658 1660 0
-1659 1554 0
-1659 1658 1660 0
-1659 -1658 -1660 0
1660 9869 -1650 0
-1660 -9869 0
-1660 1650 0
-1661 -1662 -1666 0
-1661 1662 1666 0
1661 1662 -1666 0
1661 -1662 1666 0
-1662 1554 1663 0
-1662 -1554 -1663 0
1662 -1554 1663 0
1662 1554 -1663 0
-1663 -1664 -1665 0
-1663 1664 1665 0
1663 1664 -1665 0
1663 -1664 1665 0
1664 -9871 -1650 0
-1664 9871 0
-1664 1650 0
1665 -9870 -1658 0
-1665 9870 0
-1665 1658 0
1666 -1554 -1667 1668 0
1666 -1554 1667 -1668 0
-1666 1554 0
-1666 -1667 -1668 0
-1666 1667 1668 0
1667 69 -1650 0
-1667 -69 0
-1667 1650 0
1668 9869 -1658 0
-1668 -9869 0
-1668 1658 0
-1669 -1670 -1674 0
-1669 1670 1674 0
1669 1670 -1674 0
1669 -1670 1674 0
-1670 1554 1671 0
-1670 -1554 -1671 0
1670 -1554 1671 0
1670 1554 -1671 0
-1671 -1672 -1673 0
-1671 1672 1673 0
1671 1672 -1673 0
1671 -1672 1673 0
1672 -9872 -1650 0
-1672 9872 0
-1672 1650 0
1673 -9871 -1658 0
-1673 9871 0
-1673 1658 0
1674 -1554 -1675 1676 0
1674 -1554 1675 -1676 0
-1674 1554 0
-1674 -1675 -1676 0
-1674 1675 1676 0
1675 68 -1650 0
-1675 -68 0
-1675 1650 0
1676 69 -1658 0
-1676 -69 0
-1676 1658 0
-1677 -1678 -1682 0
-1677 1678 1682 0
1677 1678 -1682 0
1677 -1678 1682 0
-1678 1554 1679 0
-1678 -1554 -1679 0
1678 -1554 1679 0
1678 1554 -1679 0
-1679 -1680 -1681 0
-1679 1680 1681 0
1679 1680 -1681 0
1679 -1680 1681 0
1680 -9873 -1650 0
-1680 9873 0
-1680 1650 0
1681 -9872 -1658 0
-1681 9872 0
-1681 1658 0
1682 -1554 -1683 1684 0
1682 -1554 1683 -1684 0
-1682 1554 0
-1682 -1683 -1684 0
-1682 1683 1684 0
1683 67 -1650 0
-1683 -67 0
-1683 1650 0
1684 68 -1658 0
-1684 -68 0
-1684 1658 0
-1685 -1686 -1690 0
-1685 1686 1690 0
1685 1686 -1690 0
1685 -1686 1690 0
-1686 1554 1687 0
-1686 -1554 -1687 0
1686 -1554 1687 0
1686 1554 -1687 0
-1687 -1688 -1689 0
-1687 1688 1689 0
1687 1688 -1689 0
1687 -1688 1689 0
1688 -9874 -1650 0
-1688 9874 0
-1688 1650 0
1689 -9873 -1658 0
-1689 9873 0
-1689 1658 0
1690 -1554 -1691 1692 0
1690 -1554 1691 -1692 0
-1690 1554 0
-1690 -1691 -1692 0
-1690 1691 1692 0
1691 66 -1650 0
-1691 -66 0
-1691 1650 0
1692 67 -1658 0
-1692 -67 0
-1692 1658 0
-1693 -1694 -1698 0
-1693 1694 1698 0
1693 1694 -1698 0
1693 -1694 1698 0
-1694 1554 1695 0
-1694 -1554 -1695 0
1694 -1554 1695 0
1694 1554 -1695 0
-1695 -1696 -1697 0
-1695 1696 1697 0
1695 1696 -1697 0
1695 -1696 1697 0
1696 -9875 -1650 0
-1696 9875 0
-1696 1650 0
1697 -9874 -1658 0
-1697 9874 0
-1697 1658 0
1698 -1554 -1699 1700 0
1698 -1554 1699 -1700 0
-1698 1554 0
-1698 -1699 -1700 0
-1698 1699 1700 0
1699 65 -1650 0
-1699 -65 0
-1699 1650 0
1700 66 -1658 0
-1700 -66 0
-1700 1658 0
-1701 -1702 -1706 0
-1701 1702 1706 0
1701 1702 -1706 0
1701 -1702 1706 0
-1702 1554 1703 0
-1702 -1554 -1703 0
1702 -1554 1703 0
1702 1554 -1703 0
-1703 -1704 -1705 0
-1703 1704 1705 0
1703 1704 -1705 0
1703 -1704 1705 0
1704 -9876 -1650 0
-1704 9876 0
-1704 1650 0
1705 -9875 -1658 0
-1705 9875 0
-1705 1658 0
1706 -1554 -1707 1708 0
1706 -1554 1707 -1708 0
-1706 1554 0
-1706 -1707 -1708 0
-1706 1707 1708 0
1707 64 -1650 0
-1707 -64 0
-1707 1650 0
1708 65 -1658 0
-1708 -65 0
-1708 1658 0
-1709 -1710 -1714 0
-1709 1710 1714 0
1709 1710 -1714 0
1709 -1710 1714 0
-1710 1554 1711 0
-1710 -1554 -1711 0
1710 -1554 1711 0
1710 1554 -1711 0
-1711 -1712 -1713 0
-1711 1712 1713 0
1711 1712 -1713 0
1711 -1712 1713 0
1712 -9877 -1650 0
-1712 9877 0
-1712 1650 0
1713 -9876 -1658 0
-1713 9876 0
-1713 1658 0
1714 -1554 -1715 1716 0
1714 -1554 1715 -1716 0
-1714 1554 0
-1714 -1715 -1716 0
-1714 1715 1716 0
1715 63 -1650 0
-1715 -63 0
-1715 1650 0
1716 64 -1658 0
-1716 -64 0
-1716 1658 0
-1717 -1718 -1722 0
-1717 1718 1722 0
1717 1718 -1722 0
1717 -1718 1722 0
-1718 1554 1719 0
-1718 -1554 -1719 0
1718 -1554 1719 0
1718 1554 -1719 0
-1719 -1720 -1721 0
-1719 1720 1721 0
1719 1720 -1721 0
1719 -1720 1721 0
1720 -9878 -1650 0
-1720 9878 0
-1720 1650 0
1721 -9877 -1658 0
-1721 9877 0
-1721 1658 0
1722 -1554 -1723 1724 0
1722 -1554 1723 -1724 0
-1722 1554 0
-1722 -1723 -1724 0
-1722 1723 1724 0
1723 62 -1650 0
-1723 -62 0
-1723 1650 0
1724 63 -1658 0
-1724 -63 0
-1724 1658 0
-1725 -1726 -1730 0
-1725 1726 1730 0
1725 1726 -1730 0
1725 -1726 1730 0
-1726 1554 1727 0
-1726 -1554 -1727 0
1726 -1554 1727 0
1726 1554 -1727 0
-1727 -1728 -1729 0
-1727 1728 1729 0
1727 1728 -1729 0
1727 -1728 1729 0
1728 -9879 -1650 0
-1728 9879 0
-1728 1650 0
1729 -9878 -1658 0
-1729 9878 0
-1729 1658 0
1730 -1554 -1731 1732 0
1730 -1554 1731 -1732 0
-1730 1554 0
-1730 -1731 -1732 0
-1730 1731 1732 0
1731 61 -1650 0
-1731 -61 0
-1731 1650 0
1732 62 -1658 0
-1732 -62 0
-1732 1658 0
-1733 -1734 -1738 0
-1733 1734 1738 0
1733 1734 -1738 0
1733 -1734 1738 0
-1734 1554 1735 0
-1734 -1554 -1735 0
1734 -1554 1735 0
1734 1554 -1735 0
-1735 -1736 -1737 0
-1735 1736 1737 0
1735 1736 -1737 0
1735 -1736 1737 0
1736 -9880 -1650 0
-1736 9880 0
-1736 1650 0
1737 -9879 -1658 0
-1737 9879 0
-1737 1658 0
1738 -1554 -1739 1740 0
1738 -1554 1739 -1740 0
-1738 1554 0
-1738 -1739 -1740 0
-1738 1739 1740 0
1739 60 -1650 0
-1739 -60 0
-1739 1650 0
1740 61 -1658 0
-1740 -61 0
-1740 1658 0
-1741 -1742 -1746 0
-1741 1742 1746 0
1741 1742 -1746 0
1741 -1742 1746 0
-1742 1554 1743 0
-1742 -1554 -1743 0
1742 -1554 1743 0
1742 1554 -1743 0
-1743 -1744 -1745 0
-1743 1744 1745 0
1743 1744 -1745 0
1743 -1744 1745 0
1744 -9881 -1650 0
-1744 9881 0
-1744 1650 0
1745 -9880 -1658 0
-1745 9880 0
-1745 1658 0
1746 -1554 -1747 1748 0
1746 -1554 1747 -1748 0
-1746 1554 0
-1746 -1747 -1748 0
-1746 1747 1748 0
1747 59 -1650 0
-1747 -59 0
-1747 1650 0
1748 60 -1658 0
-1748 -60 0
-1748 1658 0
-1749 -1750 -1754 0
-1749 1750 1754 0
1749 1750 -1754 0
1749 -1750 1754 0
-1750 1554 1751 0
-1750 -1554 -1751 0
1750 -1554 1751 0
1750 1554 -1751 0
-1751 -1752 -1753 0
-1751 1752 1753 0
1751 1752 -1753 0
1751 -1752 1753 0
1752 -9882 -1650 0
-1752 9882 0
-1752 1650 0
1753 -9881 -1658 0
-1753 9881 0
-1753 1658 0
1754 -1554 -1755 1756 0
1754 -1554 1755 -1756 0
-1754 1554 0
-1754 -1755 -1756 0
-1754 1755 1756 0
1755 58 -1650 0
-1755 -58 0
-1755 1650 0
1756 59 -1658 0
-1756 -59 0
-1756 1658 0
-1757 -1758 -1762 0
-1757 1758 1762 0
1757 1758 -1762 0
1757 -1758 1762 0
-1758 1554 1759 0
-1758 -1554 -1759 0
1758 -1554 1759 0
1758 1554 -1759 0
-1759 -1760 -1761 0
-1759 1760 1761 0
1759 1760 -1761 0
1759 -1760 1761 0
1760 -9883 -1650 0
-1760 9883 0
-1760 1650 0
1761 -9882 -1658 0
-1761 9882 0
-1761 1658 0
1762 -1554 -1763 1764 0
1762 -1554 1763 -1764 0
-1762 1554 0
-1762 -1763 -1764 0
-1762 1763 1764 0
1763 57 -1650 0
-1763 -57 0
-1763 1650 0
1764 58 -1658 0
-1764 -58 0
-1764 1658 0
-1765 -1766 -1770 0
-1765 1766 1770 0
1765 1766 -1770 0
1765 -1766 1770 0
-1766 1554 1767 0
-1766 -1554 -1767 0
1766 -1554 1767 0
1766 1554 -1767 0
-1767 -1768 -1769 0
-1767 1768 1769 0
1767 1768 -1769 0
1767 -1768 1769 0
1768 -9884 -1650 0
-1768 9884 0
-1768 1650 0
1769 -9883 -1658 0
-1769 9883 0
-1769 1658 0
1770 -1554 -1771 1772 0
1770 -1554 1771 -1772 0
-1770 1554 0
-1770 -1771 -1772 0
-1770 1771 1772 0
1771 56 -1650 0
-1771 -56 0
-1771 1650 0
1772 57 -1658 0
-1772 -57 0
-1772 1658 0
-1773 -1774 -1778 0
-1773 1774 1778 0
1773 1774 -1778 0
1773 -1774 1778 0
-1774 1554 1775 0
-1774 -1554 -1775 0
1774 -1554 1775 0
1774 1554 -1775 0
-1775 -1776 -1777 0
-1775 1776 1777 0
1775 1776 -1777 0
1775 -1776 1777 0
1776 -9885 -1650 0
-1776 9885 0
-1776 1650 0
1777 -9884 -1658 0
-1777 9884 0
-1777 1658 0
1778 -1554 -1779 1780 0
1778 -1554 1779 -1780 0
-1778 1554 0
-1778 -1779 -1780 0
-1778 1779 1780 0
1779 55 -1650 0
-1779 -55 0
-1779 1650 0
1780 56 -1658 0
-1780 -56 0
-1780 1658 0
-1781 -1782 -1786 0
-1781 1782 1786 0
1781 1782 -1786 0
1781 -1782 1786 0
-1782 1554 1783 0
-1782 -1554 -1783 0
1782 -1554 1783 0
1782 1554 -1783 0
-1783 -1784 -1785 0
-1783 1784 1785 0
1783 1784 -1785 0
1783 -1784 1785 0
1784 -9886 -1650 0
-1784 9886 0
-1784 1650 0
1785 -9885 -1658 0
-1785 9885 0
-1785 1658 0
1786 -1554 -1787 1788 0
1786 -1554 1787 -1788 0
-1786 1554 0
-1786 -1787 -1788 0
-1786 1787 1788 0
1787 54 -1650 0
-1787 -54 0
-1787 1650 0
1788 55 -1658 0
-1788 -55 0
-1788 1658 0
-1789 -1790 -1794 0
-1789 1790 1794 0
1789 1790 -1794 0
1789 -1790 1794 0
-1790 1554 1791 0
-1790 -1554 -1791 0
1790 -1554 1791 0
1790 1554 -1791 0
-1791 -1792 -1793 0
-1791 1792 1793 0
1791 1792 -1793 0
1791 -1792 1793 0
1792 -9887 -1650 0
-1792 9887 0
-1792 1650 0
1793 -9886 -1658 0
-1793 9886 0
-1793 1658 0
1794 -1554 -1795 1796 0
1794 -1554 1795 -1796 0
-1794 1554 0
-1794 -1795 -1796 0
-1794 1795 1796 0
1795 53 -1650 0
-1795 -53 0
-1795 1650 0
1796 54 -1658 0
-1796 -54 0
-1796 1658 0
-1797 -1798 -1802 0
-1797 1798 1802 0
1797 1798 -1802 0
1797 -1798 1802 0
-1798 1554 1799 0
-1798 -1554 -1799 0
1798 -1554 1799 0
1798 1554 -1799 0
-1799 -1800 -1801 0
-1799 1800 1801 0
1799 1800 -1801 0
1799 -1800 1801 0
1800 -9888 -1650 0
-1800 9888 0
-1800 1650 0
1801 -9887 -1658 0
-1801 9887 0
-1801 1658 0
1802 -1554 -1803 1804 0
1802 -1554 1803 -1804 0
-1802 1554 0
-1802 -1803 -1804 0
-1802 1803 1804 0
1803 52 -1650 0
-1803 -52 0
-1803 1650 0
1804 53 -1658 0
-1804 -53 0
-1804 1658 0
-1805 -1806 -1810 0
-1805 1806 1810 0
1805 1806 -1810 0
1805 -1806 1810 0
-1806 1554 1807 0
-1806 -1554 -1807 0
1806 -1554 1807 0
1806 1554 -1807 0
-1807 -1808 -1809 0
-1807 1808 1809 0
1807 1808 -1809 0
1807 -1808 1809 0
1808 -9889 -1650 0
-1808 9889 0
-1808 1650 0
1809 -9888 -1658 0
-1809 9888 0
-1809 1658 0
1810 -1554 -1811 1812 0
1810 -1554 1811 -1812 0
-1810 1554 0
-1810 -1811 -1812 0
-1810 1811 1812 0
1811 51 -1650 0
-1811 -51 0
-1811 1650 0
1812 52 -1658 0
-1812 -52 0
-1812 1658 0
-1813 -1814 -1818 0
-1813 1814 1818 0
1813 1814 -1818 0
1813 -1814 1818 0
-1814 1554 1815 0
-1814 -1554 -1815 0
1814 -1554 1815 0
1814 1554 -1815 0
-1815 -1816 -1817 0
-1815 1816 1817 0
1815 1816 -1817 0
1815 -1816 1817 0
1816 -9890 -1650 0
-1816 9890 0
-1816 1650 0
1817 -9889 -1658 0
-1817 9889 0
-1817 1658 0
1818 -1554 -1819 1820 0
1818 -1554 1819 -1820 0
-1818 1554 0
-1818 -1819 -1820 0
-1818 1819 1820 0
1819 50 -1650 0
-1819 -50 0
-1819 1650 0
1820 51 -1658 0
-1820 -51 0
-1820 1658 0
-1821 -1822 -1826 0
-1821 1822 1826 0
1821 1822 -1826 0
1821 -1822 1826 0
-1822 1554 1823 0
-1822 -1554 -1823 0
1822 -1554 1823 0
1822 1554 -1823 0
-1823 -1824 -1825 0
-1823 1824 1825 0
1823 1824 -1825 0
1823 -1824 1825 0
1824 -9891 -1650 0
-1824 9891 0
-1824 1650 0
1825 -9890 -1658 0
-1825 9890 0
-1825 1658 0
1826 -1554 -1827 1828 0
1826 -1554 1827 -1828 0
-1826 1554 0
-1826 -1827 -1828 0
-1826 1827 1828 0
1827 49 -1650 0
-1827 -49 0
-1827 1650 0
1828 50 -1658 0
-1828 -50 0
-1828 1658 0
-1829 -1830 -1834 0
-1829 1830 1834 0
1829 1830 -1834 0
1829 -1830 1834 0
-1830 1554 1831 0
-1830 -1554 -1831 0
1830 -1554 1831 0
1830 1554 -1831 0
-1831 -1832 -1833 0
-1831 1832 1833 0
1831 1832 -1833 0
1831 -1832 1833 0
1832 -9892 -1650 0
-1832 9892 0
-1832 1650 0
1833 -9891 -1658 0
-1833 9891 0
-1833 1658 0
1834 -1554 -1835 1836 0
1834 -1554 1835 -1836 0
-1834 1554 0
-1834 -1835 -1836 0
-1834 1835 1836 0
1835 48 -1650 0
-1835 -48 0
-1835 1650 0
1836 49 -1658 0
-1836 -49 0
-1836 1658 0
-1837 -1838 -1842 0
-1837 1838 1842 0
1837 1838 -1842 0
1837 -1838 1842 0
-1838 1554 1839 0
-1838 -1554 -1839 0
1838 -1554 1839 0
1838 1554 -1839 0
-1839 -1840 -1841 0
-1839 1840 1841 0
1839 1840 -1841 0
1839 -1840 1841 0
1840 -9893 -1650 0
-1840 9893 0
-1840 1650 0
1841 -9892 -1658 0
-1841 9892 0
-1841 1658 0
1842 -1554 -1843 1844 0
1842 -1554 1843 -1844 0
-1842 1554 0
-1842 -1843 -1844 0
-1842 1843 1844 0
1843 47 -1650 0
-1843 -47 0
-1843 1650 0
1844 48 -1658 0
-1844 -48 0
-1844 1658 0
-1845 -1846 -1850 0
-1845 1846 1850 0
1845 1846 -1850 0
1845 -1846 1850 0
-1846 1554 1847 0
-1846 -1554 -1847 0
1846 -1554 1847 0
1846 1554 -1847 0
-1847 -1848 -1849 0
-1847 1848 1849 0
1847 1848 -1849 0
1847 -1848 1849 0
1848 -9894 -1650 0
-1848 9894 0
-1848 1650 0
1849 -9893 -1658 0
-1849 9893 0
-1849 1658 0
1850 -1554 -1851 1852 0
1850 -1554 1851 -1852 0
-1850 1554 0
-1850 -1851 -1852 0
-1850 1851 1852 0
1851 46 -1650 0
-1851 -46 0
-1851 1650 0
1852 47 -1658 0
-1852 -47 0
-1852 1658 0
-1853 -1854 -1858 0
-1853 1854 1858 0
1853 1854 -1858 0
1853 -1854 1858 0
-1854 1554 1855 0
-1854 -1554 -1855 0
1854 -1554 1855 0
1854 1554 -1855 0
-1855 -1856 -1857 0
-1855 1856 1857 0
1855 1856 -1857 0
1855 -1856 1857 0
1856 -9895 -1650 0
-1856 9895 0
-1856 1650 0
1857 -9894 -1658 0
-1857 9894 0
-1857 1658 0
1858 -1554 -1859 1860 0
1858 -1554 1859 -1860 0
-1858 1554 0
-1858 -1859 -1860 0
-1858 1859 1860 0
1859 45 -1650 0
-1859 -45 0
-1859 1650 0
1860 46 -1658 0
-1860 -46 0
-1860 1658 0
-1861 -1862 -1866 0
-1861 1862 1866 0
1861 1862 -1866 0
1861 -1862 1866 0
-1862 1554 1863 0
-1862 -1554 -1863 0
1862 -1554 1863 0
1862 1554 -1863 0
-1863 -1864 -1865 0
-1863 1864 1865 0
1863 1864 -1865 0
1863 -1864 1865 0
1864 -9896 -1650 0
-1864 9896 0
-1864 1650 0
1865 -9895 -1658 0
-1865 9895 0
-1865 1658 0
1866 -1554 -1867 1868 0
1866 -1554 1867 -1868 0
-1866 1554 0
-1866 -1867 -1868 0
-1866 1867 1868 0
1867 44 -1650 0
-1867 -44 0
-1867 1650 0
1868 45 -1658 0
-1868 -45 0
-1868 1658 0
-1869 -1870 -1874 0
-1869 1870 1874 0
1869 1870 -1874 0
1869 -1870 1874 0
-1870 1554 1871 0
-1870 -1554 -1871 0
1870 -1554 1871 0
1870 1554 -1871 0
-1871 -1872 -1873 0
-1871 1872 1873 0
1871 1872 -1873 0
1871 -1872 1873 0
1872 -9897 -1650 0
-1872 9897 0
-1872 1650 0
1873 -9896 -1658 0
-1873 9896 0
-1873 1658 0
1874 -1554 -1875 1876 0
1874 -1554 1875 -1876 0
-1874 1554 0
-1874 -1875 -1876 0
-1874 1875 1876 0
1875 43 -1650 0
-1875 -43 0
-1875 1650 0
1876 44 -1658 0
-1876 -44 0
-1876 1658 0
-1877 -1878 -1882 0
-1877 1878 1882 0
1877 1878 -1882 0
1877 -1878 1882 0
-1878 1554 1879 0
-1878 -1554 -1879 0
1878 -1554 1879 0
1878 1554 -1879 0
-1879 -1880 -1881 0
-1879 1880 1881 0
1879 1880 -1881 0
1879 -1880 1881 0
1880 -9898 -1650 0
-1880 9898 0
-1880 1650 0
1881 -9897 -1658 0
-1881 9897 0
-1881 1658 0
1882 -1554 -1883 1884 0
1882 -1554 1883 -1884 0
-1882 1554 0
-1882 -1883 -1884 0
-1882 1883 1884 0
1883 42 -1650 0
-1883 -42 0
-1883 1650 0
1884 43 -1658 0
-1884 -43 0
-1884 1658 0
-1885 -1886 -1890 0
-1885 1886 1890 0
1885 1886 -1890 0
1885 -1886 1890 0
-1886 1554 1887 0
-1886 -1554 -1887 0
1886 -1554 1887 0
1886 1554 -1887 0
-1887 -1888 -1889 0
-1887 1888 1889 0
1887 1888 -1889 0
1887 -1888 1889 0
1888 -9899 -1650 0
-1888 9899 0
-1888 1650 0
1889 -9898 -1658 0
-1889 9898 0
-1889 1658 0
1890 -1554 -1891 1892 0
1890 -1554 1891 -1892 0
-1890 1554 0
-1890 -1891 -1892 0
-1890 1891 1892 0
1891 41 -1650 0
-1891 -41 0
-1891 1650 0
1892 42 -1658 0
-1892 -42 0
-1892 1658 0
-1893 -1894 -1898 0
-1893 1894 1898 0
1893 1894 -1898 0
1893 -1894 1898 0
-1894 1554 1895 0
-1894 -1554 -1895 0
1894 -1554 1895 0
1894 1554 -1895 0
-1895 -1896 -1897 0
-1895 1896 1897 0
1895 1896 -1897 0
1895 -1896 1897 0
1896 -9900 -1650 0
-1896 9900 0
-1896 1650 0
1897 -9899 -1658 0
-1897 9899 0
-1897 1658 0
1898 -1554 -1899 1900 0
1898 -1554 1899 -1900 0
-1898 1554 0
-1898 -1899 -1900 0
-1898 1899 1900 0
1899 40 -1650 0
-1899 -40 0
-1899 1650 0
1900 41 -1658 0
-1900 -41 0
-1900 1658 0
-1901 -1902 -1904 0
-1901 1902 1904 0
1901 1902 -1904 0
1901 -1902 1904 0
-1902 -1554 -1903 0
-1902 1554 1903 0
1902 1554 -1903 0
1902 -1554 1903 0
1903 -9900 -1658 0
-1903 9900 0
-1903 1658 0
1904 -1554 -1905 1906 0
1904 -1554 1905 -1906 0
-1904 1554 0
-1904 -1905 -1906 0
-1904 1905 1906 0
1905 39 -1650 0
-1905 -39 0
-1905 1650 0
1906 40 -1658 0
-1906 -40 0
-1906 1658 0
-1907 1908 0
1907 -1908 0
1908 -39 -1909 0
-1908 39 0
-1908 1909 0
-1909 1910 0
1909 -1910 0
1910 9913 -9914 0
1910 9912 -9914 0
-1910 9914 0
-1910 -9912 -9913 0
-1911 27 1912 0
-1911 1912 2256 0
-1911 27 2256 0
1911 -27 -2256 0
1911 -1912 -2256 0
1911 -27 -1912 0
-1912 27 1913 0
-1912 1913 2248 0
-1912 27 2248 0
1912 -27 -2248 0
1912 -1913 -2248 0
1912 -27 -1913 0
-1913 1914 1916 0
-1913 1916 2240 0
-1913 1914 2240 0
1913 -1914 -2240 0
1913 -1916 -2240 0
1913 -1914 -1916 0
-1914 1557 1915 0
-1914 -1557 -1915 0
1914 -1557 1915 0
1914 1557 -1915 0
-1915 29 1901 0
-1915 -29 -1901 0
1915 -29 1901 0
1915 29 -1901 0
-1916 1917 1919 0
-1916 1919 2232 0
-1916 1917 2232 0
1916 -1917 -2232 0
1916 -1919 -2232 0
1916 -1917 -1919 0
-1917 1558 1918 0
-1917 -1558 -1918 0
1917 -1558 1918 0
1917 1558 -1918 0
-1918 29 1893 0
-1918 -29 -1893 0
1918 -29 1893 0
1918 29 -1893 0
-1919 1920 1922 0
-1919 1922 2224 0
-1919 1920 2224 0
1919 -1920 -2224 0
1919 -1922 -2224 0
1919 -1920 -1922 0
-1920 1561 1921 0
-1920 -1561 -1921 0
1920 -1561 1921 0
1920 1561 -1921 0
-1921 1559 1885 0
-1921 -1559 -1885 0
1921 -1559 1885 0
1921 1559 -1885 0
-1922 1923 1925 0
-1922 1925 2216 0
-1922 1923 2216 0
1922 -1923 -2216 0
1922 -1925 -2216 0
1922 -1923 -1925 0
-1923 1564 1924 0
-1923 -1564 -1924 0
1923 -1564 1924 0
1923 1564 -1924 0
-1924 1562 1877 0
-1924 -1562 -1877 0
1924 -1562 1877 0
1924 1562 -1877 0
-1925 1926 1928 0
-1925 1928 2208 0
-1925 1926 2208 0
1925 -1926 -2208 0
1925 -1928 -2208 0
1925 -1926 -1928 0
-1926 1567 1927 0
-1926 -1567 -1927 0
1926 -1567 1927 0
1926 1567 -1927 0
-1927 1565 1869 0
-1927 -1565 -1869 0
1927 -1565 1869 0
1927 1565 -1869 0
-1928 1929 1931 0
-1928 1931 2200 0
-1928 1929 2200 0
1928 -1929 -2200 0
1928 -1931 -2200 0
1928 -1929 -1931 0
-1929 1570 1930 0
-1929 -1570 -1930 0
1929 -1570 1930 0
1929 1570 -1930 0
-1930 1568 1861 0
-1930 -1568 -1861 0
1930 -1568 1861 0
1930 1568 -1861 0
-1931 1932 1934 0
-1931 1934 2192 0
-1931 1932 2192 0
1931 -1932 -2192 0
1931 -1934 -2192 0
1931 -1932 -1934 0
-1932 1573 1933 0
-1932 -1573 -1933 0
1932 -1573 1933 0
1932 1573 -1933 0
-1933 1571 1853 0
-1933 -1571 -1853 0
1933 -1571 1853 0
1933 1571 -1853 0
-1934 1935 1937 0
-1934 1937 2184 0
-1934 1935 2184 0
1934 -1935 -2184 0
1934 -1937 -2184 0
1934 -1935 -1937 0
-1935 1576 1936 0
-1935 -1576 -1936 0
1935 -1576 1936 0
1935 1576 -1936 0
-1936 1574 1845 0
-1936 -1574 -1845 0
1936 -1574 1845 0
1936 1574 -1845 0
-1937 1938 1940 0
-1937 1940 2176 0
-1937 1938 2176 0
1937 -1938 -2176 0
1937 -1940 -2176 0
1937 -1938 -1940 0
-1938 1579 1939 0
-1938 -1579 -1939 0
1938 -1579 1939 0
1938 1579 -1939 0
-1939 1577 1837 0
-1939 -1577 -1837 0
1939 -1577 1837 0
1939 1577 -1837 0
-1940 1941 1943 0
-1940 1943 2168 0
-1940 1941 2168 0
1940 -1941 -2168 0
1940 -1943 -2168 0
1940 -1941 -1943 0
-1941 1582 1942 0
-1941 -1582 -1942 0
1941 -1582 1942 0
1941 1582 -1942 0
-1942 1580 1829 0
-1942 -1580 -1829 0
1942 -1580 1829 0
1942 1580 -1829 0
-1943 1944 1946 0
-1943 1946 2160 0
-1943 1944 2160 0
1943 -1944 -2160 0
1943 -1946 -2160 0
1943 -1944 -1946 0
-1944 1585 1945 0
-1944 -1585 -1945 0
1944 -1585 1945 0
1944 1585 -1945 0
-1945 1583 1821 0
-1945 -1583 -1821 0
1945 -1583 1821 0
1945 1583 -1821 0
-1946 1947 1949 0
-1946 1949 2152 0
-1946 1947 2152 0
1946 -1947 -2152 0
1946 -1949 -2152 0
1946 -1947 -1949 0
-1947 1588 1948 0
-1947 -1588 -1948 0
1947 -1588 1948 0
1947 1588 -1948 0
-1948 1586 1813 0
-1948 -1586 -1813 0
1948 -1586 1813 0
1948 1586 -1813 0
-1949 1950 1952 0
-1949 1952 2144 0
-1949 1950 2144 0
1949 -1950 -2144 0
1949 -1952 -2144 0
1949 -1950 -1952 0
-1950 1591 1951 0
-1950 -1591 -1951 0
1950 -1591 1951 0
1950 1591 -1951 0
-1951 1589 1805 0
-1951 -1589 -1805 0
1951 -1589 1805 0
1951 1589 -1805 0
-1952 1953 1955 0
-1952 1955 2136 0
-1952 1953 2136 0
1952 -1953 -2136 0
1952 -1955 -2136 0
1952 -1953 -1955 0
-1953 1594 1954 0
-1953 -1594 -1954 0
1953 -1594 1954 0
1953 1594 -1954 0
-1954 1592 1797 0
-1954 -1592 -1797 0
1954 -1592 1797 0
1954 1592 -1797 0
-1955 1956 1958 0
-1955 1958 2128 0
-1955 1956 2128 0
1955 -1956 -2128 0
1955 -1958 -2128 0
1955 -1956 -1958 0
-1956 1597 1957 0
-1956 -1597 -1957 0
1956 -1597 1957 0
1956 1597 -1957 0
-1957 1595 1789 0
-1957 -1595 -1789 0
1957 -1595 1789 0
1957 1595 -1789 0
-1958 1959 1961 0
-1958 1961 2120 0
-1958 1959 2120 0
1958 -1959 -2120 0
1958 -1961 -2120 0
1958 -1959 -1961 0
-1959 1600 1960 0
-1959 -1600 -1960 0
1959 -1600 1960 0
1959 1600 -1960 0
-1960 1598 1781 0
-1960 -1598 -1781 0
1960 -1598 1781 0
1960 1598 -1781 0
-1961 1962 1964 0
-1961 1964 2112 0
-1961 1962 2112 0
1961 -1962 -2112 0
1961 -1964 -2112 0
1961 -1962 -1964 0
-1962 1603 1963 0
-1962 -1603 -1963 0
1962 -1603 1963 0
1962 1603 -1963 0
-1963 1601 1773 0
-1963 -1601 -1773 0
1963 -1601 1773 0
1963 1601 -1773 0
-1964 1965 1967 0
-1964 1967 2104 0
-1964 1965 2104 0
1964 -1965 -2104 0
1964 -1967 -2104 0
1964 -1965 -1967 0
-1965 1606 1966 0
-1965 -1606 -1966 0
1965 -1606 1966 0
1965 1606 -1966 0
-1966 1604 1765 0
-1966 -1604 -1765 0
1966 -1604 1765 0
1966 1604 -1765 0
-1967 1968 1970 0
-1967 1970 2096 0
-1967 1968 2096 0
1967 -1968 -2096 0
1967 -1970 -2096 0
1967 -1968 -1970 0
-1968 1609 1969 0
-1968 -1609 -1969 0
1968 -1609 1969 0
1968 1609 -1969 0
-1969 1607 1757 0
-1969 -1607 -1757 0
1969 -1607 1757 0
1969 1607 -1757 0
-1970 1971 1973 0
-1970 1973 2088 0
-1970 1971 2088 0
1970 -1971 -2088 0
1970 -1973 -2088 0
1970 -1971 -1973 0
-1971 1612 1972 0
-1971 -1612 -1972 0
1971 -1612 1972 0
1971 1612 -1972 0
-1972 1610 1749 0
-1972 -1610 -1749 0
1972 -1610 1749 0
1972 1610 -1749 0
-1973 1974 1976 0
-1973 1976 2080 0
-1973 1974 2080 0
1973 -1974 -2080 0
1973 -1976 -2080 0
1973 -1974 -1976 0
-1974 1615 1975 0
-1974 -1615 -1975 0
1974 -1615 1975 0
1974 1615 -1975 0
-1975 1613 1741 0
-1975 -1613 -1741 0
1975 -1613 1741 0
1975 1613 -1741 0
-1976 1977 1979 0
-1976 1979 2072 0
-1976 1977 2072 0
1976 -1977 -2072 0
1976 -1979 -2072 0
1976 -1977 -1979 0
-1977 1618 1978 0
-1977 -1618 -1978 0
1977 -1618 1978 0
1977 1618 -1978 0
-1978 1616 1733 0
-1978 -1616 -1733 0
1978 -1616 1733 0
1978 1616 -1733 0
-1979 1980 1982 0
-1979 1982 2064 0
-1979 1980 2064 0
1979 -1980 -2064 0
1979 -1982 -2064 0
1979 -1980 -1982 0
-1980 1621 1981 0
-1980 -1621 -1981 0
1980 -1621 1981 0
1980 1621 -1981 0
-1981 1619 1725 0
-1981 -1619 -1725 0
1981 -1619 1725 0
1981 1619 -1725 0
-1982 1983 1985 0
-1982 1985 2056 0
-1982 1983 2056 0
1982 -1983 -2056 0
1982 -1985 -2056 0
1982 -1983 -1985 0
-1983 1624 1984 0
-1983 -1624 -1984 0
1983 -1624 1984 0
1983 1624 -1984 0
-1984 1622 1717 0
-1984 -1622 -1717 0
1984 -1622 1717 0
1984 1622 -1717 0
-1985 1986 1988 0
-1985 1988 2048 0
-1985 1986 2048 0
1985 -1986 -2048 0
1985 -1988 -2048 0
1985 -1986 -1988 0
-1986 1627 1987 0
-1986 -1627 -1987 0
1986 -1627 1987 0
1986 1627 -1987 0
-1987 1625 1709 0
-1987 -1625 -1709 0
1987 -1625 1709 0
1987 1625 -1709 0
-1988 1989 1991 0
-1988 1991 2040 0
-1988 1989 2040 0
1988 -1989 -2040 0
1988 -1991 -2040 0
1988 -1989 -1991 0
-1989 1630 1990 0
-1989 -1630 -1990 0
1989 -1630 1990 0
1989 1630 -1990 0
-1990 1628 1701 0
-1990 -1628 -1701 0
1990 -1628 1701 0
1990 1628 -1701 0
-1991 1992 1994 0
-1991 1994 2032 0
-1991 1992 2032 0
1991 -1992 -2032 0
1991 -1994 -2032 0
1991 -1992 -1994 0
-1992 1633 1993 0
-1992 -1633 -1993 0
1992 -1633 1993 0
1992 1633 -1993 0
-1993 1631 1693 0
-1993 -1631 -1693 0
1993 -1631 1693 0
1993 1631 -1693 0
-1994 1995 1997 0
-1994 1997 2024 0
-1994 1995 2024 0
1994 -1995 -2024 0
1994 -1997 -2024 0
1994 -1995 -1997 0
-1995 1636 1996 0
-1995 -1636 -1996 0
1995 -1636 1996 0
1995 1636 -1996 0
-1996 1634 1685 0
-1996 -1634 -1685 0
1996 -1634 1685 0
1996 1634 -1685 0
-1997 1998 2000 0
-1997 2000 2016 0
-1997 1998 2016 0
1997 -1998 -2016 0
1997 -2000 -2016 0
1997 -1998 -2000 0
-1998 1639 1999 0
-1998 -1639 -1999 0
1998 -1639 1999 0
1998 1639 -1999 0
-1999 1637 1677 0
-1999 -1637 -1677 0
1999 -1637 1677 0
1999 1637 -1677 0
-2000 2001 2008 0
-2000 2001 2003 0
-2000 2003 2008 0
2000 -2003 -2008 0
2000 -2001 -2008 0
2000 -2001 -2003 0
-2001 1642 2002 0
-2001 -1642 -2002 0
2001 -1642 2002 0
2001 1642 -2002 0
-2002 1640 1669 0
-2002 -1640 -1669 0
2002 -1640 1669 0
2002 1640 -1669 0
2003 -2004 -2006 0
-2003 2004 0
-2003 2006 0
2004 -9869 -2005 0
-2004 9869 0
-2004 2005 0
-2005 -9912 -9913 0
-2005 9912 9913 0
2005 9912 -9913 0
2005 -9912 9913 0
-2006 1645 2007 0
-2006 -1645 -2007 0
2006 -1645 2007 0
2006 1645 -2007 0
-2007 1643 1661 0
-2007 -1643 -1661 0
2007 -1643 1661 0
2007 1643 -1661 0
-2008 -2009 -2014 0
-2008 2009 2014 0
2008 2009 -2014 0
2008 -2009 2014 0
-2009 1909 2010 0
-2009 -1909 -2010 0
2009 -1909 2010 0
2009 1909 -2010 0
-2010 -2011 -2012 0
-2010 2011 2012 0
2010 2011 -2012 0
2010 -2011 2012 0
2011 -9870 -2005 0
-2011 9870 0
-2011 2005 0
2012 -9869 -2013 0
-2012 9869 0
-2012 2013 0
-2013 -9912 -9914 0
-2013 9913 9914 0
-2013 9912 -9913 0
2013 -9912 -9913 9914 0
2013 9912 9913 -9914 0
2014 -1909 2013 -2015 0
2014 -1909 -2013 2015 0
-2014 1909 0
-2014 2013 2015 0
-2014 -2013 -2015 0
2015 9869 -2005 0
-2015 -9869 0
-2015 2005 0
-2016 -2017 -2021 0
-2016 2017 2021 0
2016 2017 -2021 0
2016 -2017 2021 0
-2017 1909 2018 0
-2017 -1909 -2018 0
2017 -1909 2018 0
2017 1909 -2018 0
-2018 -2019 -2020 0
-2018 2019 2020 0
2018 2019 -2020 0
2018 -2019 2020 0
2019 -9871 -2005 0
-2019 9871 0
-2019 2005 0
2020 -9870 -2013 0
-2020 9870 0
-2020 2013 0
2021 -1909 -2022 2023 0
2021 -1909 2022 -2023 0
-2021 1909 0
-2021 -2022 -2023 0
-2021 2022 2023 0
2022 69 -2005 0
-2022 -69 0
-2022 2005 0
2023 9869 -2013 0
-2023 -9869 0
-2023 2013 0
-2024 -2025 -2029 0
-2024 2025 2029 0
2024 2025 -2029 0
2024 -2025 2029 0
-2025 1909 2026 0
-2025 -1909 -2026 0
2025 -1909 2026 0
2025 1909 -2026 0
-2026 -2027 -2028 0
-2026 2027 2028 0
2026 2027 -2028 0
2026 -2027 2028 0
2027 -9872 -2005 0
-2027 9872 0
-2027 2005 0
2028 -9871 -2013 0
-2028 9871 0
-2028 2013 0
2029 -1909 -2030 2031 0
2029 -1909 2030 -2031 0
-2029 1909 0
-2029 -2030 -2031 0
-2029 2030 2031 0
2030 68 -2005 0
-2030 -68 0
-2030 2005 0
2031 69 -2013 0
-2031 -69 0
-2031 2013 0
-2032 -2033 -2037 0
-2032 2033 2037 0
2032 2033 -2037 0
2032 -2033 2037 0
-2033 1909 2034 0
-2033 -1909 -2034 0
2033 -1909 2034 0
2033 1909 -2034 0
-2034 -2035 -2036 0
-2034 2035 2036 0
2034 2035 -2036 0
2034 -2035 2036 0
2035 -9873 -2005 0
-2035 9873 0
-2035 2005 0
2036 -9872 -2013 0
-2036 9872 0
-2036 2013 0
2037 -1909 -2038 2039 0
2037 -1909 2038 -2039 0
-2037 1909 0
-2037 -2038 -2039 0
-2037 2038 2039 0
2038 67 -2005 0
-2038 -67 0
-2038 2005 0
2039 68 -2013 0
-2039 -68 0
-2039 2013 0
-2040 -2041 -2045 0
-2040 2041 2045 0
2040 2041 -2045 0
2040 -2041 2045 0
-2041 1909 2042 0
-2041 -1909 -2042 0
2041 -1909 2042 0
2041 1909 -2042 0
-2042 -2043 -2044 0
-2042 2043 2044 0
2042 2043 -2044 0
2042 -2043 2044 0
2043 -9874 -2005 0
-2043 9874 0
-2043 2005 0
2044 -9873 -2013 0
-2044 9873 0
-2044 2013 0
2045 -1909 -2046 2047 0
2045 -1909 2046 -2047 0
-2045 1909 0
-2045 -2046 -2047 0
-2045 2046 2047 0
2046 66 -2005 0
-2046 -66 0
-2046 2005 0
2047 67 -2013 0
-2047 -67 0
-2047 2013 0
-2048 -2049 -2053 0
-2048 2049 2053 0
2048 2049 -2053 0
2048 -2049 2053 0
-2049 1909 2050 0
-2049 -1909 -2050 0
2049 -1909 2050 0
2049 1909 -2050 0
-2050 -2051 -2052 0
-2050 2051 2052 0
2050 2051 -2052 0
2050 -2051 2052 0
2051 -9875 -2005 0
-2051 9875 0
-2051 2005 0
2052 -9874 -2013 0
-2052 9874 0
-2052 2013 0
2053 -1909 -2054 2055 0
2053 -1909 2054 -2055 0
-2053 1909 0
-2053 -2054 -2055 0
-2053 2054 2055 0
2054 65 -2005 0
-2054 -65 0
-2054 2005 0
2055 66 -2013 0
-2055 -66 0
-2055 2013 0
-2056 -2057 -2061 0
-2056 2057 2061 0
2056 2057 -2061 0
2056 -2057 2061 0
-2057 1909 2058 0
-2057 -1909 -2058 0
2057 -1909 2058 0
2057 1909 -2058 0
-2058 -2059 -2060 0
-2058 2059 2060 0
2058 2059 -2060 0
2058 -2059 2060 0
2059 -9876 -2005 0
-2059 9876 0
-2059 2005 0
2060 -9875 -2013 0
-2060 9875 0
-2060 2013 0
2061 -1909 -2062 2063 0
2061 -1909 2062 -2063 0
-2061 1909 0
-2061 -2062 -2063 0
-2061 2062 2063 0
2062 64 -2005 0
-2062 -64 0
-2062 2005 0
2063 65 -2013 0
-2063 -65 0
-2063 2013 0
-2064 -2065 -2069 0
-2064 2065 2069 0
2064 2065 -2069 0
2064 -2065 2069 0
-2065 1909 2066 0
-2065 -1909 -2066 0
2065 -1909 2066 0
2065 1909 -2066 0
-2066 -2067 -2068 0
-2066 2067 2068 0
2066 2067 -2068 0
2066 -2067 2068 0
2067 -9877 -2005 0
-2067 9877 0
-2067 2005 0
2068 -9876 -2013 0
-2068 9876 0
-2068 2013 0
2069 -1909 -2070 2071 0
2069 -1909 2070 -2071 0
-2069 1909 0
-2069 -2070 -2071 0
-2069 2070 2071 0
2070 63 -2005 0
-2070 -63 0
-2070 2005 0
2071 64 -2013 0
-2071 -64 0
-2071 2013 0
-2072 -2073 -2077 0
-2072 2073 2077 0
2072 2073 -2077 0
2072 -2073 2077 0
-2073 1909 2074 0
-2073 -1909 -2074 0
2073 -1909 2074 0
2073 1909 -2074 0
-2074 -2075 -2076 0
-2074 2075 2076 0
2074 2075 -2076 0
2074 -2075 2076 0
2075 -9878 -2005 0
-2075 9878 0
-2075 2005 0
2076 -9877 -2013 0
-2076 9877 0
-2076 2013 0
2077 -1909 -2078 2079 0
2077 -1909 2078 -2079 0
-2077 1909 0
-2077 -2078 -2079 0
-2077 2078 2079 0
2078 62 -2005 0
-2078 -62 0
-2078 2005 0
2079 63 -2013 0
-2079 -63 0
-2079 2013 0
-2080 -2081 -2085 0
-2080 2081 2085 0
2080 2081 -2085 0
2080 -2081 2085 0
-2081 1909 2082 0
-2081 -1909 -2082 0
2081 -1909 2082 0
2081 1909 -2082 0
-2082 -2083 -2084 0
-2082 2083 2084 0
2082 2083 -2084 0
2082 -2083 2084 0
2083 -9879 -2005 0
-2083 9879 0
-2083 2005 0
2084 -9878 -2013 0
-2084 9878 0
-2084 2013 0
2085 -1909 -2086 2087 0
2085 -1909 2086 -2087 0
-2085 1909 0
-2085 -2086 -2087 0
-2085 2086 2087 0
2086 61 -2005 0
-2086 -61 0
-2086 2005 0
2087 62 -2013 0
-2087 -62 0
-2087 2013 0
-2088 -2089 -2093 0
-2088 2089 2093 0
2088 2089 -2093 0
2088 -2089 2093 0
-2089 1909 2090 0
-2089 -1909 -2090 0
2089 -1909 2090 0
2089 1909 -2090 0
-2090 -2091 -2092 0
-2090 2091 2092 0
2090 2091 -2092 0
2090 -2091 2092 0
2091 -9880 -2005 0
-2091 9880 0
-2091 2005 0
2092 -9879 -2013 0
-2092 9879 0
-2092 2013 0
2093 -1909 -2094 2095 0
2093 -1909 2094 -2095 0
-2093 1909 0
-2093 -2094 -2095 0
-2093 2094 2095 0
2094 60 -2005 0
-2094 -60 0
-2094 2005 0
2095 61 -2013 0
-2095 -61 0
-2095 2013 0
-2096 -2097 -2101 0
-2096 2097 2101 0
2096 2097 -2101 0
2096 -2097 2101 0
-2097 1909 2098 0
-2097 -1909 -2098 0
2097 -1909 2098 0
2097 1909 -2098 0
-2098 -2099 -2100 0
-2098 2099 2100 0
2098 2099 -2100 0
2098 -2099 2100 0
2099 -9881 -2005 0
-2099 9881 0
-2099 2005 0
2100 -9880 -2013 0
-2100 9880 0
-2100 2013 0
2101 -1909 -2102 2103 0
2101 -1909 2102 -2103 0
-2101 1909 0
-2101 -2102 -2103 0
-2101 2102 2103 0
2102 59 -2005 0
-2102 -59 0
-2102 2005 0
2103 60 -2013 0
-2103 -60 0
-2103 2013 0
-2104 -2105 -2109 0
-2104 2105 2109 0
2104 2105 -2109 0
2104 -2105 2109 0
-2105 1909 2106 0
-2105 -1909 -2106 0
2105 -1909 2106 0
2105 1909 -2106 0
-2106 -2107 -2108 0
-2106 2107 2108 0
2106 2107 -2108 0
2106 -2107 2108 0
2107 -9882 -2005 0
-2107 9882 0
-2107 2005 0
2108 -9881 -2013 0
-2108 9881 0
-2108 2013 0
2109 -1909 -2110 2111 0
2109 -1909 2110 -2111 0
-2109 1909 0
-2109 -2110 -2111 0
-2109 2110 2111 0
2110 58 -2005 0
-2110 -58 0
-2110 2005 0
2111 59 -2013 0
-2111 -59 0
-2111 2013 0
-2112 -2113 -2117 0
-2112 2113 2117 0
2112 2113 -2117 0
2112 -2113 2117 0
-2113 1909 2114 0
-2113 -1909 -2114 0
2113 -1909 2114 0
2113 1909 -2114 0
-2114 -2115 -2116 0
-2114 2115 2116 0
2114 2115 -2116 0
2114 -2115 2116 0
2115 -9883 -2005 0
-2115 9883 0
-2115 2005 0
2116 -9882 -2013 0
-2116 9882 0
-2116 2013 0
2117 -1909 -2118 2119 0
2117 -1909 2118 -2119 0
-2117 1909 0
-2117 -2118 -2119 0
-2117 2118 2119 0
2118 57 -2005 0
-2118 -57 0
-2118 2005 0
2119 58 -2013 0
-2119 -58 0
-2119 2013 0
-2120 -2121 -2125 0
-2120 2121 2125 0
2120 2121 -2125 0
2120 -2121 2125 0
-2121 1909 2122 0
-2121 -1909 -2122 0
2121 -1909 2122 0
2121 1909 -2122 0
-2122 -2123 -2124 0
-2122 2123 2124 0
2122 2123 -2124 0
2122 -2123 2124 0
2123 -9884 -2005 0
-2123 9884 0
-2123 2005 0
2124 -9883 -2013 0
-2124 9883 0
-2124 2013 0
2125 -1909 -2126 2127 0
2125 -1909 2126 -2127 0
-2125 1909 0
-2125 -2126 -2127 0
-2125 2126 2127 0
2126 56 -2005 0
-2126 -56 0
-2126 2005 0
2127 57 -2013 0
-2127 -57 0
-2127 2013 0
-2128 -2129 -2133 0
-2128 2129 2133 0
2128 2129 -2133 0
2128 -2129 2133 0
-2129 1909 2130 0
-2129 -1909 -2130 0
2129 -1909 2130 0
2129 1909 -2130 0
-2130 -2131 -2132 0
-2130 2131 2132 0
2130 2131 -2132 0
2130 -2131 2132 0
2131 -9885 -2005 0
-2131 9885 0
-2131 2005 0
2132 -9884 -2013 0
-2132 9884 0
-2132 2013 0
2133 -1909 -2134 2135 0
2133 -1909 2134 -2135 0
-2133 1909 0
-2133 -2134 -2135 0
-2133 2134 2135 0
2134 55 -2005 0
-2134 -55 0
-2134 2005 0
2135 56 -2013 0
-2135 -56 0
-2135 2013 0
-2136 -2137 -2141 0
-2136 2137 2141 0
2136 2137 -2141 0
2136 -2137 2141 0
-2137 1909 2138 0
-2137 -1909 -2138 0
2137 -1909 2138 0
2137 1909 -2138 0
-2138 -2139 -2140 0
-2138 2139 2140 0
2138 2139 -2140 0
2138 -2139 2140 0
2139 -9886 -2005 0
-2139 9886 0
-2139 2005 0
2140 -9885 -2013 0
-2140 9885 0
-2140 2013 0
2141 -1909 -2142 2143 0
2141 -1909 2142 -2143 0
-2141 1909 0
-2141 -2142 -2143 0
-2141 2142 2143 0
2142 54 -2005 0
-2142 -54 0
-2142 2005 0
2143 55 -2013 0
-2143 -55 0
-2143 2013 0
-2144 -2145 -2149 0
-2144 2145 2149 0
2144 2145 -2149 0
2144 -2145 2149 0
-2145 1909 2146 0
-2145 -1909 -2146 0
2145 -1909 2146 0
2145 1909 -2146 0
-2146 -2147 -2148 0
-2146 2147 2148 0
2146 2147 -2148 0
2146 -2147 2148 0
2147 -9887 -2005 0
-2147 9887 0
-2147 2005 0
2148 -9886 -2013 0
-2148 9886 0
-2148 2013 0
2149 -1909 -2150 2151 0
2149 -1909 2150 -2151 0
-2149 1909 0
-2149 -2150 -2151 0
-2149 2150 2151 0
2150 53 -2005 0
-2150 -53 0
-2150 2005 0
2151 54 -2013 0
-2151 -54 0
-2151 2013 0
-2152 -2153 -2157 0
-2152 2153 2157 0
2152 2153 -2157 0
2152 -2153 2157 0
-2153 1909 2154 0
-2153 -1909 -2154 0
2153 -1909 2154 0
2153 1909 -2154 0
-2154 -2155 -2156 0
-2154 2155 2156 0
2154 2155 -2156 0
2154 -2155 2156 0
2155 -9888 -2005 0
-2155 9888 0
-2155 2005 0
2156 -9887 -2013 0
-2156 9887 0
-2156 2013 0
2157 -1909 -2158 2159 0
2157 -1909 2158 -2159 0
-2157 1909 0
-2157 -2158 -2159 0
-2157 2158 2159 0
2158 52 -2005 0
-2158 -52 0
-2158 2005 0
2159 53 -2013 0
-2159 -53 0
-2159 2013 0
-2160 -2161 -2165 0
-2160 2161 2165 0
2160 2161 -2165 0
2160 -2161 2165 0
-2161 1909 2162 0
-2161 -1909 -2162 0
2161 -1909 2162 0
2161 1909 -2162 0
-2162 -2163 -2164 0
-2162 2163 2164 0
2162 2163 -2164 0
2162 -2163 2164 0
2163 -9889 -2005 0
-2163 9889 0
-2163 2005 0
2164 -9888 -2013 0
-2164 9888 0
-2164 2013 0
2165 -1909 -2166 2167 0
2165 -1909 2166 -2167 0
-2165 1909 0
-2165 -2166 -2167 0
-2165 2166 2167 0
2166 51 -2005 0
-2166 -51 0
-2166 2005 0
2167 52 -2013 0
-2167 -52 0
-2167 2013 0
-2168 -2169 -2173 0
-2168 2169 2173 0
2168 2169 -2173 0
2168 -2169 2173 0
-2169 1909 2170 0
-2169 -1909 -2170 0
2169 -1909 2170 0
2169 1909 -2170 0
-2170 -2171 -2172 0
-2170 2171 2172 0
2170 2171 -2172 0
2170 -2171 2172 0
2171 -9890 -2005 0
-2171 9890 0
-2171 2005 0
2172 -9889 -2013 0
-2172 9889 0
-2172 2013 0
2173 -1909 -2174 2175 0
2173 -1909 2174 -2175 0
-2173 1909 0
-2173 -2174 -2175 0
-2173 2174 2175 0
2174 50 -2005 0
-2174 -50 0
-2174 2005 0
2175 51 -2013 0
-2175 -51 0
-2175 2013 0
-2176 -2177 -2181 0
-2176 2177 2181 0
2176 2177 -2181 0
2176 -2177 2181 0
-2177 1909 2178 0
-2177 -1909 -2178 0
2177 -1909 2178 0
2177 1909 -2178 0
-2178 -2179 -2180 0
-2178 2179 2180 0
2178 2179 -2180 0
2178 -2179 2180 0
2179 -9891 -2005 0
-2179 9891 0
-2179 2005 0
2180 -9890 -2013 0
-2180 9890 0
-2180 2013 0
2181 -1909 -2182 2183 0
2181 -1909 2182 -2183 0
-2181 1909 0
-2181 -2182 -2183 0
-2181 2182 2183 0
2182 49 -2005 0
-2182 -49 0
-2182 2005 0
2183 50 -2013 0
-2183 -50 0
-2183 2013 0
-2184 -2185 -2189 0
-2184 2185 2189 0
2184 2185 -2189 0
2184 -2185 2189 0
-2185 1909 2186 0
-2185 -1909 -2186 0
2185 -1909 2186 0
2185 1909 -2186 0
-2186 -2187 -2188 0
-2186 2187 2188 0
2186 2187 -2188 0
2186 -2187 2188 0
2187 -9892 -2005 0
-2187 9892 0
-2187 2005 0
2188 -9891 -2013 0
-2188 9891 0
-2188 2013 0
2189 -1909 -2190 2191 0
2189 -1909 2190 -2191 0
-2189 1909 0
-2189 -2190 -2191 0
-2189 2190 2191 0
2190 48 -2005 0
-2190 -48 0
-2190 2005 0
2191 49 -2013 0
-2191 -49 0
-2191 2013 0
-2192 -2193 -2197 0
-2192 2193 2197 0
2192 2193 -2197 0
2192 -2193 2197 0
-2193 1909 2194 0
-2193 -1909 -2194 0
2193 -1909 2194 0
2193 1909 -2194 0
-2194 -2195 -2196 0
-2194 2195 2196 0
2194 2195 -2196 0
2194 -2195 2196 0
2195 -9893 -2005 0
-2195 9893 0
-2195 2005 0
2196 -9892 -2013 0
-2196 9892 0
-2196 2013 0
2197 -1909 -2198 2199 0
2197 -1909 2198 -2199 0
-2197 1909 0
-2197 -2198 -2199 0
-2197 2198 2199 0
2198 47 -2005 0
-2198 -47 0
-2198 2005 0
2199 48 -2013 0
-2199 -48 0
-2199 2013 0
-2200 -2201 -2205 0
-2200 2201 2205 0
2200 2201 -2205 0
2200 -2201 2205 0
-2201 1909 2202 0
-2201 -1909 -2202 0
2201 -1909 2202 0
2201 1909 -2202 0
-2202 -2203 -2204 0
-2202 2203 2204 0
2202 2203 -2204 0
2202 -2203 2204 0
2203 -9894 -2005 0
-2203 9894 0
-2203 2005 0
2204 -9893 -2013 0
-2204 9893 0
-2204 2013 0
2205 -1909 -2206 2207 0
2205 -1909 2206 -2207 0
-2205 1909 0
-2205 -2206 -2207 0
-2205 2206 2207 0
2206 46 -2005 0
-2206 -46 0
-2206 2005 0
2207 47 -2013 0
-2207 -47 0
-2207 2013 0
-2208 -2209 -2213 0
-2208 2209 2213 0
2208 2209 -2213 0
2208 -2209 2213 0
-2209 1909 2210 0
-2209 -1909 -2210 0
2209 -1909 2210 0
2209 1909 -2210 0
-2210 -2211 -2212 0
-2210 2211 2212 0
2210 2211 -2212 0
2210 -2211 2212 0
2211 -9895 -2005 0
-2211 9895 0
-2211 2005 0
2212 -9894 -2013 0
-2212 9894 0
-2212 2013 0
2213 -1909 -2214 2215 0
2213 -1909 2214 -2215 0
-2213 1909 0
-2213 -2214 -2215 0
-2213 2214 2215 0
2214 45 -2005 0
-2214 -45 0
-2214 2005 0
2215 46 -2013 0
-2215 -46 0
-2215 2013 0
-2216 -2217 -2221 0
-2216 2217 2221 0
2216 2217 -2221 0
2216 -2217 2221 0
-2217 1909 2218 0
-2217 -1909 -2218 0
2217 -1909 2218 0
2217 1909 -2218 0
-2218 -2219 -2220 0
-2218 2219 2220 0
2218 2219 -2220 0
2218 -2219 2220 0
2219 -9896 -2005 0
-2219 9896 0
-2219 2005 0
2220 -9895 -2013 0
-2220 9895 0
-2220 2013 0
2221 -1909 -2222 2223 0
2221 -1909 2222 -2223 0
-2221 1909 0
-2221 -2222 -2223 0
-2221 2222 2223 0
2222 44 -2005 0
-2222 -44 0
-2222 2005 0
2223 45 -2013 0
-2223 -45 0
-2223 2013 0
-2224 -2225 -2229 0
-2224 2225 2229 0
2224 2225 -2229 0
2224 -2225 2229 0
-2225 1909 2226 0
-2225 -1909 -2226 0
2225 -1909 2226 0
2225 1909 -2226 0
-2226 -2227 -2228 0
-2226 2227 2228 0
2226 2227 -2228 0
2226 -2227 2228 0
2227 -9897 -2005 0
-2227 9897 0
-2227 2005 0
2228 -9896 -2013 0
-2228 9896 0
-2228 2013 0
2229 -1909 -2230 2231 0
2229 -1909 2230 -2231 0
-2229 1909 0
-2229 -2230 -2231 0
-2229 2230 2231 0
2230 43 -2005 0
-2230 -43 0
-2230 2005 0
2231 44 -2013 0
-2231 -44 0
-2231 2013 0
-2232 -2233 -2237 0
-2232 2233 2237 0
2232 2233 -2237 0
2232 -2233 2237 0
-2233 1909 2234 0
-2233 -1909 -2234 0
2233 -1909 2234 0
2233 1909 -2234 0
-2234 -2235 -2236 0
-2234 2235 2236 0
2234 2235 -2236 0
2234 -2235 2236 0
2235 -9898 -2005 0
-2235 9898 0
-2235 2005 0
2236 -9897 -2013 0
-2236 9897 0
-2236 2013 0
2237 -1909 -2238 2239 0
2237 -1909 2238 -2239 0
-2237 1909 0
-2237 -2238 -2239 0
-2237 2238 2239 0
2238 42 -2005 0
-2238 -42 0
-2238 2005 0
2239 43 -2013 0
-2239 -43 0
-2239 2013 0
-2240 -2241 -2245 0
-2240 2241 2245 0
2240 2241 -2245 0
2240 -2241 2245 0
-2241 1909 2242 0
-2241 -1909 -2242 0
2241 -1909 2242 0
2241 1909 -2242 0
-2242 -2243 -2244 0
-2242 2243 2244 0
2242 2243 -2244 0
2242 -2243 2244 0
2243 -9899 -2005 0
-2243 9899 0
-2243 2005 0
2244 -9898 -2013 0
-2244 9898 0
-2244 2013 0
2245 -1909 -2246 2247 0
2245 -1909 2246 -2247 0
-2245 1909 0
-2245 -2246 -2247 0
-2245 2246 2247 0
2246 41 -2005 0
-2246 -41 0
-2246 2005 0
2247 42 -2013 0
-2247 -42 0
-2247 2013 0
-2248 -2249 -2253 0
-2248 2249 2253 0
2248 2249 -2253 0
2248 -2249 2253 0
-2249 1909 2250 0
-2249 -1909 -2250 0
2249 -1909 2250 0
2249 1909 -2250 0
-2250 -2251 -2252 0
-2250 2251 2252 0
2250 2251 -2252 0
2250 -2251 2252 0
2251 -9900 -2005 0
-2251 9900 0
-2251 2005 0
2252 -9899 -2013 0
-2252 9899 0
-2252 2013 0
2253 -1909 -2254 2255 0
2253 -1909 2254 -2255 0
-2253 1909 0
-2253 -2254 -2255 0
-2253 2254 2255 0
2254 40 -2005 0
-2254 -40 0
-2254 2005 0
2255 41 -2013 0
-2255 -41 0
-2255 2013 0
-2256 -2257 -2259 0
-2256 2257 2259 0
2256 2257 -2259 0
2256 -2257 2259 0
-2257 -1909 -2258 0
-2257 1909 2258 0
2257 1909 -2258 0
2257 -1909 2258 0
2258 -9900 -2013 0
-2258 9900 0
-2258 2013 0
2259 -1909 -2260 2261 0
2259 -1909 2260 -2261 0
-2259 1909 0
-2259 -2260 -2261 0
-2259 2260 2261 0
2260 39 -2005 0
-2260 -39 0
-2260 2005 0
2261 40 -2013 0
-2261 -40 0
-2261 2013 0
-2262 2263 0
2262 -2263 0
2263 -39 -2264 0
-2263 39 0
-2263 2264 0
-2264 2265 0
2264 -2265 0
2265 9915 -9916 0
2265 9914 -9916 0
-2265 9916 0
-2265 -9914 -9915 0
-2266 25 2267 0
-2266 2267 2611 0
-2266 25 2611 0
2266 -25 -2611 0
2266 -2267 -2611 0
2266 -25 -2267 0
-2267 25 2268 0
-2267 2268 2603 0
-2267 25 2603 0
2267 -25 -2603 0
2267 -2268 -2603 0
2267 -25 -2268 0
-2268 2269 2271 0
-2268 2271 2595 0
-2268 2269 2595 0
2268 -2269 -2595 0
2268 -2271 -2595 0
2268 -2269 -2271 0
-2269 1912 2270 0
-2269 -1912 -2270 0
2269 -1912 2270 0
2269 1912 -2270 0
-2270 27 2256 0
-2270 -27 -2256 0
2270 -27 2256 0
2270 27 -2256 0
-2271 2272 2274 0
-2271 2274 2587 0
-2271 2272 2587 0
2271 -2272 -2587 0
2271 -2274 -2587 0
2271 -2272 -2274 0
-2272 1913 2273 0
-2272 -1913 -2273 0
2272 -1913 2273 0
2272 1913 -2273 0
-2273 27 2248 0
-2273 -27 -2248 0
2273 -27 2248 0
2273 27 -2248 0
-2274 2275 2277 0
-2274 2277 2579 0
-2274 2275 2579 0
2274 -2275 -2579 0
2274 -2277 -2579 0
2274 -2275 -2277 0
-2275 1916 2276 0
-2275 -1916 -2276 0
2275 -1916 2276 0
2275 1916 -2276 0
-2276 1914 2240 0
-2276 -1914 -2240 0
2276 -1914 2240 0
2276 1914 -2240 0
-2277 2278 2280 0
-2277 2280 2571 0
-2277 2278 2571 0
2277 -2278 -2571 0
2277 -2280 -2571 0
2277 -2278 -2280 0
-2278 1919 2279 0
-2278 -1919 -2279 0
2278 -1919 2279 0
2278 1919 -2279 0
-2279 1917 2232 0
-2279 -1917 -2232 0
2279 -1917 2232 0
2279 1917 -2232 0
-2280 2281 2283 0
-2280 2283 2563 0
-2280 2281 2563 0
2280 -2281 -2563 0
2280 -2283 -2563 0
2280 -2281 -2283 0
-2281 1922 2282 0
-2281 -1922 -2282 0
2281 -1922 2282 0
2281 1922 -2282 0
-2282 1920 2224 0
-2282 -1920 -2224 0
2282 -1920 2224 0
2282 1920 -2224 0
-2283 2284 2286 0
-2283 2286 2555 0
-2283 2284 2555 0
2283 -2284 -2555 0
2283 -2286 -2555 0
2283 -2284 -2286 0
-2284 1925 2285 0
-2284 -1925 -2285 0
2284 -1925 2285 0
2284 1925 -2285 0
-2285 1923 2216 0
-2285 -1923 -2216 0
2285 -1923 2216 0
2285 1923 -2216 0
-2286 2287 2289 0
-2286 2289 2547 0
-2286 2287 2547 0
2286 -2287 -2547 0
2286 -2289 -2547 0
2286 -2287 -2289 0
-2287 1928 2288 0
-2287 -1928 -2288 0
2287 -1928 2288 0
2287 1928 -2288 0
-2288 1926 2208 0
-2288 -1926 -2208 0
2288 -1926 2208 0
2288 1926 -2208 0
-2289 2290 2292 0
-2289 2292 2539 0
-2289 2290 2539 0
2289 -2290 -2539 0
2289 -2292 -2539 0
2289 -2290 -2292 0
-2290 1931 2291 0
-2290 -1931 -2291 0
2290 -1931 2291 0
2290 1931 -2291 0
-2291 1929 2200 0
-2291 -1929 -2200 0
2291 -1929 2200 0
2291 1929 -2200 0
-2292 2293 2295 0
-2292 2295 2531 0
-2292 2293 2531 0
2292 -2293 -2531 0
2292 -2295 -2531 0
2292 -2293 -2295 0
-2293 1934 2294 0
-2293 -1934 -2294 0
2293 -1934 2294 0
2293 1934 -2294 0
-2294 1932 2192 0
-2294 -1932 -2192 0
2294 -1932 2192 0
2294 1932 -2192 0
-2295 2296 2298 0
-2295 2298 2523 0
-2295 2296 2523 0
2295 -2296 -2523 0
2295 -2298 -2523 0
2295 -2296 -2298 0
-2296 1937 2297 0
-2296 -1937 -2297 0
2296 -1937 2297 0
2296 1937 -2297 0
-2297 1935 2184 0
-2297 -1935 -2184 0
2297 -1935 2184 0
2297 1935 -2184 0
-2298 2299 2301 0
-2298 2301 2515 0
-2298 2299 2515 0
2298 -2299 -2515 0
2298 -2301 -2515 0
2298 -2299 -2301 0
-2299 1940 2300 0
-2299 -1940 -2300 0
2299 -1940 2300 0
2299 1940 -2300 0
-2300 1938 2176 0
-2300 -1938 -2176 0
2300 -1938 2176 0
2300 1938 -2176 0
-2301 2302 2304 0
-2301 2304 2507 0
-2301 2302 2507 0
2301 -2302 -2507 0
2301 -2304 -2507 0
2301 -2302 -2304 0
-2302 1943 2303 0
-2302 -1943 -2303 0
2302 -1943 2303 0
2302 1943 -2303 0
-2303 1941 2168 0
-2303 -1941 -2168 0
2303 -1941 2168 0
2303 1941 -2168 0
-2304 2305 2307 0
-2304 2307 2499 0
-2304 2305 2499 0
2304 -2305 -2499 0
2304 -2307 -2499 0
2304 -2305 -2307 0
-2305 1946 2306 0
-2305 -1946 -2306 0
2305 -1946 2306 0
2305 1946 -2306 0
-2306 1944 2160 0
-2306 -1944 -2160 0
2306 -1944 2160 0
2306 1944 -2160 0
-2307 2308 2310 0
-2307 2310 2491 0
-2307 2308 2491 0
2307 -2308 -2491 0
2307 -2310 -2491 0
2307 -2308 -2310 0
-2308 1949 2309 0
-2308 -1949 -2309 0
2308 -1949 2309 0
2308 1949 -2309 0
-2309 1947 2152 0
-2309 -1947 -2152 0
2309 -1947 2152 0
2309 1947 -2152 0
-2310 2311 2313 0
-2310 2313 2483 0
-2310 2311 2483 0
2310 -2311 -2483 0
2310 -2313 -2483 0
2310 -2311 -2313 0
-2311 1952 2312 0
-2311 -1952 -2312 0
2311 -1952 2312 0
2311 1952 -2312 0
-2312 1950 2144 0
-2312 -1950 -2144 0
2312 -1950 2144 0
2312 1950 -2144 0
-2313 2314 2316 0
-2313 2316 2475 0
-2313 2314 2475 0
2313 -2314 -2475 0
2313 -2316 -2475 0
2313 -2314 -2316 0
-2314 1955 2315 0
-2314 -1955 -2315 0
2314 -1955 2315 0
2314 1955 -2315 0
-2315 1953 2136 0
-2315 -1953 -2136 0
2315 -1953 2136 0
2315 1953 -2136 0
-2316 2317 2319 0
-2316 2319 2467 0
-2316 2317 2467 0
2316 -2317 -2467 0
2316 -2319 -2467 0
2316 -2317 -2319 0
-2317 1958 2318 0
-2317 -1958 -2318 0
2317 -1958 2318 0
2317 1958 -2318 0
-2318 1956 2128 0
-2318 -1956 -2128 0
2318 -1956 2128 0
2318 1956 -2128 0
-2319 2320 2322 0
-2319 2322 2459 0
-2319 2320 2459 0
2319 -2320 -2459 0
2319 -2322 -2459 0
2319 -2320 -2322 0
-2320 1961 2321 0
-2320 -1961 -2321 0
2320 -1961 2321 0
2320 1961 -2321 0
-2321 1959 2120 0
-2321 -1959 -2120 0
2321 -1959 2120 0
2321 1959 -2120 0
-2322 2323 2325 0
-2322 2325 2451 0
-2322 2323 2451 0
2322 -2323 -2451 0
2322 -2325 -2451 0
2322 -2323 -2325 0
-2323 1964 2324 0
-2323 -1964 -2324 0
2323 -1964 2324 0
2323 1964 -2324 0
-2324 1962 2112 0
-2324 -1962 -2112 0
2324 -1962 2112 0
2324 1962 -2112 0
-2325 2326 2328 0
-2325 2328 2443 0
-2325 2326 2443 0
2325 -2326 -2443 0
2325 -2328 -2443 0
2325 -2326 -2328 0
-2326 1967 2327 0
-2326 -1967 -2327 0
2326 -1967 2327 0
2326 1967 -2327 0
-2327 1965 2104 0
-2327 -1965 -2104 0
2327 -1965 2104 0
2327 1965 -2104 0
-2328 2329 2331 0
-2328 2331 2435 0
-2328 2329 2435 0
2328 -2329 -2435 0
2328 -2331 -2435 0
2328 -2329 -2331 0
-2329 1970 2330 0
-2329 -1970 -2330 0
2329 -1970 2330 0
2329 1970 -2330 0
-2330 1968 2096 0
-2330 -1968 -2096 0
2330 -1968 2096 0
2330 1968 -2096 0
-2331 2332 2334 0
-2331 2334 2427 0
-2331 2332 2427 0
2331 -2332 -2427 0
2331 -2334 -2427 0
2331 -2332 -2334 0
-2332 1973 2333 0
-2332 -1973 -2333 0
2332 -1973 2333 0
2332 1973 -2333 0
-2333 1971 2088 0
-2333 -1971 -2088 0
2333 -1971 2088 0
2333 1971 -2088 0
-2334 2335 2337 0
-2334 2337 2419 0
-2334 2335 2419 0
2334 -2335 -2419 0
2334 -2337 -2419 0
2334 -2335 -2337 0
-2335 1976 2336 0
-2335 -1976 -2336 0
2335 -1976 2336 0
2335 1976 -2336 0
-2336 1974 2080 0
-2336 -1974 -2080 0
2336 -1974 2080 0
2336 1974 -2080 0
-2337 2338 2340 0
-2337 2340 2411 0
-2337 2338 2411 0
2337 -2338 -2411 0
2337 -2340 -2411 0
2337 -2338 -2340 0
-2338 1979 2339 0
-2338 -1979 -2339 0
2338 -1979 2339 0
2338 1979 -2339 0
-2339 1977 2072 0
-2339 -1977 -2072 0
2339 -1977 2072 0
2339 1977 -2072 0
-2340 2341 2343 0
-2340 2343 2403 0
-2340 2341 2403 0
2340 -2341 -2403 0
2340 -2343 -2403 0
2340 -2341 -2343 0
-2341 1982 2342 0
-2341 -1982 -2342 0
2341 -1982 2342 0
2341 1982 -2342 0
-2342 1980 2064 0
-2342 -1980 -2064 0
2342 -1980 2064 0
2342 1980 -2064 0
-2343 2344 2346 0
-2343 2346 2395 0
-2343 2344 2395 0
2343 -2344 -2395 0
2343 -2346 -2395 0
2343 -2344 -2346 0
-2344 1985 2345 0
-2344 -1985 -2345 0
2344 -1985 2345 0
2344 1985 -2345 0
-2345 1983 2056 0
-2345 -1983 -2056 0
2345 -1983 2056 0
2345 1983 -2056 0
-2346 2347 2349 0
-2346 2349 2387 0
-2346 2347 2387 0
2346 -2347 -2387 0
2346 -2349 -2387 0
2346 -2347 -2349 0
-2347 1988 2348 0
-2347 -1988 -2348 0
2347 -1988 2348 0
2347 1988 -2348 0
-2348 1986 2048 0
-2348 -1986 -2048 0
2348 -1986 2048 0
2348 1986 -2048 0
-2349 2350 2352 0
-2349 2352 2379 0
-2349 2350 2379 0
2349 -2350 -2379 0
2349 -2352 -2379 0
2349 -2350 -2352 0
-2350 1991 2351 0
-2350 -1991 -2351 0
2350 -1991 2351 0
2350 1991 -2351 0
-2351 1989 2040 0
-2351 -1989 -2040 0
2351 -1989 2040 0
2351 1989 -2040 0
-2352 2353 2355 0
-2352 2355 2371 0
-2352 2353 2371 0
2352 -2353 -2371 0
2352 -2355 -2371 0
2352 -2353 -2355 0
-2353 1994 2354 0
-2353 -1994 -2354 0
2353 -1994 2354 0
2353 1994 -2354 0
-2354 1992 2032 0
-2354 -1992 -2032 0
2354 -1992 2032 0
2354 1992 -2032 0
-2355 2356 2363 0
-2355 2356 2358 0
-2355 2358 2363 0
2355 -2358 -2363 0
2355 -2356 -2363 0
2355 -2356 -2358 0
-2356 1997 2357 0
-2356 -1997 -2357 0
2356 -1997 2357 0
2356 1997 -2357 0
-2357 1995 2024 0
-2357 -1995 -2024 0
2357 -1995 2024 0
2357 1995 -2024 0
2358 -2359 -2361 0
-2358 2359 0
-2358 2361 0
2359 -9869 -2360 0
-2359 9869 0
-2359 2360 0
-2360 -9914 -9915 0
-2360 9914 9915 0
2360 9914 -9915 0
2360 -9914 9915 0
-2361 2000 2362 0
-2361 -2000 -2362 0
2361 -2000 2362 0
2361 2000 -2362 0
-2362 1998 2016 0
-2362 -1998 -2016 0
2362 -1998 2016 0
2362 1998 -2016 0
-2363 -2364 -2369 0
-2363 2364 2369 0
2363 2364 -2369 0
2363 -2364 2369 0
-2364 2264 2365 0
-2364 -2264 -2365 0
2364 -2264 2365 0
2364 2264 -2365 0
-2365 -2366 -2367 0
-2365 2366 2367 0
2365 2366 -2367 0
2365 -2366 2367 0
2366 -9870 -2360 0
-2366 9870 0
-2366 2360 0
2367 -9869 -2368 0
-2367 9869 0
-2367 2368 0
-2368 -9914 -9916 0
-2368 9915 9916 0
-2368 9914 -9915 0
2368 -9914 -9915 9916 0
2368 9914 9915 -9916 0
2369 -2264 2368 -2370 0
2369 -2264 -2368 2370 0
-2369 2264 0
-2369 2368 2370 0
-2369 -2368 -2370 0
2370 9869 -2360 0
-2370 -9869 0
-2370 2360 0
-2371 -2372 -2376 0
-2371 2372 2376 0
2371 2372 -2376 0
2371 -2372 2376 0
-2372 2264 2373 0
-2372 -2264 -2373 0
2372 -2264 2373 0
2372 2264 -2373 0
-2373 -2374 -2375 0
-2373 2374 2375 0
2373 2374 -2375 0
2373 -2374 2375 0
2374 -9871 -2360 0
-2374 9871 0
-2374 2360 0
2375 -9870 -2368 0
-2375 9870 0
-2375 2368 0
2376 -2264 -2377 2378 0
2376 -2264 2377 -2378 0
-2376 2264 0
-2376 -2377 -2378 0
-2376 2377 2378 0
2377 69 -2360 0
-2377 -69 0
-2377 2360 0
2378 9869 -2368 0
-2378 -9869 0
-2378 2368 0
-2379 -2380 -2384 0
-2379 2380 2384 0
2379 2380 -2384 0
2379 -2380 2384 0
-2380 2264 2381 0
-2380 -2264 -2381 0
2380 -2264 2381 0
2380 2264 -2381 0
-2381 -2382 -2383 0
-2381 2382 2383 0
2381 2382 -2383 0
2381 -2382 2383 0
2382 -9872 -2360 0
-2382 9872 0
-2382 2360 0
2383 -9871 -2368 0
-2383 9871 0
-2383 2368 0
2384 -2264 -2385 2386 0
2384 -2264 2385 -2386 0
-2384 2264 0
-2384 -2385 -2386 0
-2384 2385 2386 0
2385 68 -2360 0
-2385 -68 0
-2385 2360 0
2386 69 -2368 0
-2386 -69 0
-2386 2368 0
-2387 -2388 -2392 0
-2387 2388 2392 0
2387 2388 -2392 0
2387 -2388 2392 0
-2388 2264 2389 0
-2388 -2264 -2389 0
2388 -2264 2389 0
2388 2264 -2389 0
-2389 -2390 -2391 0
-2389 2390 2391 0
2389 2390 -2391 0
2389 -2390 2391 0
2390 -9873 -2360 0
-2390 9873 0
-2390 2360 0
2391 -9872 -2368 0
-2391 9872 0
-2391 2368 0
2392 -2264 -2393 2394 0
2392 -2264 2393 -2394 0
-2392 2264 0
-2392 -2393 -2394 0
-2392 2393 2394 0
2393 67 -2360 0
-2393 -67 0
-2393 2360 0
2394 68 -2368 0
-2394 -68 0
-2394 2368 0
-2395 -2396 -2400 0
-2395 2396 2400 0
2395 2396 -2400 0
2395 -2396 2400 0
-2396 2264 2397 0
-2396 -2264 -2397 0
2396 -2264 2397 0
2396 2264 -2397 0
-2397 -2398 -2399 0
-2397 2398 2399 0
2397 2398 -2399 0
2397 -2398 2399 0
2398 -9874 -2360 0
-2398 9874 0
-2398 2360 0
2399 -9873 -2368 0
-2399 9873 0
-2399 2368 0
2400 -2264 -2401 2402 0
2400 -2264 2401 -2402 0
-2400 2264 0
-2400 -2401 -2402 0
-2400 2401 2402 0
2401 66 -2360 0
-2401 -66 0
-2401 2360 0
2402 67 -2368 0
-2402 -67 0
-2402 2368 0
-2403 -2404 -2408 0
-2403 2404 2408 0
2403 2404 -2408 0
2403 -2404 2408 0
-2404 2264 2405 0
-2404 -2264 -2405 0
2404 -2264 2405 0
2404 2264 -2405 0
-2405 -2406 -2407 0
-2405 2406 2407 0
2405 2406 -2407 0
2405 -2406 2407 0
2406 -9875 -2360 0
-2406 9875 0
-2406 2360 0
2407 -9874 -2368 0
-2407 9874 0
-2407 2368 0
2408 -2264 -2409 2410 0
2408 -2264 2409 -2410 0
-2408 2264 0
-2408 -2409 -2410 0
-2408 2409 2410 0
2409 65 -2360 0
-2409 -65 0
-2409 2360 0
2410 66 -2368 0
-2410 -66 0
-2410 2368 0
-2411 -2412 -2416 0
-2411 2412 2416 0
2411 2412 -2416 0
2411 -2412 2416 0
-2412 2264 2413 0
-2412 -2264 -2413 0
2412 -2264 2413 0
2412 2264 -2413 0
-2413 -2414 -2415 0
-2413 2414 2415 0
2413 2414 -2415 0
2413 -2414 2415 0
2414 -9876 -2360 0
-2414 9876 0
-2414 2360 0
2415 -9875 -2368 0
-2415 9875 0
-2415 2368 0
2416 -2264 -2417 2418 0
2416 -2264 2417 -2418 0
-2416 2264 0
-2416 -2417 -2418 0
-2416 2417 2418 0
2417 64 -2360 0
-2417 -64 0
-2417 2360 0
2418 65 -2368 0
-2418 -65 0
-2418 2368 0
-2419 -2420 -2424 0
-2419 2420 2424 0
2419 2420 -2424 0
2419 -2420 2424 0
-2420 2264 2421 0
-2420 -2264 -2421 0
2420 -2264 2421 0
2420 2264 -2421 0
-2421 -2422 -2423 0
-2421 2422 2423 0
2421 2422 -2423 0
2421 -2422 2423 0
2422 -9877 -2360 0
-2422 9877 0
-2422 2360 0
2423 -9876 -2368 0
-2423 9876 0
-2423 2368 0
2424 -2264 -2425 2426 0
2424 -2264 2425 -2426 0
-2424 2264 0
-2424 -2425 -2426 0
-2424 2425 2426 0
2425 63 -2360 0
-2425 -63 0
-2425 2360 0
2426 64 -2368 0
-2426 -64 0
-2426 2368 0
-2427 -2428 -2432 0
-2427 2428 2432 0
2427 2428 -2432 0
2427 -2428 2432 0
-2428 2264 2429 0
-2428 -2264 -2429 0
2428 -2264 2429 0
2428 2264 -2429 0
-2429 -2430 -2431 0
-2429 2430 2431 0
2429 2430 -2431 0
2429 -2430 2431 0
2430 -9878 -2360 0
-2430 9878 0
-2430 2360 0
2431 -9877 -2368 0
-2431 9877 0
-2431 2368 0
2432 -2264 -2433 2434 0
2432 -2264 2433 -2434 0
-2432 2264 0
-2432 -2433 -2434 0
-2432 2433 2434 0
2433 62 -2360 0
-2433 -62 0
-2433 2360 0
2434 63 -2368 0
-2434 -63 0
-2434 2368 0
-2435 -2436 -2440 0
-2435 2436 2440 0
2435 2436 -2440 0
2435 -2436 2440 0
-2436 2264 2437 0
-2436 -2264 -2437 0
2436 -2264 2437 0
2436 2264 -2437 0
-2437 -2438 -2439 0
-2437 2438 2439 0
2437 2438 -2439 0
2437 -2438 2439 0
2438 -9879 -2360 0
-2438 9879 0
-2438 2360 0
2439 -9878 -2368 0
-2439 9878 0
-2439 2368 0
2440 -2264 -2441 2442 0
2440 -2264 2441 -2442 0
-2440 2264 0
-2440 -2441 -2442 0
-2440 2441 2442 0
2441 61 -2360 0
-2441 -61 0
-2441 2360 0
2442 62 -2368 0
-2442 -62 0
-2442 2368 0
-2443 -2444 -2448 0
-2443 2444 2448 0
2443 2444 -2448 0
2443 -2444 2448 0
-2444 2264 2445 0
-2444 -2264 -2445 0
2444 -2264 2445 0
2444 2264 -2445 0
-2445 -2446 -2447 0
-2445 2446 2447 0
2445 2446 -2447 0
2445 -2446 2447 0
2446 -9880 -2360 0
-2446 9880 0
-2446 2360 0
2447 -9879 -2368 0
-2447 9879 0
-2447 2368 0
2448 -2264 -2449 2450 0
2448 -2264 2449 -2450 0
-2448 2264 0
-2448 -2449 -2450 0
-2448 2449 2450 0
2449 60 -2360 0
-2449 -60 0
-2449 2360 0
2450 61 -2368 0
-2450 -61 0
-2450 2368 0
-2451 -2452 -2456 0
-2451 2452 2456 0
2451 2452 -2456 0
2451 -2452 2456 0
-2452 2264 2453 0
-2452 -2264 -2453 0
2452 -2264 2453 0
2452 2264 -2453 0
-2453 -2454 -2455 0
-2453 2454 2455 0
2453 2454 -2455 0
2453 -2454 2455 0
2454 -9881 -2360 0
-2454 9881 0
-2454 2360 0
2455 -9880 -2368 0
-2455 9880 0
-2455 2368 0
2456 -2264 -2457 2458 0
2456 -2264 2457 -2458 0
-2456 2264 0
-2456 -2457 -2458 0
-2456 2457 2458 0
2457 59 -2360 0
-2457 -59 0
-2457 2360 0
2458 60 -2368 0
-2458 -60 0
-2458 2368 0
-2459 -2460 -2464 0
-2459 2460 2464 0
2459 2460 -2464 0
2459 -2460 2464 0
-2460 2264 2461 0
-2460 -2264 -2461 0
2460 -2264 2461 0
2460 2264 -2461 0
-2461 -2462 -2463 0
-2461 2462 2463 0
2461 2462 -2463 0
2461 -2462 2463 0
2462 -9882 -2360 0
-2462 9882 0
-2462 2360 0
2463 -9881 -2368 0
-2463 9881 0
-2463 2368 0
2464 -2264 -2465 2466 0
2464 -2264 2465 -2466 0
-2464 2264 0
-2464 -2465 -2466 0
-2464 2465 2466 0
2465 58 -2360 0
-2465 -58 0
-2465 2360 0
2466 59 -2368 0
-2466 -59 0
-2466 2368 0
-2467 -2468 -2472 0
-2467 2468 2472 0
2467 2468 -2472 0
2467 -2468 2472 0
-2468 2264 2469 0
-2468 -2264 -2469 0
2468 -2264 2469 0
2468 2264 -2469 0
-2469 -2470 -2471 0
-2469 2470 2471 0
2469 2470 -2471 0
2469 -2470 2471 0
2470 -9883 -2360 0
-2470 9883 0
-2470 2360 0
2471 -9882 -2368 0
-2471 9882 0
-2471 2368 0
2472 -2264 -2473 2474 0
2472 -2264 2473 -2474 0
-2472 2264 0
-2472 -2473 -2474 0
-2472 2473 2474 0
2473 57 -2360 0
-2473 -57 0
-2473 2360 0
2474 58 -2368 0
-2474 -58 0
-2474 2368 0
-2475 -2476 -2480 0
-2475 2476 2480 0
2475 2476 -2480 0
2475 -2476 2480 0
-2476 2264 2477 0
-2476 -2264 -2477 0
2476 -2264 2477 0
2476 2264 -2477 0
-2477 -2478 -2479 0
-2477 2478 2479 0
2477 2478 -2479 0
2477 -2478 2479 0
2478 -9884 -2360 0
-2478 9884 0
-2478 2360 0
2479 -9883 -2368 0
-2479 9883 0
-2479 2368 0
2480 -2264 -2481 2482 0
2480 -2264 2481 -2482 0
-2480 2264 0
-2480 -2481 -2482 0
-2480 2481 2482 0
2481 56 -2360 0
-2481 -56 0
-2481 2360 0
2482 57 -2368 0
-2482 -57 0
-2482 2368 0
-2483 -2484 -2488 0
-2483 2484 2488 0
2483 2484 -2488 0
2483 -2484 2488 0
-2484 2264 2485 0
-2484 -2264 -2485 0
2484 -2264 2485 0
2484 2264 -2485 0
-2485 -2486 -2487 0
-2485 2486 2487 0
2485 2486 -2487 0
2485 -2486 2487 0
2486 -9885 -2360 0
-2486 9885 0
-2486 2360 0
2487 -9884 -2368 0
-2487 9884 0
-2487 2368 0
2488 -2264 -2489 2490 0
2488 -2264 2489 -2490 0
-2488 2264 0
-2488 -2489 -2490 0
-2488 2489 2490 0
2489 55 -2360 0
-2489 -55 0
-2489 2360 0
2490 56 -2368 0
-2490 -56 0
-2490 2368 0
-2491 -2492 -2496 0
-2491 2492 2496 0
2491 2492 -2496 0
2491 -2492 2496 0
-2492 2264 2493 0
-2492 -2264 -2493 0
2492 -2264 2493 0
2492 2264 -2493 0
-2493 -2494 -2495 0
-2493 2494 2495 0
2493 2494 -2495 0
2493 -2494 2495 0
2494 -9886 -2360 0
-2494 9886 0
-2494 2360 0
2495 -9885 -2368 0
-2495 9885 0
-2495 2368 0
2496 -2264 -2497 2498 0
2496 -2264 2497 -2498 0
-2496 2264 0
-2496 -2497 -2498 0
-2496 2497 2498 0
2497 54 -2360 0
-2497 -54 0
-2497 2360 0
2498 55 -2368 0
-2498 -55 0
-2498 2368 0
-2499 -2500 -2504 0
-2499 2500 2504 0
2499 2500 -2504 0
2499 -2500 2504 0
-2500 2264 2501 0
-2500 -2264 -2501 0
2500 -2264 2501 0
2500 2264 -2501 0
-2501 -2502 -2503 0
-2501 2502 2503 0
2501 2502 -2503 0
2501 -2502 2503 0
2502 -9887 -2360 0
-2502 9887 0
-2502 2360 0
2503 -9886 -2368 0
-2503 9886 0
-2503 2368 0
2504 -2264 -2505 2506 0
2504 -2264 2505 -2506 0
-2504 2264 0
-2504 -2505 -2506 0
-2504 2505 2506 0
2505 53 -2360 0
-2505 -53 0
-2505 2360 0
2506 54 -2368 0
-2506 -54 0
-2506 2368 0
-2507 -2508 -2512 0
-2507 2508 2512 0
2507 2508 -2512 0
2507 -2508 2512 0
-2508 2264 2509 0
-2508 -2264 -2509 0
2508 -2264 2509 0
2508 2264 -2509 0
-2509 -2510 -2511 0
-2509 2510 2511 0
2509 2510 -2511 0
2509 -2510 2511 0
2510 -9888 -2360 0
-2510 9888 0
-2510 2360 0
2511 -9887 -2368 0
-2511 9887 0
-2511 2368 0
2512 -2264 -2513 2514 0
2512 -2264 2513 -2514 0
-2512 2264 0
-2512 -2513 -2514 0
-2512 2513 2514 0
2513 52 -2360 0
-2513 -52 0
-2513 2360 0
2514 53 -2368 0
-2514 -53 0
-2514 2368 0
-2515 -2516 -2520 0
-2515 2516 2520 0
2515 2516 -2520 0
2515 -2516 2520 0
-2516 2264 2517 0
-2516 -2264 -2517 0
2516 -2264 2517 0
2516 2264 -2517 0
-2517 -2518 -2519 0
-2517 2518 2519 0
2517 2518 -2519 0
2517 -2518 2519 0
2518 -9889 -2360 0
-2518 9889 0
-2518 2360 0
2519 -9888 -2368 0
-2519 9888 0
-2519 2368 0
2520 -2264 -2521 2522 0
2520 -2264 2521 -2522 0
-2520 2264 0
-2520 -2521 -2522 0
-2520 2521 2522 0
2521 51 -2360 0
-2521 -51 0
-2521 2360 0
2522 52 -2368 0
-2522 -52 0
-2522 2368 0
-2523 -2524 -2528 0
-2523 2524 2528 0
2523 2524 -2528 0
2523 -2524 2528 0
-2524 2264 2525 0
-2524 -2264 -2525 0
2524 -2264 2525 0
2524 2264 -2525 0
-2525 -2526 -2527 0
-2525 2526 2527 0
2525 2526 -2527 0
2525 -2526 2527 0
2526 -9890 -2360 0
-2526 9890 0
-2526 2360 0
2527 -9889 -2368 0
-2527 9889 0
-2527 2368 0
2528 -2264 -2529 2530 0
2528 -2264 2529 -2530 0
-2528 2264 0
-2528 -2529 -2530 0
-2528 2529 2530 0
2529 50 -2360 0
-2529 -50 0
-2529 2360 0
2530 51 -2368 0
-2530 -51 0
-2530 2368 0
-2531 -2532 -2536 0
-2531 2532 2536 0
2531 2532 -2536 0
2531 -2532 2536 0
-2532 2264 2533 0
-2532 -2264 -2533 0
2532 -2264 2533 0
2532 2264 -2533 0
-2533 -2534 -2535 0
-2533 2534 2535 0
2533 2534 -2535 0
2533 -2534 2535 0
2534 -9891 -2360 0
-2534 9891 0
-2534 2360 0
2535 -9890 -2368 0
-2535 9890 0
-2535 2368 0
2536 -2264 -2537 2538 0
2536 -2264 2537 -2538 0
-2536 2264 0
-2536 -2537 -2538 0
-2536 2537 2538 0
2537 49 -2360 0
-2537 -49 0
-2537 2360 0
2538 50 -2368 0
-2538 -50 0
-2538 2368 0
-2539 -2540 -2544 0
-2539 2540 2544 0
2539 2540 -2544 0
2539 -2540 2544 0
-2540 2264 2541 0
-2540 -2264 -2541 0
2540 -2264 2541 0
2540 2264 -2541 0
-2541 -2542 -2543 0
-2541 2542 2543 0
2541 2542 -2543 0
2541 -2542 2543 0
2542 -9892 -2360 0
-2542 9892 0
-2542 2360 0
2543 -9891 -2368 0
-2543 9891 0
-2543 2368 0
2544 -2264 -2545 2546 0
2544 -2264 2545 -2546 0
-2544 2264 0
-2544 -2545 -2546 0
-2544 2545 2546 0
2545 48 -2360 0
-2545 -48 0
-2545 2360 0
2546 49 -2368 0
-2546 -49 0
-2546 2368 0
-2547 -2548 -2552 0
-2547 2548 2552 0
2547 2548 -2552 0
2547 -2548 2552 0
-2548 2264 2549 0
-2548 -2264 -2549 0
2548 -2264 2549 0
2548 2264 -2549 0
-2549 -2550 -2551 0
-2549 2550 2551 0
2549 2550 -2551 0
2549 -2550 2551 0
2550 -9893 -2360 0
-2550 9893 0
-2550 2360 0
2551 -9892 -2368 0
-2551 9892 0
-2551 2368 0
2552 -2264 -2553 2554 0
2552 -2264 2553 -2554 0
-2552 2264 0
-2552 -2553 -2554 0
-2552 2553 2554 0
2553 47 -2360 0
-2553 -47 0
-2553 2360 0
2554 48 -2368 0
-2554 -48 0
-2554 2368 0
-2555 -2556 -2560 0
-2555 2556 2560 0
2555 2556 -2560 0
2555 -2556 2560 0
-2556 2264 2557 0
-2556 -2264 -2557 0
2556 -2264 2557 0
2556 2264 -2557 0
-2557 -2558 -2559 0
-2557 2558 2559 0
2557 2558 -2559 0
2557 -2558 2559 0
2558 -9894 -2360 0
-2558 9894 0
-2558 2360 0
2559 -9893 -2368 0
-2559 9893 0
-2559 2368 0
2560 -2264 -2561 2562 0
2560 -2264 2561 -2562 0
-2560 2264 0
-2560 -2561 -2562 0
-2560 2561 2562 0
2561 46 -2360 0
-2561 -46 0
-2561 2360 0
2562 47 -2368 0
-2562 -47 0
-2562 2368 0
-2563 -2564 -2568 0
-2563 2564 2568 0
2563 2564 -2568 0
2563 -2564 2568 0
-2564 2264 2565 0
-2564 -2264 -2565 0
2564 -2264 2565 0
2564 2264 -2565 0
-2565 -2566 -2567 0
-2565 2566 2567 0
2565 2566 -2567 0
2565 -2566 2567 0
2566 -9895 -2360 0
-2566 9895 0
-2566 2360 0
2567 -9894 -2368 0
-2567 9894 0
-2567 2368 0
2568 -2264 -2569 2570 0
2568 -2264 2569 -2570 0
-2568 2264 0
-2568 -2569 -2570 0
-2568 2569 2570 0
2569 45 -2360 0
-2569 -45 0
-2569 2360 0
2570 46 -2368 0
-2570 -46 0
-2570 2368 0
-2571 -2572 -2576 0
-2571 2572 2576 0
2571 2572 -2576 0
2571 -2572 2576 0
-2572 2264 2573 0
-2572 -2264 -2573 0
2572 -2264 2573 0
2572 2264 -2573 0
-2573 -2574 -2575 0
-2573 2574 2575 0
2573 2574 -2575 0
2573 -2574 2575 0
2574 -9896 -2360 0
-2574 9896 0
-2574 2360 0
2575 -9895 -2368 0
-2575 9895 0
-2575 2368 0
2576 -2264 -2577 2578 0
2576 -2264 2577 -2578 0
-2576 2264 0
-2576 -2577 -2578 0
-2576 2577 2578 0
2577 44 -2360 0
-2577 -44 0
-2577 2360 0
2578 45 -2368 0
-2578 -45 0
-2578 2368 0
-2579 -2580 -2584 0
-2579 2580 2584 0
2579 2580 -2584 0
2579 -2580 2584 0
-2580 2264 2581 0
-2580 -2264 -2581 0
2580 -2264 2581 0
2580 2264 -2581 0
-2581 -2582 -2583 0
-2581 2582 2583 0
2581 2582 -2583 0
2581 -2582 2583 0
2582 -9897 -2360 0
-2582 9897 0
-2582 2360 0
2583 -9896 -2368 0
-2583 9896 0
-2583 2368 0
2584 -2264 -2585 2586 0
2584 -2264 2585 -2586 0
-2584 2264 0
-2584 -2585 -2586 0
-2584 2585 2586 0
2585 43 -2360 0
-2585 -43 0
-2585 2360 0
2586 44 -2368 0
-2586 -44 0
-2586 2368 0
-2587 -2588 -2592 0
-2587 2588 2592 0
2587 2588 -2592 0
2587 -2588 2592 0
-2588 2264 2589 0
-2588 -2264 -2589 0
2588 -2264 2589 0
2588 2264 -2589 0
-2589 -2590 -2591 0
-2589 2590 2591 0
2589 2590 -2591 0
2589 -2590 2591 0
2590 -9898 -2360 0
-2590 9898 0
-2590 2360 0
2591 -9897 -2368 0
-2591 9897 0
-2591 2368 0
2592 -2264 -2593 2594 0
2592 -2264 2593 -2594 0
-2592 2264 0
-2592 -2593 -2594 0
-2592 2593 2594 0
2593 42 -2360 0
-2593 -42 0
-2593 2360 0
2594 43 -2368 0
-2594 -43 0
-2594 2368 0
-2595 -2596 -2600 0
-2595 2596 2600 0
2595 2596 -2600 0
2595 -2596 2600 0
-2596 2264 2597 0
-2596 -2264 -2597 0
2596 -2264 2597 0
2596 2264 -2597 0
-2597 -2598 -2599 0
-2597 2598 2599 0
2597 2598 -2599 0
2597 -2598 2599 0
2598 -9899 -2360 0
-2598 9899 0
-2598 2360 0
2599 -9898 -2368 0
-2599 9898 0
-2599 2368 0
2600 -2264 -2601 2602 0
2600 -2264 2601 -2602 0
-2600 2264 0
-2600 -2601 -2602 0
-2600 2601 2602 0
2601 41 -2360 0
-2601 -41 0
-2601 2360 0
2602 42 -2368 0
-2602 -42 0
-2602 2368 0
-2603 -2604 -2608 0
-2603 2604 2608 0
2603 2604 -2608 0
2603 -2604 2608 0
-2604 2264 2605 0
-2604 -2264 -2605 0
2604 -2264 2605 0
2604 2264 -2605 0
-2605 -2606 -2607 0
-2605 2606 2607 0
2605 2606 -2607 0
2605 -2606 2607 0
2606 -9900 -2360 0
-2606 9900 0
-2606 2360 0
2607 -9899 -2368 0
-2607 9899 0
-2607 2368 0
2608 -2264 -2609 2610 0
2608 -2264 2609 -2610 0
-2608 2264 0
-2608 -2609 -2610 0
-2608 2609 2610 0
2609 40 -2360 0
-2609 -40 0
-2609 2360 0
2610 41 -2368 0
-2610 -41 0
-2610 2368 0
-2611 -2612 -2614 0
-2611 2612 2614 0
2611 2612 -2614 0
2611 -2612 2614 0
-2612 -2264 -2613 0
-2612 2264 2613 0
2612 2264 -2613 0
2612 -2264 2613 0
2613 -9900 -2368 0
-2613 9900 0
-2613 2368 0
2614 -2264 -2615 2616 0
2614 -2264 2615 -2616 0
-2614 2264 0
-2614 -2615 -2616 0
-2614 2615 2616 0
2615 39 -2360 0
-2615 -39 0
-2615 2360 0
2616 40 -2368 0
-2616 -40 0
-2616 2368 0
-2617 2618 0
2617 -2618 0
2618 -39 -2619 0
-2618 39 0
-2618 2619 0
-2619 2620 0
2619 -2620 0
2620 9917 -9918 0
2620 9916 -9918 0
-2620 9918 0
-2620 -9916 -9917 0
-2621 23 2622 0
-2621 2622 2966 0
-2621 23 2966 0
2621 -23 -2966 0
2621 -2622 -2966 0
2621 -23 -2622 0
-2622 23 2623 0
-2622 2623 2958 0
-2622 23 2958 0
2622 -23 -2958 0
2622 -2623 -2958 0
2622 -23 -2623 0
-2623 2624 2626 0
-2623 2626 2950 0
-2623 2624 2950 0
2623 -2624 -2950 0
2623 -2626 -2950 0
2623 -2624 -2626 0
-2624 2267 2625 0
-2624 -2267 -2625 0
2624 -2267 2625 0
2624 2267 -2625 0
-2625 25 2611 0
-2625 -25 -2611 0
2625 -25 2611 0
2625 25 -2611 0
-2626 2627 2629 0
-2626 2629 2942 0
-2626 2627 2942 0
2626 -2627 -2942 0
2626 -2629 -2942 0
2626 -2627 -2629 0
-2627 2268 2628 0
-2627 -2268 -2628 0
2627 -2268 2628 0
2627 2268 -2628 0
-2628 25 2603 0
-2628 -25 -2603 0
2628 -25 2603 0
2628 25 -2603 0
-2629 2630 2632 0
-2629 2632 2934 0
-2629 2630 2934 0
2629 -2630 -2934 0
2629 -2632 -2934 0
2629 -2630 -2632 0
-2630 2271 2631 0
-2630 -2271 -2631 0
2630 -2271 2631 0
2630 2271 -2631 0
-2631 2269 2595 0
-2631 -2269 -2595 0
2631 -2269 2595 0
2631 2269 -2595 0
-2632 2633 2635 0
-2632 2635 2926 0
-2632 2633 2926 0
2632 -2633 -2926 0
2632 -2635 -2926 0
2632 -2633 -2635 0
-2633 2274 2634 0
-2633 -2274 -2634 0
2633 -2274 2634 0
2633 2274 -2634 0
-2634 2272 2587 0
-2634 -2272 -2587 0
2634 -2272 2587 0
2634 2272 -2587 0
-2635 2636 2638 0
-2635 2638 2918 0
-2635 2636 2918 0
2635 -2636 -2918 0
2635 -2638 -2918 0
2635 -2636 -2638 0
-2636 2277 2637 0
-2636 -2277 -2637 0
2636 -2277 2637 0
2636 2277 -2637 0
-2637 2275 2579 0
-2637 -2275 -2579 0
2637 -2275 2579 0
2637 2275 -2579 0
-2638 2639 2641 0
-2638 2641 2910 0
-2638 2639 2910 0
2638 -2639 -2910 0
2638 -2641 -2910 0
2638 -2639 -2641 0
-2639 2280 2640 0
-2639 -2280 -2640 0
2639 -2280 2640 0
2639 2280 -2640 0
-2640 2278 2571 0
-2640 -2278 -2571 0
2640 -2278 2571 0
2640 2278 -2571 0
-2641 2642 2644 0
-2641 2644 2902 0
-2641 2642 2902 0
2641 -2642 -2902 0
2641 -2644 -2902 0
2641 -2642 -2644 0
-2642 2283 2643 0
-2642 -2283 -2643 0
2642 -2283 2643 0
2642 2283 -2643 0
-2643 2281 2563 0
-2643 -2281 -2563 0
2643 -2281 2563 0
2643 2281 -2563 0
-2644 2645 2647 0
-2644 2647 2894 0
-2644 2645 2894 0
2644 -2645 -2894 0
2644 -2647 -2894 0
2644 -2645 -2647 0
-2645 2286 2646 0
-2645 -2286 -2646 0
2645 -2286 2646 0
2645 2286 -2646 0
-2646 2284 2555 0
-2646 -2284 -2555 0
2646 -2284 2555 0
2646 2284 -2555 0
-2647 2648 2650 0
-2647 2650 2886 0
-2647 2648 2886 0
2647 -2648 -2886 0
2647 -2650 -2886 0
2647 -2648 -2650 0
-2648 2289 2649 0
-2648 -2289 -2649 0
2648 -2289 2649 0
2648 2289 -2649 0
-2649 2287 2547 0
-2649 -2287 -2547 0
2649 -2287 2547 0
2649 2287 -2547 0
-2650 2651 2653 0
-2650 2653 2878 0
-2650 2651 2878 0
2650 -2651 -2878 0
2650 -2653 -2878 0
2650 -2651 -2653 0
-2651 2292 2652 0
-2651 -2292 -2652 0
2651 -2292 2652 0
2651 2292 -2652 0
-2652 2290 2539 0
-2652 -2290 -2539 0
2652 -2290 2539 0
2652 2290 -2539 0
-2653 2654 2656 0
-2653 2656 2870 0
-2653 2654 2870 0
2653 -2654 -2870 0
2653 -2656 -2870 0
2653 -2654 -2656 0
-2654 2295 2655 0
-2654 -2295 -2655 0
2654 -2295 2655 0
2654 2295 -2655 0
-2655 2293 2531 0
-2655 -2293 -2531 0
2655 -2293 2531 0
2655 2293 -2531 0
-2656 2657 2659 0
-2656 2659 2862 0
-2656 2657 2862 0
2656 -2657 -2862 0
2656 -2659 -2862 0
2656 -2657 -2659 0
-2657 2298 2658 0
-2657 -2298 -2658 0
2657 -2298 2658 0
2657 2298 -2658 0
-2658 2296 2523 0
-2658 -2296 -2523 0
2658 -2296 2523 0
2658 2296 -2523 0
-2659 2660 2662 0
-2659 2662 2854 0
-2659 2660 2854 0
2659 -2660 -2854 0
2659 -2662 -2854 0
2659 -2660 -2662 0
-2660 2301 2661 0
-2660 -2301 -2661 0
2660 -2301 2661 0
2660 2301 -2661 0
-2661 2299 2515 0
-2661 -2299 -2515 0
2661 -2299 2515 0
2661 2299 -2515 0
-2662 2663 2665 0
-2662 2665 2846 0
-2662 2663 2846 0
2662 -2663 -2846 0
2662 -2665 -2846 0
2662 -2663 -2665 0
-2663 2304 2664 0
-2663 -2304 -2664 0
2663 -2304 2664 0
2663 2304 -2664 0
-2664 2302 2507 0
-2664 -2302 -2507 0
2664 -2302 2507 0
2664 2302 -2507 0
-2665 2666 2668 0
-2665 2668 2838 0
-2665 2666 2838 0
2665 -2666 -2838 0
2665 -2668 -2838 0
2665 -2666 -2668 0
-2666 2307 2667 0
-2666 -2307 -2667 0
2666 -2307 2667 0
2666 2307 -2667 0
-2667 2305 2499 0
-2667 -2305 -2499 0
2667 -2305 2499 0
2667 2305 -2499 0
-2668 2669 2671 0
-2668 2671 2830 0
-2668 2669 2830 0
2668 -2669 -2830 0
2668 -2671 -2830 0
2668 -2669 -2671 0
-2669 2310 2670 0
-2669 -2310 -2670 0
2669 -2310 2670 0
2669 2310 -2670 0
-2670 2308 2491 0
-2670 -2308 -2491 0
2670 -2308 2491 0
2670 2308 -2491 0
-2671 2672 2674 0
-2671 2674 2822 0
-2671 2672 2822 0
2671 -2672 -2822 0
2671 -2674 -2822 0
2671 -2672 -2674 0
-2672 2313 2673 0
-2672 -2313 -2673 0
2672 -2313 2673 0
2672 2313 -2673 0
-2673 2311 2483 0
-2673 -2311 -2483 0
2673 -2311 2483 0
2673 2311 -2483 0
-2674 2675 2677 0
-2674 2677 2814 0
-2674 2675 2814 0
2674 -2675 -2814 0
2674 -2677 -2814 0
2674 -2675 -2677 0
-2675 2316 2676 0
-2675 -2316 -2676 0
2675 -2316 2676 0
2675 2316 -2676 0
-2676 2314 2475 0
-2676 -2314 -2475 0
2676 -2314 2475 0
2676 2314 -2475 0
-2677 2678 2680 0
-2677 2680 2806 0
-2677 2678 2806 0
2677 -2678 -2806 0
2677 -2680 -2806 0
2677 -2678 -2680 0
-2678 2319 2679 0
-2678 -2319 -2679 0
2678 -2319 2679 0
2678 2319 -2679 0
-2679 2317 2467 0
-2679 -2317 -2467 0
2679 -2317 2467 0
2679 2317 -2467 0
-2680 2681 2683 0
-2680 2683 2798 0
-2680 2681 2798 0
2680 -2681 -2798 0
2680 -2683 -2798 0
2680 -2681 -2683 0
-2681 2322 2682 0
-2681 -2322 -2682 0
2681 -2322 2682 0
2681 2322 -2682 0
-2682 2320 2459 0
-2682 -2320 -2459 0
2682 -2320 2459 0
2682 2320 -2459 0
-2683 2684 2686 0
-2683 2686 2790 0
-2683 2684 2790 0
2683 -2684 -2790 0
2683 -2686 -2790 0
2683 -2684 -2686 0
-2684 2325 2685 0
-2684 -2325 -2685 0
2684 -2325 2685 0
2684 2325 -2685 0
-2685 2323 2451 0
-2685 -2323 -2451 0
2685 -2323 2451 0
2685 2323 -2451 0
-2686 2687 2689 0
-2686 2689 2782 0
-2686 2687 2782 0
2686 -2687 -2782 0
2686 -2689 -2782 0
2686 -2687 -2689 0
-2687 2328 2688 0
-2687 -2328 -2688 0
2687 -2328 2688 0
2687 2328 -2688 0
-2688 2326 2443 0
-2688 -2326 -2443 0
2688 -2326 2443 0
2688 2326 -2443 0
-2689 2690 2692 0
-2689 2692 2774 0
-2689 2690 2774 0
2689 -2690 -2774 0
2689 -2692 -2774 0
2689 -2690 -2692 0
-2690 2331 2691 0
-2690 -2331 -2691 0
2690 -2331 2691 0
2690 2331 -2691 0
-2691 2329 2435 0
-2691 -2329 -2435 0
2691 -2329 2435 0
2691 2329 -2435 0
-2692 2693 2695 0
-2692 2695 2766 0
-2692 2693 2766 0
2692 -2693 -2766 0
2692 -2695 -2766 0
2692 -2693 -2695 0
-2693 2334 2694 0
-2693 -2334 -2694 0
2693 -2334 2694 0
2693 2334 -2694 0
-2694 2332 2427 0
-2694 -2332 -2427 0
2694 -2332 2427 0
2694 2332 -2427 0
-2695 2696 2698 0
-2695 2698 2758 0
-2695 2696 2758 0
2695 -2696 -2758 0
2695 -2698 -2758 0
2695 -2696 -2698 0
-2696 2337 2697 0
-2696 -2337 -2697 0
2696 -2337 2697 0
2696 2337 -2697 0
-2697 2335 2419 0
-2697 -2335 -2419 0
2697 -2335 2419 0
2697 2335 -2419 0
-2698 2699 2701 0
-2698 2701 2750 0
-2698 2699 2750 0
2698 -2699 -2750 0
2698 -2701 -2750 0
2698 -2699 -2701 0
-2699 2340 2700 0
-2699 -2340 -2700 0
2699 -2340 2700 0
2699 2340 -2700 0
-2700 2338 2411 0
-2700 -2338 -2411 0
2700 -2338 2411 0
2700 2338 -2411 0
-2701 2702 2704 0
-2701 2704 2742 0
-2701 2702 2742 0
2701 -2702 -2742 0
2701 -2704 -2742 0
2701 -2702 -2704 0
-2702 2343 2703 0
-2702 -2343 -2703 0
2702 -2343 2703 0
2702 2343 -2703 0
-2703 2341 2403 0
-2703 -2341 -2403 0
2703 -2341 2403 0
2703 2341 -2403 0
-2704 2705 2707 0
-2704 2707 2734 0
-2704 2705 2734 0
2704 -2705 -2734 0
2704 -2707 -2734 0
2704 -2705 -2707 0
-2705 2346 2706 0
-2705 -2346 -2706 0
2705 -2346 2706 0
2705 2346 -2706 0
-2706 2344 2395 0
-2706 -2344 -2395 0
2706 -2344 2395 0
2706 2344 -2395 0
-2707 2708 2710 0
-2707 2710 2726 0
-2707 2708 2726 0
2707 -2708 -2726 0
2707 -2710 -2726 0
2707 -2708 -2710 0
-2708 2349 2709 0
-2708 -2349 -2709 0
2708 -2349 2709 0
2708 2349 -2709 0
-2709 2347 2387 0
-2709 -2347 -2387 0
2709 -2347 2387 0
2709 2347 -2387 0
-2710 2711 2718 0
-2710 2711 2713 0
-2710 2713 2718 0
2710 -2713 -2718 0
2710 -2711 -2718 0
2710 -2711 -2713 0
-2711 2352 2712 0
-2711 -2352 -2712 0
2711 -2352 2712 0
2711 2352 -2712 0
-2712 2350 2379 0
-2712 -2350 -2379 0
2712 -2350 2379 0
2712 2350 -2379 0
2713 -2714 -2716 0
-2713 2714 0
-2713 2716 0
2714 -9869 -2715 0
-2714 9869 0
-2714 2715 0
-2715 -9916 -9917 0
-2715 9916 9917 0
2715 9916 -9917 0
2715 -9916 9917 0
-2716 2355 2717 0
-2716 -2355 -2717 0
2716 -2355 2717 0
2716 2355 -2717 0
-2717 2353 2371 0
-2717 -2353 -2371 0
2717 -2353 2371 0
2717 2353 -2371 0
-2718 -2719 -2724 0
-2718 2719 2724 0
2718 2719 -2724 0
2718 -2719 2724 0
-2719 2619 2720 0
-2719 -2619 -2720 0
2719 -2619 2720 0
2719 2619 -2720 0
-2720 -2721 -2722 0
-2720 2721 2722 0
2720 2721 -2722 0
2720 -2721 2722 0
2721 -9870 -2715 0
-2721 9870 0
-2721 2715 0
2722 -9869 -2723 0
-2722 9869 0
-2722 2723 0
-2723 -9916 -9918 0
-2723 9917 9918 0
-2723 9916 -9917 0
2723 -9916 -9917 9918 0
2723 9916 9917 -9918 0
2724 -2619 2723 -2725 0
2724 -2619 -2723 2725 0
-2724 2619 0
-2724 2723 2725 0
-2724 -2723 -2725 0
2725 9869 -2715 0
-2725 -9869 0
-2725 2715 0
-2726 -2727 -2731 0
-2726 2727 2731 0
2726 2727 -2731 0
2726 -2727 2731 0
-2727 2619 2728 0
-2727 -2619 -2728 0
2727 -2619 2728 0
2727 2619 -2728 0
-2728 -2729 -2730 0
-2728 2729 2730 0
2728 2729 -2730 0
2728 -2729 2730 0
2729 -9871 -2715 0
-2729 9871 0
-2729 2715 0
2730 -9870 -2723 0
-2730 9870 0
-2730 2723 0
2731 -2619 -2732 2733 0
2731 -2619 2732 -2733 0
-2731 2619 0
-2731 -2732 -2733 0
-2731 2732 2733 0
2732 69 -2715 0
-2732 -69 0
-2732 2715 0
2733 9869 -2723 0
-2733 -9869 0
-2733 2723 0
-2734 -2735 -2739 0
-2734 2735 2739 0
2734 2735 -2739 0
2734 -2735 2739 0
-2735 2619 2736 0
-2735 -2619 -2736 0
2735 -2619 2736 0
2735 2619 -2736 0
-2736 -2737 -2738 0
-2736 2737 2738 0
2736 2737 -2738 0
2736 -2737 2738 0
2737 -9872 -2715 0
-2737 9872 0
-2737 2715 0
2738 -9871 -2723 0
-2738 9871 0
-2738 2723 0
2739 -2619 -2740 2741 0
2739 -2619 2740 -2741 0
-2739 2619 0
-2739 -2740 -2741 0
-2739 2740 2741 0
2740 68 -2715 0
-2740 -68 0
-2740 2715 0
2741 69 -2723 0
-2741 -69 0
-2741 2723 0
-2742 -2743 -2747 0
-2742 2743 2747 0
2742 2743 -2747 0
2742 -2743 2747 0
-2743 2619 2744 0
-2743 -2619 -2744 0
2743 -2619 2744 0
2743 2619 -2744 0
-2744 -2745 -2746 0
-2744 2745 2746 0
2744 2745 -2746 0
2744 -2745 2746 0
2745 -9873 -2715 0
-2745 9873 0
-2745 2715 0
2746 -9872 -2723 0
-2746 9872 0
-2746 2723 0
2747 -2619 -2748 2749 0
2747 -2619 2748 -2749 0
-2747 2619 0
-2747 -2748 -2749 0
-2747 2748 2749 0
2748 67 -2715 0
-2748 -67 0
-2748 2715 0
2749 68 -2723 0
-2749 -68 0
-2749 2723 0
-2750 -2751 -2755 0
-2750 2751 2755 0
2750 2751 -2755 0
2750 -2751 2755 0
-2751 2619 2752 0
-2751 -2619 -2752 0
2751 -2619 2752 0
2751 2619 -2752 0
-2752 -2753 -2754 0
-2752 2753 2754 0
2752 2753 -2754 0
2752 -2753 2754 0
2753 -9874 -2715 0
-2753 9874 0
-2753 2715 0
2754 -9873 -2723 0
-2754 9873 0
-2754 2723 0
2755 -2619 -2756 2757 0
2755 -2619 2756 -2757 0
-2755 2619 0
-2755 -2756 -2757 0
-2755 2756 2757 0
2756 66 -2715 0
-2756 -66 0
-2756 2715 0
2757 67 -2723 0
-2757 -67 0
-2757 2723 0
-2758 -2759 -2763 0
-2758 2759 2763 0
2758 2759 -2763 0
2758 -2759 2763 0
-2759 2619 2760 0
-2759 -2619 -2760 0
2759 -2619 2760 0
2759 2619 -2760 0
-2760 -2761 -2762 0
-2760 2761 2762 0
2760 2761 -2762 0
2760 -2761 2762 0
2761 -9875 -2715 0
-2761 9875 0
-2761 2715 0
2762 -9874 -2723 0
-2762 9874 0
-2762 2723 0
2763 -2619 -2764 2765 0
2763 -2619 2764 -2765 0
-2763 2619 0
-2763 -2764 -2765 0
-2763 2764 2765 0
2764 65 -2715 0
-2764 -65 0
-2764 2715 0
2765 66 -2723 0
-2765 -66 0
-2765 2723 0
-2766 -2767 -2771 0
-2766 2767 2771 0
2766 2767 -2771 0
2766 -2767 2771 0
-2767 2619 2768 0
-2767 -2619 -2768 0
2767 -2619 2768 0
2767 2619 -2768 0
-2768 -2769 -2770 0
-2768 2769 2770 0
2768 2769 -2770 0
2768 -2769 2770 0
2769 -9876 -2715 0
-2769 9876 0
-2769 2715 0
2770 -9875 -2723 0
-2770 9875 0
-2770 2723 0
2771 -2619 -2772 2773 0
2771 -2619 2772 -2773 0
-2771 2619 0
-2771 -2772 -2773 0
-2771 2772 2773 0
2772 64 -2715 0
-2772 -64 0
-2772 2715 0
2773 65 -2723 0
-2773 -65 0
-2773 2723 0
-2774 -2775 -2779 0
-2774 2775 2779 0
2774 2775 -2779 0
2774 -2775 2779 0
-2775 2619 2776 0
-2775 -2619 -2776 0
2775 -2619 2776 0
2775 2619 -2776 0
-2776 -2777 -2778 0
-2776 2777 2778 0
2776 2777 -2778 0
2776 -2777 2778 0
2777 -9877 -2715 0
-2777 9877 0
-2777 2715 0
2778 -9876 -2723 0
-2778 9876 0
-2778 2723 0
2779 -2619 -2780 2781 0
2779 -2619 2780 -2781 0
-2779 2619 0
-2779 -2780 -2781 0
-2779 2780 2781 0
2780 63 -2715 0
-2780 -63 0
-2780 2715 0
2781 64 -2723 0
-2781 -64 0
-2781 2723 0
-2782 -2783 -2787 0
-2782 2783 2787 0
2782 2783 -2787 0
2782 -2783 2787 0
-2783 2619 2784 0
-2783 -2619 -2784 0
2783 -2619 2784 0
2783 2619 -2784 0
-2784 -2785 -2786 0
-2784 2785 2786 0
2784 2785 -2786 0
2784 -2785 2786 0
2785 -9878 -2715 0
-2785 9878 0
-2785 2715 0
2786 -9877 -2723 0
-2786 9877 0
-2786 2723 0
2787 -2619 -2788 2789 0
2787 -2619 2788 -2789 0
-2787 2619 0
-2787 -2788 -2789 0
-2787 2788 2789 0
2788 62 -2715 0
-2788 -62 0
-2788 2715 0
2789 63 -2723 0
-2789 -63 0
-2789 2723 0
-2790 -2791 -2795 0
-2790 2791 2795 0
2790 2791 -2795 0
2790 -2791 2795 0
-2791 2619 2792 0
-2791 -2619 -2792 0
2791 -2619 2792 0
2791 2619 -2792 0
-2792 -2793 -2794 0
-2792 2793 2794 0
2792 2793 -2794 0
2792 -2793 2794 0
2793 -9879 -2715 0
-2793 9879 0
-2793 2715 0
2794 -9878 -2723 0
-2794 9878 0
-2794 2723 0
2795 -2619 -2796 2797 0
2795 -2619 2796 -2797 0
-2795 2619 0
-2795 -2796 -2797 0
-2795 2796 2797 0
2796 61 -2715 0
-2796 -61 0
-2796 2715 0
2797 62 -2723 0
-2797 -62 0
-2797 2723 0
-2798 -2799 -2803 0
-2798 2799 2803 0
2798 2799 -2803 0
2798 -2799 2803 0
-2799 2619 2800 0
-2799 -2619 -2800 0
2799 -2619 2800 0
2799 2619 -2800 0
-2800 -2801 -2802 0
-2800 2801 2802 0
2800 2801 -2802 0
2800 -2801 2802 0
2801 -9880 -2715 0
-2801 9880 0
-2801 2715 0
2802 -9879 -2723 0
-2802 9879 0
-2802 2723 0
2803 -2619 -2804 2805 0
2803 -2619 2804 -2805 0
-2803 2619 0
-2803 -2804 -2805 0
-2803 2804 2805 0
2804 60 -2715 0
-2804 -60 0
-2804 2715 0
2805 61 -2723 0
-2805 -61 0
-2805 2723 0
-2806 -2807 -2811 0
-2806 2807 2811 0
2806 2807 -2811 0
2806 -2807 2811 0
-2807 2619 2808 0
-2807 -2619 -2808 0
2807 -2619 2808 0
2807 2619 -2808 0
-2808 -2809 -2810 0
-2808 2809 2810 0
2808 2809 -2810 0
2808 -2809 2810 0
2809 -9881 -2715 0
-2809 9881 0
-2809 2715 0
2810 -9880 -2723 0
-2810 9880 0
-2810 2723 0
2811 -2619 -2812 2813 0
2811 -2619 2812 -2813 0
-2811 2619 0
-2811 -2812 -2813 0
-2811 2812 2813 0
2812 59 -2715 0
-2812 -59 0
-2812 2715 0
2813 60 -2723 0
-2813 -60 0
-2813 2723 0
-2814 -2815 -2819 0
-2814 2815 2819 0
2814 2815 -2819 0
2814 -2815 2819 0
-2815 2619 2816 0
-2815 -2619 -2816 0
2815 -2619 2816 0
2815 2619 -2816 0
-2816 -2817 -2818 0
-2816 2817 2818 0
2816 2817 -2818 0
2816 -2817 2818 0
2817 -9882 -2715 0
-2817 9882 0
-2817 2715 0
2818 -9881 -2723 0
-2818 9881 0
-2818 2723 0
2819 -2619 -2820 2821 0
2819 -2619 2820 -2821 0
-2819 2619 0
-2819 -2820 -2821 0
-2819 2820 2821 0
2820 58 -2715 0
-2820 -58 0
-2820 2715 0
2821 59 -2723 0
-2821 -59 0
-2821 2723 0
-2822 -2823 -2827 0
-2822 2823 2827 0
2822 2823 -2827 0
2822 -2823 2827 0
-2823 2619 2824 0
-2823 -2619 -2824 0
2823 -2619 2824 0
2823 2619 -2824 0
-2824 -2825 -2826 0
-2824 2825 2826 0
2824 2825 -2826 0
2824 -2825 2826 0
2825 -9883 -2715 0
-2825 9883 0
-2825 2715 0
2826 -9882 -2723 0
-2826 9882 0
-2826 2723 0
2827 -2619 -2828 2829 0
2827 -2619 2828 -2829 0
-2827 2619 0
-2827 -2828 -2829 0
-2827 2828 2829 0
2828 57 -2715 0
-2828 -57 0
-2828 2715 0
2829 58 -2723 0
-2829 -58 0
-2829 2723 0
-2830 -2831 -2835 0
-2830 2831 2835 0
2830 2831 -2835 0
2830 -2831 2835 0
-2831 2619 2832 0
-2831 -2619 -2832 0
2831 -2619 2832 0
2831 2619 -2832 0
-2832 -2833 -2834 0
-2832 2833 2834 0
2832 2833 -2834 0
2832 -2833 2834 0
2833 -9884 -2715 0
-2833 9884 0
-2833 2715 0
2834 -9883 -2723 0
-2834 9883 0
-2834 2723 0
2835 -2619 -2836 2837 0
2835 -2619 2836 -2837 0
-2835 2619 0
-2835 -2836 -2837 0
-2835 2836 2837 0
2836 56 -2715 0
-2836 -56 0
-2836 2715 0
2837 57 -2723 0
-2837 -57 0
-2837 2723 0
-2838 -2839 -2843 0
-2838 2839 2843 0
2838 2839 -2843 0
2838 -2839 2843 0
-2839 2619 2840 0
-2839 -2619 -2840 0
2839 -2619 2840 0
2839 2619 -2840 0
-2840 -2841 -2842 0
-2840 2841 2842 0
2840 2841 -2842 0
2840 -2841 2842 0
2841 -9885 -2715 0
-2841 9885 0
-2841 2715 0
2842 -9884 -2723 0
-2842 9884 0
-2842 2723 0
2843 -2619 -2844 2845 0
2843 -2619 2844 -2845 0
-2843 2619 0
-2843 -2844 -2845 0
-2843 2844 2845 0
2844 55 -2715 0
-2844 -55 0
-2844 2715 0
2845 56 -2723 0
-2845 -56 0
-2845 2723 0
-2846 -2847 -2851 0
-2846 2847 2851 0
2846 2847 -2851 0
2846 -2847 2851 0
-2847 2619 2848 0
-2847 -2619 -2848 0
2847 -2619 2848 0
2847 2619 -2848 0
-2848 -2849 -2850 0
-2848 2849 2850 0
2848 2849 -2850 0
2848 -2849 2850 0
2849 -9886 -2715 0
-2849 9886 0
-2849 2715 0
2850 -9885 -2723 0
-2850 9885 0
-2850 2723 0
2851 -2619 -2852 2853 0
2851 -2619 2852 -2853 0
-2851 2619 0
-2851 -2852 -2853 0
-2851 2852 2853 0
2852 54 -2715 0
-2852 -54 0
-2852 2715 0
2853 55 -2723 0
-2853 -55 0
-2853 2723 0
-2854 -2855 -2859 0
-2854 2855 2859 0
2854 2855 -2859 0
2854 -2855 2859 0
-2855 2619 2856 0
-2855 -2619 -2856 0
2855 -2619 2856 0
2855 2619 -2856 0
-2856 -2857 -2858 0
-2856 2857 2858 0
2856 2857 -2858 0
2856 -2857 2858 0
2857 -9887 -2715 0
-2857 9887 0
-2857 2715 0
2858 -9886 -2723 0
-2858 9886 0
-2858 2723 0
2859 -2619 -2860 2861 0
2859 -2619 2860 -2861 0
-2859 2619 0
-2859 -2860 -2861 0
-2859 2860 2861 0
2860 53 -2715 0
-2860 -53 0
-2860 2715 0
2861 54 -2723 0
-2861 -54 0
-2861 2723 0
-2862 -2863 -2867 0
-2862 2863 2867 0
2862 2863 -2867 0
2862 -2863 2867 0
-2863 2619 2864 0
-2863 -2619 -2864 0
2863 -2619 2864 0
2863 2619 -2864 0
-2864 -2865 -2866 0
-2864 2865 2866 0
2864 2865 -2866 0
2864 -2865 2866 0
2865 -9888 -2715 0
-2865 9888 0
-2865 2715 0
2866 -9887 -2723 0
-2866 9887 0
-2866 2723 0
2867 -2619 -2868 2869 0
2867 -2619 2868 -2869 0
-2867 2619 0
-2867 -2868 -2869 0
-2867 2868 2869 0
2868 52 -2715 0
-2868 -52 0
-2868 2715 0
2869 53 -2723 0
-2869 -53 0
-2869 2723 0
-2870 -2871 -2875 0
-2870 2871 2875 0
2870 2871 -2875 0
2870 -2871 2875 0
-2871 2619 2872 0
-2871 -2619 -2872 0
2871 -2619 2872 0
2871 2619 -2872 0
-2872 -2873 -2874 0
-2872 2873 2874 0
2872 2873 -2874 0
2872 -2873 2874 0
2873 -9889 -2715 0
-2873 9889 0
-2873 2715 0
2874 -9888 -2723 0
-2874 9888 0
-2874 2723 0
2875 -2619 -2876 2877 0
2875 -2619 2876 -2877 0
-2875 2619 0
-2875 -2876 -2877 0
-2875 2876 2877 0
2876 51 -2715 0
-2876 -51 0
-2876 2715 0
2877 52 -2723 0
-2877 -52 0
-2877 2723 0
-2878 -2879 -2883 0
-2878 2879 2883 0
2878 2879 -2883 0
2878 -2879 2883 0
-2879 2619 2880 0
-2879 -2619 -2880 0
2879 -2619 2880 0
2879 2619 -2880 0
-2880 -2881 -2882 0
-2880 2881 2882 0
2880 2881 -2882 0
2880 -2881 2882 0
2881 -9890 -2715 0
-2881 9890 0
-2881 2715 0
2882 -9889 -2723 0
-2882 9889 0
-2882 2723 0
2883 -2619 -2884 2885 0
2883 -2619 2884 -2885 0
-2883 2619 0
-2883 -2884 -2885 0
-2883 2884 2885 0
2884 50 -2715 0
-2884 -50 0
-2884 2715 0
2885 51 -2723 0
-2885 -51 0
-2885 2723 0
-2886 -2887 -2891 0
-2886 2887 2891 0
2886 2887 -2891 0
2886 -2887 2891 0
-2887 2619 2888 0
-2887 -2619 -2888 0
2887 -2619 2888 0
2887 2619 -2888 0
-2888 -2889 -2890 0
-2888 2889 2890 0
2888 2889 -2890 0
2888 -2889 2890 0
2889 -9891 -2715 0
-2889 9891 0
-2889 2715 0
2890 -9890 -2723 0
-2890 9890 0
-2890 2723 0
2891 -2619 -2892 2893 0
2891 -2619 2892 -2893 0
-2891 2619 0
-2891 -2892 -2893 0
-2891 2892 2893 0
2892 49 -2715 0
-2892 -49 0
-2892 2715 0
2893 50 -2723 0
-2893 -50 0
-2893 2723 0
-2894 -2895 -2899 0
-2894 2895 2899 0
2894 2895 -2899 0
2894 -2895 2899 0
-2895 2619 2896 0
-2895 -2619 -2896 0
2895 -2619 2896 0
2895 2619 -2896 0
-2896 -2897 -2898 0
-2896 2897 2898 0
2896 2897 -2898 0
2896 -2897 2898 0
2897 -9892 -2715 0
-2897 9892 0
-2897 2715 0
2898 -9891 -2723 0
-2898 9891 0
-2898 2723 0
2899 -2619 -2900 2901 0
2899 -2619 2900 -2901 0
-2899 2619 0
-2899 -2900 -2901 0
-2899 2900 2901 0
2900 48 -2715 0
-2900 -48 0
-2900 2715 0
2901 49 -2723 0
-2901 -49 0
-2901 2723 0
-2902 -2903 -2907 0
-2902 2903 2907 0
2902 2903 -2907 0
2902 -2903 2907 0
-2903 2619 2904 0
-2903 -2619 -2904 0
2903 -2619 2904 0
2903 2619 -2904 0
-2904 -2905 -2906 0
-2904 2905 2906 0
2904 2905 -2906 0
2904 -2905 2906 0
2905 -9893 -2715 0
-2905 9893 0
-2905 2715 0
2906 -9892 -2723 0
-2906 9892 0
-2906 2723 0
2907 -2619 -2908 2909 0
2907 -2619 2908 -2909 0
-2907 2619 0
-2907 -2908 -2909 0
-2907 2908 2909 0
2908 47 -2715 0
-2908 -47 0
-2908 2715 0
2909 48 -2723 0
-2909 -48 0
-2909 2723 0
-2910 -2911 -2915 0
-2910 2911 2915 0
2910 2911 -2915 0
2910 -2911 2915 0
-2911 2619 2912 0
-2911 -2619 -2912 0
2911 -2619 2912 0
2911 2619 -2912 0
-2912 -2913 -2914 0
-2912 2913 2914 0
2912 2913 -2914 0
2912 -2913 2914 0
2913 -9894 -2715 0
-2913 9894 0
-2913 2715 0
2914 -9893 -2723 0
-2914 9893 0
-2914 2723 0
2915 -2619 -2916 2917 0
2915 -2619 2916 -2917 0
-2915 2619 0
-2915 -2916 -2917 0
-2915 2916 2917 0
2916 46 -2715 0
-2916 -46 0
-2916 2715 0
2917 47 -2723 0
-2917 -47 0
-2917 2723 0
-2918 -2919 -2923 0
-2918 2919 2923 0
2918 2919 -2923 0
2918 -2919 2923 0
-2919 2619 2920 0
-2919 -2619 -2920 0
2919 -2619 2920 0
2919 2619 -2920 0
-2920 -2921 -2922 0
-2920 2921 2922 0
2920 2921 -2922 0
2920 -2921 2922 0
2921 -9895 -2715 0
-2921 9895 0
-2921 2715 0
2922 -9894 -2723 0
-2922 9894 0
-2922 2723 0
2923 -2619 -2924 2925 0
2923 -2619 2924 -2925 0
-2923 2619 0
-2923 -2924 -2925 0
-2923 2924 2925 0
2924 45 -2715 0
-2924 -45 0
-2924 2715 0
2925 46 -2723 0
-2925 -46 0
-2925 2723 0
-2926 -2927 -2931 0
-2926 2927 2931 0
2926 2927 -2931 0
2926 -2927 2931 0
-2927 2619 2928 0
-2927 -2619 -2928 0
2927 -2619 2928 0
2927 2619 -2928 0
-2928 -2929 -2930 0
-2928 2929 2930 0
2928 2929 -2930 0
2928 -2929 2930 0
2929 -9896 -2715 0
-2929 9896 0
-2929 2715 0
2930 -9895 -2723 0
-2930 9895 0
-2930 2723 0
2931 -2619 -2932 2933 0
2931 -2619 2932 -2933 0
-2931 2619 0
-2931 -2932 -2933 0
-2931 2932 2933 0
2932 44 -2715 0
-2932 -44 0
-2932 2715 0
2933 45 -2723 0
-2933 -45 0
-2933 2723 0
-2934 -2935 -2939 0
-2934 2935 2939 0
2934 2935 -2939 0
2934 -2935 2939 0
-2935 2619 2936 0
-2935 -2619 -2936 0
2935 -2619 2936 0
2935 2619 -2936 0
-2936 -2937 -2938 0
-2936 2937 2938 0
2936 2937 -2938 0
2936 -2937 2938 0
2937 -9897 -2715 0
-2937 9897 0
-2937 2715 0
2938 -9896 -2723 0
-2938 9896 0
-2938 2723 0
2939 -2619 -2940 2941 0
2939 -2619 2940 -2941 0
-2939 2619 0
-2939 -2940 -2941 0
-2939 2940 2941 0
2940 43 -2715 0
-2940 -43 0
-2940 2715 0
2941 44 -2723 0
-2941 -44 0
-2941 2723 0
-2942 -2943 -2947 0
-2942 2943 2947 0
2942 2943 -2947 0
2942 -2943 2947 0
-2943 2619 2944 0
-2943 -2619 -2944 0
2943 -2619 2944 0
2943 2619 -2944 0
-2944 -2945 -2946 0
-2944 2945 2946 0
2944 2945 -2946 0
2944 -2945 2946 0
2945 -9898 -2715 0
-2945 9898 0
-2945 2715 0
2946 -9897 -2723 0
-2946 9897 0
-2946 2723 0
2947 -2619 -2948 2949 0
2947 -2619 2948 -2949 0
-2947 2619 0
-2947 -2948 -2949 0
-2947 2948 2949 0
2948 42 -2715 0
-2948 -42 0
-2948 2715 0
2949 43 -2723 0
-2949 -43 0
-2949 2723 0
-2950 -2951 -2955 0
-2950 2951 2955 0
2950 2951 -2955 0
2950 -2951 2955 0
-2951 2619 2952 0
-2951 -2619 -2952 0
2951 -2619 2952 0
2951 2619 -2952 0
-2952 -2953 -2954 0
-2952 2953 2954 0
2952 2953 -2954 0
2952 -2953 2954 0
2953 -9899 -2715 0
-2953 9899 0
-2953 2715 0
2954 -9898 -2723 0
-2954 9898 0
-2954 2723 0
2955 -2619 -2956 2957 0
2955 -2619 2956 -2957 0
-2955 2619 0
-2955 -2956 -2957 0
-2955 2956 2957 0
2956 41 -2715 0
-2956 -41 0
-2956 2715 0
2957 42 -2723 0
-2957 -42 0
-2957 2723 0
-2958 -2959 -2963 0
-2958 2959 2963 0
2958 2959 -2963 0
2958 -2959 2963 0
-2959 2619 2960 0
-2959 -2619 -2960 0
2959 -2619 2960 0
2959 2619 -2960 0
-2960 -2961 -2962 0
-2960 2961 2962 0
2960 2961 -2962 0
2960 -2961 2962 0
2961 -9900 -2715 0
-2961 9900 0
-2961 2715 0
2962 -9899 -2723 0
-2962 9899 0
-2962 2723 0
2963 -2619 -2964 2965 0
2963 -2619 2964 -2965 0
-2963 2619 0
-2963 -2964 -2965 0
-2963 2964 2965 0
2964 40 -2715 0
-2964 -40 0
-2964 2715 0
2965 41 -2723 0
-2965 -41 0
-2965 2723 0
-2966 -2967 -2969 0
-2966 2967 2969 0
2966 2967 -2969 0
2966 -2967 2969 0
-2967 -2619 -2968 0
-2967 2619 2968 0
2967 2619 -2968 0
2967 -2619 2968 0
2968 -9900 -2723 0
-2968 9900 0
-2968 2723 0
2969 -2619 -2970 2971 0
2969 -2619 2970 -2971 0
-2969 2619 0
-2969 -2970 -2971 0
-2969 2970 2971 0
2970 39 -2715 0
-2970 -39 0
-2970 2715 0
2971 40 -2723 0
-2971 -40 0
-2971 2723 0
-2972 2973 0
2972 -2973 0
2973 -39 -2974 0
-2973 39 0
-2973 2974 0
-2974 2975 0
2974 -2975 0
2975 9919 -9920 0
2975 9918 -9920 0
-2975 9920 0
-2975 -9918 -9919 0
-2976 21 2977 0
-2976 2977 3321 0
-2976 21 3321 0
2976 -21 -3321 0
2976 -2977 -3321 0
2976 -21 -2977 0
-2977 21 2978 0
-2977 2978 3313 0
-2977 21 3313 0
2977 -21 -3313 0
2977 -2978 -3313 0
2977 -21 -2978 0
-2978 2979 2981 0
-2978 2981 3305 0
-2978 2979 3305 0
2978 -2979 -3305 0
2978 -2981 -3305 0
2978 -2979 -2981 0
-2979 2622 2980 0
-2979 -2622 -2980 0
2979 -2622 2980 0
2979 2622 -2980 0
-2980 23 2966 0
-2980 -23 -2966 0
2980 -23 2966 0
2980 23 -2966 0
-2981 2982 2984 0
-2981 2984 3297 0
-2981 2982 3297 0
2981 -2982 -3297 0
2981 -2984 -3297 0
2981 -2982 -2984 0
-2982 2623 2983 0
-2982 -2623 -2983 0
2982 -2623 2983 0
2982 2623 -2983 0
-2983 23 2958 0
-2983 -23 -2958 0
2983 -23 2958 0
2983 23 -2958 0
-2984 2985 2987 0
-2984 2987 3289 0
-2984 2985 3289 0
2984 -2985 -3289 0
2984 -2987 -3289 0
2984 -2985 -2987 0
-2985 2626 2986 0
-2985 -2626 -2986 0
2985 -2626 2986 0
2985 2626 -2986 0
-2986 2624 2950 0
-2986 -2624 -2950 0
2986 -2624 2950 0
2986 2624 -2950 0
-2987 2988 2990 0
-2987 2990 3281 0
-2987 2988 3281 0
2987 -2988 -3281 0
2987 -2990 -3281 0
2987 -2988 -2990 0
-2988 2629 2989 0
-2988 -2629 -2989 0
2988 -2629 2989 0
2988 2629 -2989 0
-2989 2627 2942 0
-2989 -2627 -2942 0
2989 -2627 2942 0
2989 2627 -2942 0
-2990 2991 2993 0
-2990 2993 3273 0
-2990 2991 3273 0
2990 -2991 -3273 0
2990 -2993 -3273 0
2990 -2991 -2993 0
-2991 2632 2992 0
-2991 -2632 -2992 0
2991 -2632 2992 0
2991 2632 -2992 0
-2992 2630 2934 0
-2992 -2630 -2934 0
2992 -2630 2934 0
2992 2630 -2934 0
-2993 2994 2996 0
-2993 2996 3265 0
-2993 2994 3265 0
2993 -2994 -3265 0
2993 -2996 -3265 0
2993 -2994 -2996 0
-2994 2635 2995 0
-2994 -2635 -2995 0
2994 -2635 2995 0
2994 2635 -2995 0
-2995 2633 2926 0
-2995 -2633 -2926 0
2995 -2633 2926 0
2995 2633 -2926 0
-2996 2997 2999 0
-2996 2999 3257 0
-2996 2997 3257 0
2996 -2997 -3257 0
2996 -2999 -3257 0
2996 -2997 -2999 0
-2997 2638 2998 0
-2997 -2638 -2998 0
2997 -2638 2998 0
2997 2638 -2998 0
-2998 2636 2918 0
-2998 -2636 -2918 0
2998 -2636 2918 0
2998 2636 -2918 0
-2999 3000 3002 0
-2999 3002 3249 0
-2999 3000 3249 0
2999 -3000 -3249 0
2999 -3002 -3249 0
2999 -3000 -3002 0
-3000 2641 3001 0
-3000 -2641 -3001 0
3000 -2641 3001 0
3000 2641 -3001 0
-3001 2639 2910 0
-3001 -2639 -2910 0
3001 -2639 2910 0
3001 2639 -2910 0
-3002 3003 3005 0
-3002 3005 3241 0
-3002 3003 3241 0
3002 -3003 -3241 0
3002 -3005 -3241 0
3002 -3003 -3005 0
-3003 2644 3004 0
-3003 -2644 -3004 0
3003 -2644 3004 0
3003 2644 -3004 0
-3004 2642 2902 0
-3004 -2642 -2902 0
3004 -2642 2902 0
3004 2642 -2902 0
-3005 3006 3008 0
-3005 3008 3233 0
-3005 3006 3233 0
3005 -3006 -3233 0
3005 -3008 -3233 0
3005 -3006 -3008 0
-3006 2647 3007 0
-3006 -2647 -3007 0
3006 -2647 3007 0
3006 2647 -3007 0
-3007 2645 2894 0
-3007 -2645 -2894 0
3007 -2645 2894 0
3007 2645 -2894 0
-3008 3009 3011 0
-3008 3011 3225 0
-3008 3009 3225 0
3008 -3009 -3225 0
3008 -3011 -3225 0
3008 -3009 -3011 0
-3009 2650 3010 0
-3009 -2650 -3010 0
3009 -2650 3010 0
3009 2650 -3010 0
-3010 2648 2886 0
-3010 -2648 -2886 0
3010 -2648 2886 0
3010 2648 -2886 0
-3011 3012 3014 0
-3011 3014 3217 0
-3011 3012 3217 0
3011 -3012 -3217 0
3011 -3014 -3217 0
3011 -3012 -3014 0
-3012 2653 3013 0
-3012 -2653 -3013 0
3012 -2653 3013 0
3012 2653 -3013 0
-3013 2651 2878 0
-3013 -2651 -2878 0
3013 -2651 2878 0
3013 2651 -2878 0
-3014 3015 3017 0
-3014 3017 3209 0
-3014 3015 3209 0
3014 -3015 -3209 0
3014 -3017 -3209 0
3014 -3015 -3017 0
-3015 2656 3016 0
-3015 -2656 -3016 0
3015 -2656 3016 0
3015 2656 -3016 0
-3016 2654 2870 0
-3016 -2654 -2870 0
3016 -2654 2870 0
3016 2654 -2870 0
-3017 3018 3020 0
-3017 3020 3201 0
-3017 3018 3201 0
3017 -3018 -3201 0
3017 -3020 -3201 0
3017 -3018 -3020 0
-3018 2659 3019 0
-3018 -2659 -3019 0
3018 -2659 3019 0
3018 2659 -3019 0
-3019 2657 2862 0
-3019 -2657 -2862 0
3019 -2657 2862 0
3019 2657 -2862 0
-3020 3021 3023 0
-3020 3023 3193 0
-3020 3021 3193 0
3020 -3021 -3193 0
3020 -3023 -3193 0
3020 -3021 -3023 0
-3021 2662 3022 0
-3021 -2662 -3022 0
3021 -2662 3022 0
3021 2662 -3022 0
-3022 2660 2854 0
-3022 -2660 -2854 0
3022 -2660 2854 0
3022 2660 -2854 0
-3023 3024 3026 0
-3023 3026 3185 0
-3023 3024 3185 0
3023 -3024 -3185 0
3023 -3026 -3185 0
3023 -3024 -3026 0
-3024 2665 3025 0
-3024 -2665 -3025 0
3024 -2665 3025 0
3024 2665 -3025 0
-3025 2663 2846 0
-3025 -2663 -2846 0
3025 -2663 2846 0
3025 2663 -2846 0
-3026 3027 3029 0
-3026 3029 3177 0
-3026 3027 3177 0
3026 -3027 -3177 0
3026 -3029 -3177 0
3026 -3027 -3029 0
-3027 2668 3028 0
-3027 -2668 -3028 0
3027 -2668 3028 0
3027 2668 -3028 0
-3028 2666 2838 0
-3028 -2666 -2838 0
3028 -2666 2838 0
3028 2666 -2838 0
-3029 3030 3032 0
-3029 3032 3169 0
-3029 3030 3169 0
3029 -3030 -3169 0
3029 -3032 -3169 0
3029 -3030 -3032 0
-3030 2671 3031 0
-3030 -2671 -3031 0
3030 -2671 3031 0
3030 2671 -3031 0
-3031 2669 2830 0
-3031 -2669 -2830 0
3031 -2669 2830 0
3031 2669 -2830 0
-3032 3033 3035 0
-3032 3035 3161 0
-3032 3033 3161 0
3032 -3033 -3161 0
3032 -3035 -3161 0
3032 -3033 -3035 0
-3033 2674 3034 0
-3033 -2674 -3034 0
3033 -2674 3034 0
3033 2674 -3034 0
-3034 2672 2822 0
-3034 -2672 -2822 0
3034 -2672 2822 0
3034 2672 -2822 0
-3035 3036 3038 0
-3035 3038 3153 0
-3035 3036 3153 0
3035 -3036 -3153 0
3035 -3038 -3153 0
3035 -3036 -3038 0
-3036 2677 3037 0
-3036 -2677 -3037 0
3036 -2677 3037 0
3036 2677 -3037 0
-3037 2675 2814 0
-3037 -2675 -2814 0
3037 -2675 2814 0
3037 2675 -2814 0
-3038 3039 3041 0
-3038 3041 3145 0
-3038 3039 3145 0
3038 -3039 -3145 0
3038 -3041 -3145 0
3038 -3039 -3041 0
-3039 2680 3040 0
-3039 -2680 -3040 0
3039 -2680 3040 0
3039 2680 -3040 0
-3040 2678 2806 0
-3040 -2678 -2806 0
3040 -2678 2806 0
3040 2678 -2806 0
-3041 3042 3044 0
-3041 3044 3137 0
-3041 3042 3137 0
3041 -3042 -3137 0
3041 -3044 -3137 0
3041 -3042 -3044 0
-3042 2683 3043 0
-3042 -2683 -3043 0
3042 -2683 3043 0
3042 2683 -3043 0
-3043 2681 2798 0
-3043 -2681 -2798 0
3043 -2681 2798 0
3043 2681 -2798 0
-3044 3045 3047 0
-3044 3047 3129 0
-3044 3045 3129 0
3044 -3045 -3129 0
3044 -3047 -3129 0
3044 -3045 -3047 0
-3045 2686 3046 0
-3045 -2686 -3046 0
3045 -2686 3046 0
3045 2686 -3046 0
-3046 2684 2790 0
-3046 -2684 -2790 0
3046 -2684 2790 0
3046 2684 -2790 0
-3047 3048 3050 0
-3047 3050 3121 0
-3047 3048 3121 0
3047 -3048 -3121 0
3047 -3050 -3121 0
3047 -3048 -3050 0
-3048 2689 3049 0
-3048 -2689 -3049 0
3048 -2689 3049 0
3048 2689 -3049 0
-3049 2687 2782 0
-3049 -2687 -2782 0
3049 -2687 2782 0
3049 2687 -2782 0
-3050 3051 3053 0
-3050 3053 3113 0
-3050 3051 3113 0
3050 -3051 -3113 0
3050 -3053 -3113 0
3050 -3051 -3053 0
-3051 2692 3052 0
-3051 -2692 -3052 0
3051 -2692 3052 0
3051 2692 -3052 0
-3052 2690 2774 0
-3052 -2690 -2774 0
3052 -2690 2774 0
3052 2690 -2774 0
-3053 3054 3056 0
-3053 3056 3105 0
-3053 3054 3105 0
3053 -3054 -3105 0
3053 -3056 -3105 0
3053 -3054 -3056 0
-3054 2695 3055 0
-3054 -2695 -3055 0
3054 -2695 3055 0
3054 2695 -3055 0
-3055 2693 2766 0
-3055 -2693 -2766 0
3055 -2693 2766 0
3055 2693 -2766 0
-3056 3057 3059 0
-3056 3059 3097 0
-3056 3057 3097 0
3056 -3057 -3097 0
3056 -3059 -3097 0
3056 -3057 -3059 0
-3057 2698 3058 0
-3057 -2698 -3058 0
3057 -2698 3058 0
3057 2698 -3058 0
-3058 2696 2758 0
-3058 -2696 -2758 0
3058 -2696 2758 0
3058 2696 -2758 0
-3059 3060 3062 0
-3059 3062 3089 0
-3059 3060 3089 0
3059 -3060 -3089 0
3059 -3062 -3089 0
3059 -3060 -3062 0
-3060 2701 3061 0
-3060 -2701 -3061 0
3060 -2701 3061 0
3060 2701 -3061 0
-3061 2699 2750 0
-3061 -2699 -2750 0
3061 -2699 2750 0
3061 2699 -2750 0
-3062 3063 3065 0
-3062 3065 3081 0
-3062 3063 3081 0
3062 -3063 -3081 0
3062 -3065 -3081 0
3062 -3063 -3065 0
-3063 2704 3064 0
-3063 -2704 -3064 0
3063 -2704 3064 0
3063 2704 -3064 0
-3064 2702 2742 0
-3064 -2702 -2742 0
3064 -2702 2742 0
3064 2702 -2742 0
-3065 3066 3073 0
-3065 3066 3068 0
-3065 3068 3073 0
3065 -3068 -3073 0
3065 -3066 -3073 0
3065 -3066 -3068 0
-3066 2707 3067 0
-3066 -2707 -3067 0
3066 -2707 3067 0
3066 2707 -3067 0
-3067 2705 2734 0
-3067 -2705 -2734 0
3067 -2705 2734 0
3067 2705 -2734 0
3068 -3069 -3071 0
-3068 3069 0
-3068 3071 0
3069 -9869 -3070 0
-3069 9869 0
-3069 3070 0
-3070 -9918 -9919 0
-3070 9918 9919 0
3070 9918 -9919 0
3070 -9918 9919 0
-3071 2710 3072 0
-3071 -2710 -3072 0
3071 -2710 3072 0
3071 2710 -3072 0
-3072 2708 2726 0
-3072 -2708 -2726 0
3072 -2708 2726 0
3072 2708 -2726 0
-3073 -3074 -3079 0
-3073 3074 3079 0
3073 3074 -3079 0
3073 -3074 3079 0
-3074 2974 3075 0
-3074 -2974 -3075 0
3074 -2974 3075 0
3074 2974 -3075 0
-3075 -3076 -3077 0
-3075 3076 3077 0
3075 3076 -3077 0
3075 -3076 3077 0
3076 -9870 -3070 0
-3076 9870 0
-3076 3070 0
3077 -9869 -3078 0
-3077 9869 0
-3077 3078 0
-3078 -9918 -9920 0
-3078 9919 9920 0
-3078 9918 -9919 0
3078 -9918 -9919 9920 0
3078 9918 9919 -9920 0
3079 -2974 3078 -3080 0
3079 -2974 -3078 3080 0
-3079 2974 0
-3079 3078 3080 0
-3079 -3078 -3080 0
3080 9869 -3070 0
-3080 -9869 0
-3080 3070 0
-3081 -3082 -3086 0
-3081 3082 3086 0
3081 3082 -3086 0
3081 -3082 3086 0
-3082 2974 3083 0
-3082 -2974 -3083 0
3082 -2974 3083 0
3082 2974 -3083 0
-3083 -3084 -3085 0
-3083 3084 3085 0
3083 3084 -3085 0
3083 -3084 3085 0
3084 -9871 -3070 0
-3084 9871 0
-3084 3070 0
3085 -9870 -3078 0
-3085 9870 0
-3085 3078 0
3086 -2974 -3087 3088 0
3086 -2974 3087 -3088 0
-3086 2974 0
-3086 -3087 -3088 0
-3086 3087 3088 0
3087 69 -3070 0
-3087 -69 0
-3087 3070 0
3088 9869 -3078 0
-3088 -9869 0
-3088 3078 0
-3089 -3090 -3094 0
-3089 3090 3094 0
3089 3090 -3094 0
3089 -3090 3094 0
-3090 2974 3091 0
-3090 -2974 -3091 0
3090 -2974 3091 0
3090 2974 -3091 0
-3091 -3092 -3093 0
-3091 3092 3093 0
3091 3092 -3093 0
3091 -3092 3093 0
3092 -9872 -3070 0
-3092 9872 0
-3092 3070 0
3093 -9871 -3078 0
-3093 9871 0
-3093 3078 0
3094 -2974 -3095 3096 0
3094 -2974 3095 -3096 0
-3094 2974 0
-3094 -3095 -3096 0
-3094 3095 3096 0
3095 68 -3070 0
-3095 -68 0
-3095 3070 0
3096 69 -3078 0
-3096 -69 0
-3096 3078 0
-3097 -3098 -3102 0
-3097 3098 3102 0
3097 3098 -3102 0
3097 -3098 3102 0
-3098 2974 3099 0
-3098 -2974 -3099 0
3098 -2974 3099 0
3098 2974 -3099 0
-3099 -3100 -3101 0
-3099 3100 3101 0
3099 3100 -3101 0
3099 -3100 3101 0
3100 -9873 -3070 0
-3100 9873 0
-3100 3070 0
3101 -9872 -3078 0
-3101 9872 0
-3101 3078 0
3102 -2974 -3103 3104 0
3102 -2974 3103 -3104 0
-3102 2974 0
-3102 -3103 -3104 0
-3102 3103 3104 0
3103 67 -3070 0
-3103 -67 0
-3103 3070 0
3104 68 -3078 0
-3104 -68 0
-3104 3078 0
-3105 -3106 -3110 0
-3105 3106 3110 0
3105 3106 -3110 0
3105 -3106 3110 0
-3106 2974 3107 0
-3106 -2974 -3107 0
3106 -2974 3107 0
3106 2974 -3107 0
-3107 -3108 -3109 0
-3107 3108 3109 0
3107 3108 -3109 0
3107 -3108 3109 0
3108 -9874 -3070 0
-3108 9874 0
-3108 3070 0
3109 -9873 -3078 0
-3109 9873 0
-3109 3078 0
3110 -2974 -3111 3112 0
3110 -2974 3111 -3112 0
-3110 2974 0
-3110 -3111 -3112 0
-3110 3111 3112 0
3111 66 -3070 0
-3111 -66 0
-3111 3070 0
3112 67 -3078 0
-3112 -67 0
-3112 3078 0
-3113 -3114 -3118 0
-3113 3114 3118 0
3113 3114 -3118 0
3113 -3114 3118 0
-3114 2974 3115 0
-3114 -2974 -3115 0
3114 -2974 3115 0
3114 2974 -3115 0
-3115 -3116 -3117 0
-3115 3116 3117 0
3115 3116 -3117 0
3115 -3116 3117 0
3116 -9875 -3070 0
-3116 9875 0
-3116 3070 0
3117 -9874 -3078 0
-3117 9874 0
-3117 3078 0
3118 -2974 -3119 3120 0
3118 -2974 3119 -3120 0
-3118 2974 0
-3118 -3119 -3120 0
-3118 3119 3120 0
3119 65 -3070 0
-3119 -65 0
-3119 3070 0
3120 66 -3078 0
-3120 -66 0
-3120 3078 0
-3121 -3122 -3126 0
-3121 3122 3126 0
3121 3122 -3126 0
3121 -3122 3126 0
-3122 2974 3123 0
-3122 -2974 -3123 0
3122 -2974 3123 0
3122 2974 -3123 0
-3123 -3124 -3125 0
-3123 3124 3125 0
3123 3124 -3125 0
3123 -3124 3125 0
3124 -9876 -3070 0
-3124 9876 0
-3124 3070 0
3125 -9875 -3078 0
-3125 9875 0
-3125 3078 0
3126 -2974 -3127 3128 0
3126 -2974 3127 -3128 0
-3126 2974 0
-3126 -3127 -3128 0
-3126 3127 3128 0
3127 64 -3070 0
-3127 -64 0
-3127 3070 0
3128 65 -3078 0
-3128 -65 0
-3128 3078 0
-3129 -3130 -3134 0
-3129 3130 3134 0
3129 3130 -3134 0
3129 -3130 3134 0
-3130 2974 3131 0
-3130 -2974 -3131 0
3130 -2974 3131 0
3130 2974 -3131 0
-3131 -3132 -3133 0
-3131 3132 3133 0
3131 3132 -3133 0
3131 -3132 3133 0
3132 -9877 -3070 0
-3132 9877 0
-3132 3070 0
3133 -9876 -3078 0
-3133 9876 0
-3133 3078 0
3134 -2974 -3135 3136 0
3134 -2974 3135 -3136 0
-3134 2974 0
-3134 -3135 -3136 0
-3134 3135 3136 0
3135 63 -3070 0
-3135 -63 0
-3135 3070 0
3136 64 -3078 0
-3136 -64 0
-3136 3078 0
-3137 -3138 -3142 0
-3137 3138 3142 0
3137 3138 -3142 0
3137 -3138 3142 0
-3138 2974 3139 0
-3138 -2974 -3139 0
3138 -2974 3139 0
3138 2974 -3139 0
-3139 -3140 -3141 0
-3139 3140 3141 0
3139 3140 -3141 0
3139 -3140 3141 0
3140 -9878 -3070 0
-3140 9878 0
-3140 3070 0
3141 -9877 -3078 0
-3141 9877 0
-3141 3078 0
3142 -2974 -3143 3144 0
3142 -2974 3143 -3144 0
-3142 2974 0
-3142 -3143 -3144 0
-3142 3143 3144 0
3143 62 -3070 0
-3143 -62 0
-3143 3070 0
3144 63 -3078 0
-3144 -63 0
-3144 3078 0
-3145 -3146 -3150 0
-3145 3146 3150 0
3145 3146 -3150 0
3145 -3146 3150 0
-3146 2974 3147 0
-3146 -2974 -3147 0
3146 -2974 3147 0
3146 2974 -3147 0
-3147 -3148 -3149 0
-3147 3148 3149 0
3147 3148 -3149 0
3147 -3148 3149 0
3148 -9879 -3070 0
-3148 9879 0
-3148 3070 0
3149 -9878 -3078 0
-3149 9878 0
-3149 3078 0
3150 -2974 -3151 3152 0
3150 -2974 3151 -3152 0
-3150 2974 0
-3150 -3151 -3152 0
-3150 3151 3152 0
3151 61 -3070 0
-3151 -61 0
-3151 3070 0
3152 62 -3078 0
-3152 -62 0
-3152 3078 0
-3153 -3154 -3158 0
-3153 3154 3158 0
3153 3154 -3158 0
3153 -3154 3158 0
-3154 2974 3155 0
-3154 -2974 -3155 0
3154 -2974 3155 0
3154 2974 -3155 0
-3155 -3156 -3157 0
-3155 3156 3157 0
3155 3156 -3157 0
3155 -3156 3157 0
3156 -9880 -3070 0
-3156 9880 0
-3156 3070 0
3157 -9879 -3078 0
-3157 9879 0
-3157 3078 0
3158 -2974 -3159 3160 0
3158 -2974 3159 -3160 0
-3158 2974 0
-3158 -3159 -3160 0
-3158 3159 3160 0
3159 60 -3070 0
-3159 -60 0
-3159 3070 0
3160 61 -3078 0
-3160 -61 0
-3160 3078 0
-3161 -3162 -3166 0
-3161 3162 3166 0
3161 3162 -3166 0
3161 -3162 3166 0
-3162 2974 3163 0
-3162 -2974 -3163 0
3162 -2974 3163 0
3162 2974 -3163 0
-3163 -3164 -3165 0
-3163 3164 3165 0
3163 3164 -3165 0
3163 -3164 3165 0
3164 -9881 -3070 0
-3164 9881 0
-3164 3070 0
3165 -9880 -3078 0
-3165 9880 0
-3165 3078 0
3166 -2974 -3167 3168 0
3166 -2974 3167 -3168 0
-3166 2974 0
-3166 -3167 -3168 0
-3166 3167 3168 0
3167 59 -3070 0
-3167 -59 0
-3167 3070 0
3168 60 -3078 0
-3168 -60 0
-3168 3078 0
-3169 -3170 -3174 0
-3169 3170 3174 0
3169 3170 -3174 0
3169 -3170 3174 0
-3170 2974 3171 0
-3170 -2974 -3171 0
3170 -2974 3171 0
3170 2974 -3171 0
-3171 -3172 -3173 0
-3171 3172 3173 0
3171 3172 -3173 0
3171 -3172 3173 0
3172 -9882 -3070 0
-3172 9882 0
-3172 3070 0
3173 -9881 -3078 0
-3173 9881 0
-3173 3078 0
3174 -2974 -3175 3176 0
3174 -2974 3175 -3176 0
-3174 2974 0
-3174 -3175 -3176 0
-3174 3175 3176 0
3175 58 -3070 0
-3175 -58 0
-3175 3070 0
3176 59 -3078 0
-3176 -59 0
-3176 3078 0
-3177 -3178 -3182 0
-3177 3178 3182 0
3177 3178 -3182 0
3177 -3178 3182 0
-3178 2974 3179 0
-3178 -2974 -3179 0
3178 -2974 3179 0
3178 2974 -3179 0
-3179 -3180 -3181 0
-3179 3180 3181 0
3179 3180 -3181 0
3179 -3180 3181 0
3180 -9883 -3070 0
-3180 9883 0
-3180 3070 0
3181 -9882 -3078 0
-3181 9882 0
-3181 3078 0
3182 -2974 -3183 3184 0
3182 -2974 3183 -3184 0
-3182 2974 0
-3182 -3183 -3184 0
-3182 3183 3184 0
3183 57 -3070 0
-3183 -57 0
-3183 3070 0
3184 58 -3078 0
-3184 -58 0
-3184 3078 0
-3185 -3186 -3190 0
-3185 3186 3190 0
3185 3186 -3190 0
3185 -3186 3190 0
-3186 2974 3187 0
-3186 -2974 -3187 0
3186 -2974 3187 0
3186 2974 -3187 0
-3187 -3188 -3189 0
-3187 3188 3189 0
3187 3188 -3189 0
3187 -3188 3189 0
3188 -9884 -3070 0
-3188 9884 0
-3188 3070 0
3189 -9883 -3078 0
-3189 9883 0
-3189 3078 0
3190 -2974 -3191 3192 0
3190 -2974 3191 -3192 0
-3190 2974 0
-3190 -3191 -3192 0
-3190 3191 3192 0
3191 56 -3070 0
-3191 -56 0
-3191 3070 0
3192 57 -3078 0
-3192 -57 0
-3192 3078 0
-3193 -3194 -3198 0
-3193 3194 3198 0
3193 3194 -3198 0
3193 -3194 3198 0
-3194 2974 3195 0
-3194 -2974 -3195 0
3194 -2974 3195 0
3194 2974 -3195 0
-3195 -3196 -3197 0
-3195 3196 3197 0
3195 3196 -3197 0
3195 -3196 3197 0
3196 -9885 -3070 0
-3196 9885 0
-3196 3070 0
3197 -9884 -3078 0
-3197 9884 0
-3197 3078 0
3198 -2974 -3199 3200 0
3198 -2974 3199 -3200 0
-3198 2974 0
-3198 -3199 -3200 0
-3198 3199 3200 0
3199 55 -3070 0
-3199 -55 0
-3199 3070 0
3200 56 -3078 0
-3200 -56 0
-3200 3078 0
-3201 -3202 -3206 0
-3201 3202 3206 0
3201 3202 -3206 0
3201 -3202 3206 0
-3202 2974 3203 0
-3202 -2974 -3203 0
3202 -2974 3203 0
3202 2974 -3203 0
-3203 -3204 -3205 0
-3203 3204 3205 0
3203 3204 -3205 0
3203 -3204 3205 0
3204 -9886 -3070 0
-3204 9886 0
-3204 3070 0
3205 -9885 -3078 0
-3205 9885 0
-3205 3078 0
3206 -2974 -3207 3208 0
3206 -2974 3207 -3208 0
-3206 2974 0
-3206 -3207 -3208 0
-3206 3207 3208 0
3207 54 -3070 0
-3207 -54 0
-3207 3070 0
3208 55 -3078 0
-3208 -55 0
-3208 3078 0
-3209 -3210 -3214 0
-3209 3210 3214 0
3209 3210 -3214 0
3209 -3210 3214 0
-3210 2974 3211 0
-3210 -2974 -3211 0
3210 -2974 3211 0
3210 2974 -3211 0
-3211 -3212 -3213 0
-3211 3212 3213 0
3211 3212 -3213 0
3211 -3212 3213 0
3212 -9887 -3070 0
-3212 9887 0
-3212 3070 0
3213 -9886 -3078 0
-3213 9886 0
-3213 3078 0
3214 -2974 -3215 3216 0
3214 -2974 3215 -3216 0
-3214 2974 0
-3214 -3215 -3216 0
-3214 3215 3216 0
3215 53 -3070 0
-3215 -53 0
-3215 3070 0
3216 54 -3078 0
-3216 -54 0
-3216 3078 0
-3217 -3218 -3222 0
-3217 3218 3222 0
3217 3218 -3222 0
3217 -3218 3222 0
-3218 2974 3219 0
-3218 -2974 -3219 0
3218 -2974 3219 0
3218 2974 -3219 0
-3219 -3220 -3221 0
-3219 3220 3221 0
3219 3220 -3221 0
3219 -3220 3221 0
3220 -9888 -3070 0
-3220 9888 0
-3220 3070 0
3221 -9887 -3078 0
-3221 9887 0
-3221 3078 0
3222 -2974 -3223 3224 0
3222 -2974 3223 -3224 0
-3222 2974 0
-3222 -3223 -3224 0
-3222 3223 3224 0
3223 52 -3070 0
-3223 -52 0
-3223 3070 0
3224 53 -3078 0
-3224 -53 0
-3224 3078 0
-3225 -3226 -3230 0
-3225 3226 3230 0
3225 3226 -3230 0
3225 -3226 3230 0
-3226 2974 3227 0
-3226 -2974 -3227 0
3226 -2974 3227 0
3226 2974 -3227 0
-3227 -3228 -3229 0
-3227 3228 3229 0
3227 3228 -3229 0
3227 -3228 3229 0
3228 -9889 -3070 0
-3228 9889 0
-3228 3070 0
3229 -9888 -3078 0
-3229 9888 0
-3229 3078 0
3230 -2974 -3231 3232 0
3230 -2974 3231 -3232 0
-3230 2974 0
-3230 -3231 -3232 0
-3230 3231 3232 0
3231 51 -3070 0
-3231 -51 0
-3231 3070 0
3232 52 -3078 0
-3232 -52 0
-3232 3078 0
-3233 -3234 -3238 0
-3233 3234 3238 0
3233 3234 -3238 0
3233 -3234 3238 0
-3234 2974 3235 0
-3234 -2974 -3235 0
3234 -2974 3235 0
3234 2974 -3235 0
-3235 -3236 -3237 0
-3235 3236 3237 0
3235 3236 -3237 0
3235 -3236 3237 0
3236 -9890 -3070 0
-3236 9890 0
-3236 3070 0
3237 -9889 -3078 0
-3237 9889 0
-3237 3078 0
3238 -2974 -3239 3240 0
3238 -2974 3239 -3240 0
-3238 2974 0
-3238 -3239 -3240 0
-3238 3239 3240 0
3239 50 -3070 0
-3239 -50 0
-3239 3070 0
3240 51 -3078 0
-3240 -51 0
-3240 3078 0
-3241 -3242 -3246 0
-3241 3242 3246 0
3241 3242 -3246 0
3241 -3242 3246 0
-3242 2974 3243 0
-3242 -2974 -3243 0
3242 -2974 3243 0
3242 2974 -3243 0
-3243 -3244 -3245 0
-3243 3244 3245 0
3243 3244 -3245 0
3243 -3244 3245 0
3244 -9891 -3070 0
-3244 9891 0
-3244 3070 0
3245 -9890 -3078 0
-3245 9890 0
-3245 3078 0
3246 -2974 -3247 3248 0
3246 -2974 3247 -3248 0
-3246 2974 0
-3246 -3247 -3248 0
-3246 3247 3248 0
3247 49 -3070 0
-3247 -49 0
-3247 3070 0
3248 50 -3078 0
-3248 -50 0
-3248 3078 0
-3249 -3250 -3254 0
-3249 3250 3254 0
3249 3250 -3254 0
3249 -3250 3254 0
-3250 2974 3251 0
-3250 -2974 -3251 0
3250 -2974 3251 0
3250 2974 -3251 0
-3251 -3252 -3253 0
-3251 3252 3253 0
3251 3252 -3253 0
3251 -3252 3253 0
3252 -9892 -3070 0
-3252 9892 0
-3252 3070 0
3253 -9891 -3078 0
-3253 9891 0
-3253 3078 0
3254 -2974 -3255 3256 0
3254 -2974 3255 -3256 0
-3254 2974 0
-3254 -3255 -3256 0
-3254 3255 3256 0
3255 48 -3070 0
-3255 -48 0
-3255 3070 0
3256 49 -3078 0
-3256 -49 0
-3256 3078 0
-3257 -3258 -3262 0
-3257 3258 3262 0
3257 3258 -3262 0
3257 -3258 3262 0
-3258 2974 3259 0
-3258 -2974 -3259 0
3258 -2974 3259 0
3258 2974 -3259 0
-3259 -3260 -3261 0
-3259 3260 3261 0
3259 3260 -3261 0
3259 -3260 3261 0
3260 -9893 -3070 0
-3260 9893 0
-3260 3070 0
3261 -9892 -3078 0
-3261 9892 0
-3261 3078 0
3262 -2974 -3263 3264 0
3262 -2974 3263 -3264 0
-3262 2974 0
-3262 -3263 -3264 0
-3262 3263 3264 0
3263 47 -3070 0
-3263 -47 0
-3263 3070 0
3264 48 -3078 0
-3264 -48 0
-3264 3078 0
-3265 -3266 -3270 0
-3265 3266 3270 0
3265 3266 -3270 0
3265 -3266 3270 0
-3266 2974 3267 0
-3266 -2974 -3267 0
3266 -2974 3267 0
3266 2974 -3267 0
-3267 -3268 -3269 0
-3267 3268 3269 0
3267 3268 -3269 0
3267 -3268 3269 0
3268 -9894 -3070 0
-3268 9894 0
-3268 3070 0
3269 -9893 -3078 0
-3269 9893 0
-3269 3078 0
3270 -2974 -3271 3272 0
3270 -2974 3271 -3272 0
-3270 2974 0
-3270 -3271 -3272 0
-3270 3271 3272 0
3271 46 -3070 0
-3271 -46 0
-3271 3070 0
3272 47 -3078 0
-3272 -47 0
-3272 3078 0
-3273 -3274 -3278 0
-3273 3274 3278 0
3273 3274 -3278 0
3273 -3274 3278 0
-3274 2974 3275 0
-3274 -2974 -3275 0
3274 -2974 3275 0
3274 2974 -3275 0
-3275 -3276 -3277 0
-3275 3276 3277 0
3275 3276 -3277 0
3275 -3276 3277 0
3276 -9895 -3070 0
-3276 9895 0
-3276 3070 0
3277 -9894 -3078 0
-3277 9894 0
-3277 3078 0
3278 -2974 -3279 3280 0
3278 -2974 3279 -3280 0
-3278 2974 0
-3278 -3279 -3280 0
-3278 3279 3280 0
3279 45 -3070 0
-3279 -45 0
-3279 3070 0
3280 46 -3078 0
-3280 -46 0
-3280 3078 0
-3281 -3282 -3286 0
-3281 3282 3286 0
3281 3282 -3286 0
3281 -3282 3286 0
-3282 2974 3283 0
-3282 -2974 -3283 0
3282 -2974 3283 0
3282 2974 -3283 0
-3283 -3284 -3285 0
-3283 3284 3285 0
3283 3284 -3285 0
3283 -3284 3285 0
3284 -9896 -3070 0
-3284 9896 0
-3284 3070 0
3285 -9895 -3078 0
-3285 9895 0
-3285 3078 0
3286 -2974 -3287 3288 0
3286 -2974 3287 -3288 0
-3286 2974 0
-3286 -3287 -3288 0
-3286 3287 3288 0
3287 44 -3070 0
-3287 -44 0
-3287 3070 0
3288 45 -3078 0
-3288 -45 0
-3288 3078 0
-3289 -3290 -3294 0
-3289 3290 3294 0
3289 3290 -3294 0
3289 -3290 3294 0
-3290 2974 3291 0
-3290 -2974 -3291 0
3290 -2974 3291 0
3290 2974 -3291 0
-3291 -3292 -3293 0
-3291 3292 3293 0
3291 3292 -3293 0
3291 -3292 3293 0
3292 -9897 -3070 0
-3292 9897 0
-3292 3070 0
3293 -9896 -3078 0
-3293 9896 0
-3293 3078 0
3294 -2974 -3295 3296 0
3294 -2974 3295 -3296 0
-3294 2974 0
-3294 -3295 -3296 0
-3294 3295 3296 0
3295 43 -3070 0
-3295 -43 0
-3295 3070 0
3296 44 -3078 0
-3296 -44 0
-3296 3078 0
-3297 -3298 -3302 0
-3297 3298 3302 0
3297 3298 -3302 0
3297 -3298 3302 0
-3298 2974 3299 0
-3298 -2974 -3299 0
3298 -2974 3299 0
3298 2974 -3299 0
-3299 -3300 -3301 0
-3299 3300 3301 0
3299 3300 -3301 0
3299 -3300 3301 0
3300 -9898 -3070 0
-3300 9898 0
-3300 3070 0
3301 -9897 -3078 0
-3301 9897 0
-3301 3078 0
3302 -2974 -3303 3304 0
3302 -2974 3303 -3304 0
-3302 2974 0
-3302 -3303 -3304 0
-3302 3303 3304 0
3303 42 -3070 0
-3303 -42 0
-3303 3070 0
3304 43 -3078 0
-3304 -43 0
-3304 3078 0
-3305 -3306 -3310 0
-3305 3306 3310 0
3305 3306 -3310 0
3305 -3306 3310 0
-3306 2974 3307 0
-3306 -2974 -3307 0
3306 -2974 3307 0
3306 2974 -3307 0
-3307 -3308 -3309 0
-3307 3308 3309 0
3307 3308 -3309 0
3307 -3308 3309 0
3308 -9899 -3070 0
-3308 9899 0
-3308 3070 0
3309 -9898 -3078 0
-3309 9898 0
-3309 3078 0
3310 -2974 -3311 3312 0
3310 -2974 3311 -3312 0
-3310 2974 0
-3310 -3311 -3312 0
-3310 3311 3312 0
3311 41 -3070 0
-3311 -41 0
-3311 3070 0
3312 42 -3078 0
-3312 -42 0
-3312 3078 0
-3313 -3314 -3318 0
-3313 3314 3318 0
3313 3314 -3318 0
3313 -3314 3318 0
-3314 2974 3315 0
-3314 -2974 -3315 0
3314 -2974 3315 0
3314 2974 -3315 0
-3315 -3316 -3317 0
-3315 3316 3317 0
3315 3316 -3317 0
3315 -3316 3317 0
3316 -9900 -3070 0
-3316 9900 0
-3316 3070 0
3317 -9899 -3078 0
-3317 9899 0
-3317 3078 0
3318 -2974 -3319 3320 0
3318 -2974 3319 -3320 0
-3318 2974 0
-3318 -3319 -3320 0
-3318 3319 3320 0
3319 40 -3070 0
-3319 -40 0
-3319 3070 0
3320 41 -3078 0
-3320 -41 0
-3320 3078 0
-3321 -3322 -3324 0
-3321 3322 3324 0
3321 3322 -3324 0
3321 -3322 3324 0
-3322 -2974 -3323 0
-3322 2974 3323 0
3322 2974 -3323 0
3322 -2974 3323 0
3323 -9900 -3078 0
-3323 9900 0
-3323 3078 0
3324 -2974 -3325 3326 0
3324 -2974 3325 -3326 0
-3324 2974 0
-3324 -3325 -3326 0
-3324 3325 3326 0
3325 39 -3070 0
-3325 -39 0
-3325 3070 0
3326 40 -3078 0
-3326 -40 0
-3326 3078 0
-3327 3328 0
3327 -3328 0
3328 -39 -3329 0
-3328 39 0
-3328 3329 0
-3329 3330 0
3329 -3330 0
3330 9921 -9922 0
3330 9920 -9922 0
-3330 9922 0
-3330 -9920 -9921 0
-3331 19 3332 0
-3331 3332 3676 0
-3331 19 3676 0
3331 -19 -3676 0
3331 -3332 -3676 0
3331 -19 -3332 0
-3332 19 3333 0
-3332 3333 3668 0
-3332 19 3668 0
3332 -19 -3668 0
3332 -3333 -3668 0
3332 -19 -3333 0
-3333 3334 3336 0
-3333 3336 3660 0
-3333 3334 3660 0
3333 -3334 -3660 0
3333 -3336 -3660 0
3333 -3334 -3336 0
-3334 2977 3335 0
-3334 -2977 -3335 0
3334 -2977 3335 0
3334 2977 -3335 0
-3335 21 3321 0
-3335 -21 -3321 0
3335 -21 3321 0
3335 21 -3321 0
-3336 3337 3339 0
-3336 3339 3652 0
-3336 3337 3652 0
3336 -3337 -3652 0
3336 -3339 -3652 0
3336 -3337 -3339 0
-3337 2978 3338 0
-3337 -2978 -3338 0
3337 -2978 3338 0
3337 2978 -3338 0
-3338 21 3313 0
-3338 -21 -3313 0
3338 -21 3313 0
3338 21 -3313 0
-3339 3340 3342 0
-3339 3342 3644 0
-3339 3340 3644 0
3339 -3340 -3644 0
3339 -3342 -3644 0
3339 -3340 -3342 0
-3340 2981 3341 0
-3340 -2981 -3341 0
3340 -2981 3341 0
3340 2981 -3341 0
-3341 2979 3305 0
-3341 -2979 -3305 0
3341 -2979 3305 0
3341 2979 -3305 0
-3342 3343 3345 0
-3342 3345 3636 0
-3342 3343 3636 0
3342 -3343 -3636 0
3342 -3345 -3636 0
3342 -3343 -3345 0
-3343 2984 3344 0
-3343 -2984 -3344 0
3343 -2984 3344 0
3343 2984 -3344 0
-3344 2982 3297 0
-3344 -2982 -3297 0
3344 -2982 3297 0
3344 2982 -3297 0
-3345 3346 3348 0
-3345 3348 3628 0
-3345 3346 3628 0
3345 -3346 -3628 0
3345 -3348 -3628 0
3345 -3346 -3348 0
-3346 2987 3347 0
-3346 -2987 -3347 0
3346 -2987 3347 0
3346 2987 -3347 0
-3347 2985 3289 0
-3347 -2985 -3289 0
3347 -2985 3289 0
3347 2985 -3289 0
-3348 3349 3351 0
-3348 3351 3620 0
-3348 3349 3620 0
3348 -3349 -3620 0
3348 -3351 -3620 0
3348 -3349 -3351 0
-3349 2990 3350 0
-3349 -2990 -3350 0
3349 -2990 3350 0
3349 2990 -3350 0
-3350 2988 3281 0
-3350 -2988 -3281 0
3350 -2988 3281 0
3350 2988 -3281 0
-3351 3352 3354 0
-3351 3354 3612 0
-3351 3352 3612 0
3351 -3352 -3612 0
3351 -3354 -3612 0
3351 -3352 -3354 0
-3352 2993 3353 0
-3352 -2993 -3353 0
3352 -2993 3353 0
3352 2993 -3353 0
-3353 2991 3273 0
-3353 -2991 -3273 0
3353 -2991 3273 0
3353 2991 -3273 0
-3354 3355 3357 0
-3354 3357 3604 0
-3354 3355 3604 0
3354 -3355 -3604 0
3354 -3357 -3604 0
3354 -3355 -3357 0
-3355 2996 3356 0
-3355 -2996 -3356 0
3355 -2996 3356 0
3355 2996 -3356 0
-3356 2994 3265 0
-3356 -2994 -3265 0
3356 -2994 3265 0
3356 2994 -3265 0
-3357 3358 3360 0
-3357 3360 3596 0
-3357 3358 3596 0
3357 -3358 -3596 0
3357 -3360 -3596 0
3357 -3358 -3360 0
-3358 2999 3359 0
-3358 -2999 -3359 0
3358 -2999 3359 0
3358 2999 -3359 0
-3359 2997 3257 0
-3359 -2997 -3257 0
3359 -2997 3257 0
3359 2997 -3257 0
-3360 3361 3363 0
-3360 3363 3588 0
-3360 3361 3588 0
3360 -3361 -3588 0
3360 -3363 -3588 0
3360 -3361 -3363 0
-3361 3002 3362 0
-3361 -3002 -3362 0
3361 -3002 3362 0
3361 3002 -3362 0
-3362 3000 3249 0
-3362 -3000 -3249 0
3362 -3000 3249 0
3362 3000 -3249 0
-3363 3364 3366 0
-3363 3366 3580 0
-3363 3364 3580 0
3363 -3364 -3580 0
3363 -3366 -3580 0
3363 -3364 -3366 0
-3364 3005 3365 0
-3364 -3005 -3365 0
3364 -3005 3365 0
3364 3005 -3365 0
-3365 3003 3241 0
-3365 -3003 -3241 0
3365 -3003 3241 0
3365 3003 -3241 0
-3366 3367 3369 0
-3366 3369 3572 0
-3366 3367 3572 0
3366 -3367 -3572 0
3366 -3369 -3572 0
3366 -3367 -3369 0
-3367 3008 3368 0
-3367 -3008 -3368 0
3367 -3008 3368 0
3367 3008 -3368 0
-3368 3006 3233 0
-3368 -3006 -3233 0
3368 -3006 3233 0
3368 3006 -3233 0
-3369 3370 3372 0
-3369 3372 3564 0
-3369 3370 3564 0
3369 -3370 -3564 0
3369 -3372 -3564 0
3369 -3370 -3372 0
-3370 3011 3371 0
-3370 -3011 -3371 0
3370 -3011 3371 0
3370 3011 -3371 0
-3371 3009 3225 0
-3371 -3009 -3225 0
3371 -3009 3225 0
3371 3009 -3225 0
-3372 3373 3375 0
-3372 3375 3556 0
-3372 3373 3556 0
3372 -3373 -3556 0
3372 -3375 -3556 0
3372 -3373 -3375 0
-3373 3014 3374 0
-3373 -3014 -3374 0
3373 -3014 3374 0
3373 3014 -3374 0
-3374 3012 3217 0
-3374 -3012 -3217 0
3374 -3012 3217 0
3374 3012 -3217 0
-3375 3376 3378 0
-3375 3378 3548 0
-3375 3376 3548 0
3375 -3376 -3548 0
3375 -3378 -3548 0
3375 -3376 -3378 0
-3376 3017 3377 0
-3376 -3017 -3377 0
3376 -3017 3377 0
3376 3017 -3377 0
-3377 3015 3209 0
-3377 -3015 -3209 0
3377 -3015 3209 0
3377 3015 -3209 0
-3378 3379 3381 0
-3378 3381 3540 0
-3378 3379 3540 0
3378 -3379 -3540 0
3378 -3381 -3540 0
3378 -3379 -3381 0
-3379 3020 3380 0
-3379 -3020 -3380 0
3379 -3020 3380 0
3379 3020 -3380 0
-3380 3018 3201 0
-3380 -3018 -3201 0
3380 -3018 3201 0
3380 3018 -3201 0
-3381 3382 3384 0
-3381 3384 3532 0
-3381 3382 3532 0
3381 -3382 -3532 0
3381 -3384 -3532 0
3381 -3382 -3384 0
-3382 3023 3383 0
-3382 -3023 -3383 0
3382 -3023 3383 0
3382 3023 -3383 0
-3383 3021 3193 0
-3383 -3021 -3193 0
3383 -3021 3193 0
3383 3021 -3193 0
-3384 3385 3387 0
-3384 3387 3524 0
-3384 3385 3524 0
3384 -3385 -3524 0
3384 -3387 -3524 0
3384 -3385 -3387 0
-3385 3026 3386 0
-3385 -3026 -3386 0
3385 -3026 3386 0
3385 3026 -3386 0
-3386 3024 3185 0
-3386 -3024 -3185 0
3386 -3024 3185 0
3386 3024 -3185 0
-3387 3388 3390 0
-3387 3390 3516 0
-3387 3388 3516 0
3387 -3388 -3516 0
3387 -3390 -3516 0
3387 -3388 -3390 0
-3388 3029 3389 0
-3388 -3029 -3389 0
3388 -3029 3389 0
3388 3029 -3389 0
-3389 3027 3177 0
-3389 -3027 -3177 0
3389 -3027 3177 0
3389 3027 -3177 0
-3390 3391 3393 0
-3390 3393 3508 0
-3390 3391 3508 0
3390 -3391 -3508 0
3390 -3393 -3508 0
3390 -3391 -3393 0
-3391 3032 3392 0
-3391 -3032 -3392 0
3391 -3032 3392 0
3391 3032 -3392 0
-3392 3030 3169 0
-3392 -3030 -3169 0
3392 -3030 3169 0
3392 3030 -3169 0
-3393 3394 3396 0
-3393 3396 3500 0
-3393 3394 3500 0
3393 -3394 -3500 0
3393 -3396 -3500 0
3393 -3394 -3396 0
-3394 3035 3395 0
-3394 -3035 -3395 0
3394 -3035 3395 0
3394 3035 -3395 0
-3395 3033 3161 0
-3395 -3033 -3161 0
3395 -3033 3161 0
3395 3033 -3161 0
-3396 3397 3399 0
-3396 3399 3492 0
-3396 3397 3492 0
3396 -3397 -3492 0
3396 -3399 -3492 0
3396 -3397 -3399 0
-3397 3038 3398 0
-3397 -3038 -3398 0
3397 -3038 3398 0
3397 3038 -3398 0
-3398 3036 3153 0
-3398 -3036 -3153 0
3398 -3036 3153 0
3398 3036 -3153 0
-3399 3400 3402 0
-3399 3402 3484 0
-3399 3400 3484 0
3399 -3400 -3484 0
3399 -3402 -3484 0
3399 -3400 -3402 0
-3400 3041 3401 0
-3400 -3041 -3401 0
3400 -3041 3401 0
3400 3041 -3401 0
-3401 3039 3145 0
-3401 -3039 -3145 0
3401 -3039 3145 0
3401 3039 -3145 0
-3402 3403 3405 0
-3402 3405 3476 0
-3402 3403 3476 0
3402 -3403 -3476 0
3402 -3405 -3476 0
3402 -3403 -3405 0
-3403 3044 3404 0
-3403 -3044 -3404 0
3403 -3044 3404 0
3403 3044 -3404 0
-3404 3042 3137 0
-3404 -3042 -3137 0
3404 -3042 3137 0
3404 3042 -3137 0
-3405 3406 3408 0
-3405 3408 3468 0
-3405 3406 3468 0
3405 -3406 -3468 0
3405 -3408 -3468 0
3405 -3406 -3408 0
-3406 3047 3407 0
-3406 -3047 -3407 0
3406 -3047 3407 0
3406 3047 -3407 0
-3407 3045 3129 0
-3407 -3045 -3129 0
3407 -3045 3129 0
3407 3045 -3129 0
-3408 3409 3411 0
-3408 3411 3460 0
-3408 3409 3460 0
3408 -3409 -3460 0
3408 -3411 -3460 0
3408 -3409 -3411 0
-3409 3050 3410 0
-3409 -3050 -3410 0
3409 -3050 3410 0
3409 3050 -3410 0
-3410 3048 3121 0
-3410 -3048 -3121 0
3410 -3048 3121 0
3410 3048 -3121 0
-3411 3412 3414 0
-3411 3414 3452 0
-3411 3412 3452 0
3411 -3412 -3452 0
3411 -3414 -3452 0
3411 -3412 -3414 0
-3412 3053 3413 0
-3412 -3053 -3413 0
3412 -3053 3413 0
3412 3053 -3413 0
-3413 3051 3113 0
-3413 -3051 -3113 0
3413 -3051 3113 0
3413 3051 -3113 0
-3414 3415 3417 0
-3414 3417 3444 0
-3414 3415 3444 0
3414 -3415 -3444 0
3414 -3417 -3444 0
3414 -3415 -3417 0
-3415 3056 3416 0
-3415 -3056 -3416 0
3415 -3056 3416 0
3415 3056 -3416 0
-3416 3054 3105 0
-3416 -3054 -3105 0
3416 -3054 3105 0
3416 3054 -3105 0
-3417 3418 3420 0
-3417 3420 3436 0
-3417 3418 3436 0
3417 -3418 -3436 0
3417 -3420 -3436 0
3417 -3418 -3420 0
-3418 3059 3419 0
-3418 -3059 -3419 0
3418 -3059 3419 0
3418 3059 -3419 0
-3419 3057 3097 0
-3419 -3057 -3097 0
3419 -3057 3097 0
3419 3057 -3097 0
-3420 3421 3428 0
-3420 3421 3423 0
-3420 3423 3428 0
3420 -3423 -3428 0
3420 -3421 -3428 0
3420 -3421 -3423 0
-3421 3062 3422 0
-3421 -3062 -3422 0
3421 -3062 3422 0
3421 3062 -3422 0
-3422 3060 3089 0
-3422 -3060 -3089 0
3422 -3060 3089 0
3422 3060 -3089 0
3423 -3424 -3426 0
-3423 3424 0
-3423 3426 0
3424 -9869 -3425 0
-3424 9869 0
-3424 3425 0
-3425 -9920 -9921 0
-3425 9920 9921 0
3425 9920 -9921 0
3425 -9920 9921 0
-3426 3065 3427 0
-3426 -3065 -3427 0
3426 -3065 3427 0
3426 3065 -3427 0
-3427 3063 3081 0
-3427 -3063 -3081 0
3427 -3063 3081 0
3427 3063 -3081 0
-3428 -3429 -3434 0
-3428 3429 3434 0
3428 3429 -3434 0
3428 -3429 3434 0
-3429 3329 3430 0
-3429 -3329 -3430 0
3429 -3329 3430 0
3429 3329 -3430 0
-3430 -3431 -3432 0
-3430 3431 3432 0
3430 3431 -3432 0
3430 -3431 3432 0
3431 -9870 -3425 0
-3431 9870 0
-3431 3425 0
3432 -9869 -3433 0
-3432 9869 0
-3432 3433 0
-3433 -9920 -9922 0
-3433 9921 9922 0
-3433 9920 -9921 0
3433 -9920 -9921 9922 0
3433 9920 9921 -9922 0
3434 -3329 3433 -3435 0
3434 -3329 -3433 3435 0
-3434 3329 0
-3434 3433 3435 0
-3434 -3433 -3435 0
3435 9869 -3425 0
-3435 -9869 0
-3435 3425 0
-3436 -3437 -3441 0
-3436 3437 3441 0
3436 3437 -3441 0
3436 -3437 3441 0
-3437 3329 3438 0
-3437 -3329 -3438 0
3437 -3329 3438 0
3437 3329 -3438 0
-3438 -3439 -3440 0
-3438 3439 3440 0
3438 3439 -3440 0
3438 -3439 3440 0
3439 -9871 -3425 0
-3439 9871 0
-3439 3425 0
3440 -9870 -3433 0
-3440 9870 0
-3440 3433 0
3441 -3329 -3442 3443 0
3441 -3329 3442 -3443 0
-3441 3329 0
-3441 -3442 -3443 0
-3441 3442 3443 0
3442 69 -3425 0
-3442 -69 0
-3442 3425 0
3443 9869 -3433 0
-3443 -9869 0
-3443 3433 0
-3444 -3445 -3449 0
-3444 3445 3449 0
3444 3445 -3449 0
3444 -3445 3449 0
-3445 3329 3446 0
-3445 -3329 -3446 0
3445 -3329 3446 0
3445 3329 -3446 0
-3446 -3447 -3448 0
-3446 3447 3448 0
3446 3447 -3448 0
3446 -3447 3448 0
3447 -9872 -3425 0
-3447 9872 0
-3447 3425 0
3448 -9871 -3433 0
-3448 9871 0
-3448 3433 0
3449 -3329 -3450 3451 0
3449 -3329 3450 -3451 0
-3449 3329 0
-3449 -3450 -3451 0
-3449 3450 3451 0
3450 68 -3425 0
-3450 -68 0
-3450 3425 0
3451 69 -3433 0
-3451 -69 0
-3451 3433 0
-3452 -3453 -3457 0
-3452 3453 3457 0
3452 3453 -3457 0
3452 -3453 3457 0
-3453 3329 3454 0
-3453 -3329 -3454 0
3453 -3329 3454 0
3453 3329 -3454 0
-3454 -3455 -3456 0
-3454 3455 3456 0
3454 3455 -3456 0
3454 -3455 3456 0
3455 -9873 -3425 0
-3455 9873 0
-3455 3425 0
3456 -9872 -3433 0
-3456 9872 0
-3456 3433 0
3457 -3329 -3458 3459 0
3457 -3329 3458 -3459 0
-3457 3329 0
-3457 -3458 -3459 0
-3457 3458 3459 0
3458 67 -3425 0
-3458 -67 0
-3458 3425 0
3459 68 -3433 0
-3459 -68 0
-3459 3433 0
-3460 -3461 -3465 0
-3460 3461 3465 0
3460 3461 -3465 0
3460 -3461 3465 0
-3461 3329 3462 0
-3461 -3329 -3462 0
3461 -3329 3462 0
3461 3329 -3462 0
-3462 -3463 -3464 0
-3462 3463 3464 0
3462 3463 -3464 0
3462 -3463 3464 0
3463 -9874 -3425 0
-3463 9874 0
-3463 3425 0
3464 -9873 -3433 0
-3464 9873 0
-3464 3433 0
3465 -3329 -3466 3467 0
3465 -3329 3466 -3467 0
-3465 3329 0
-3465 -3466 -3467 0
-3465 3466 3467 0
3466 66 -3425 0
-3466 -66 0
-3466 3425 0
3467 67 -3433 0
-3467 -67 0
-3467 3433 0
-3468 -3469 -3473 0
-3468 3469 3473 0
3468 3469 -3473 0
3468 -3469 3473 0
-3469 3329 3470 0
-3469 -3329 -3470 0
3469 -3329 3470 0
3469 3329 -3470 0
-3470 -3471 -3472 0
-3470 3471 3472 0
3470 3471 -3472 0
3470 -3471 3472 0
3471 -9875 -3425 0
-3471 9875 0
-3471 3425 0
3472 -9874 -3433 0
-3472 9874 0
-3472 3433 0
3473 -3329 -3474 3475 0
3473 -3329 3474 -3475 0
-3473 3329 0
-3473 -3474 -3475 0
-3473 3474 3475 0
3474 65 -3425 0
-3474 -65 0
-3474 3425 0
3475 66 -3433 0
-3475 -66 0
-3475 3433 0
-3476 -3477 -3481 0
-3476 3477 3481 0
3476 3477 -3481 0
3476 -3477 3481 0
-3477 3329 3478 0
-3477 -3329 -3478 0
3477 -3329 3478 0
3477 3329 -3478 0
-3478 -3479 -3480 0
-3478 3479 3480 0
3478 3479 -3480 0
3478 -3479 3480 0
3479 -9876 -3425 0
-3479 9876 0
-3479 3425 0
3480 -9875 -3433 0
-3480 9875 0
-3480 3433 0
3481 -3329 -3482 3483 0
3481 -3329 3482 -3483 0
-3481 3329 0
-3481 -3482 -3483 0
-3481 3482 3483 0
3482 64 -3425 0
-3482 -64 0
-3482 3425 0
3483 65 -3433 0
-3483 -65 0
-3483 3433 0
-3484 -3485 -3489 0
-3484 3485 3489 0
3484 3485 -3489 0
3484 -3485 3489 0
-3485 3329 3486 0
-3485 -3329 -3486 0
3485 -3329 3486 0
3485 3329 -3486 0
-3486 -3487 -3488 0
-3486 3487 3488 0
3486 3487 -3488 0
3486 -3487 3488 0
3487 -9877 -3425 0
-3487 9877 0
-3487 3425 0
3488 -9876 -3433 0
-3488 9876 0
-3488 3433 0
3489 -3329 -3490 3491 0
3489 -3329 3490 -3491 0
-3489 3329 0
-3489 -3490 -3491 0
-3489 3490 3491 0
3490 63 -3425 0
-3490 -63 0
-3490 3425 0
3491 64 -3433 0
-3491 -64 0
-3491 3433 0
-3492 -3493 -3497 0
-3492 3493 3497 0
3492 3493 -3497 0
3492 -3493 3497 0
-3493 3329 3494 0
-3493 -3329 -3494 0
3493 -3329 3494 0
3493 3329 -3494 0
-3494 -3495 -3496 0
-3494 3495 3496 0
3494 3495 -3496 0
3494 -3495 3496 0
3495 -9878 -3425 0
-3495 9878 0
-3495 3425 0
3496 -9877 -3433 0
-3496 9877 0
-3496 3433 0
3497 -3329 -3498 3499 0
3497 -3329 3498 -3499 0
-3497 3329 0
-3497 -3498 -3499 0
-3497 3498 3499 0
3498 62 -3425 0
-3498 -62 0
-3498 3425 0
3499 63 -3433 0
-3499 -63 0
-3499 3433 0
-3500 -3501 -3505 0
-3500 3501 3505 0
3500 3501 -3505 0
3500 -3501 3505 0
-3501 3329 3502 0
-3501 -3329 -3502 0
3501 -3329 3502 0
3501 3329 -3502 0
-3502 -3503 -3504 0
-3502 3503 3504 0
3502 3503 -3504 0
3502 -3503 3504 0
3503 -9879 -3425 0
-3503 9879 0
-3503 3425 0
3504 -9878 -3433 0
-3504 9878 0
-3504 3433 0
3505 -3329 -3506 3507 0
3505 -3329 3506 -3507 0
-3505 3329 0
-3505 -3506 -3507 0
-3505 3506 3507 0
3506 61 -3425 0
-3506 -61 0
-3506 3425 0
3507 62 -3433 0
-3507 -62 0
-3507 3433 0
-3508 -3509 -3513 0
-3508 3509 3513 0
3508 3509 -3513 0
3508 -3509 3513 0
-3509 3329 3510 0
-3509 -3329 -3510 0
3509 -3329 3510 0
3509 3329 -3510 0
-3510 -3511 -3512 0
-3510 3511 3512 0
3510 3511 -3512 0
3510 -3511 3512 0
3511 -9880 -3425 0
-3511 9880 0
-3511 3425 0
3512 -9879 -3433 0
-3512 9879 0
-3512 3433 0
3513 -3329 -3514 3515 0
3513 -3329 3514 -3515 0
-3513 3329 0
-3513 -3514 -3515 0
-3513 3514 3515 0
3514 60 -3425 0
-3514 -60 0
-3514 3425 0
3515 61 -3433 0
-3515 -61 0
-3515 3433 0
-3516 -3517 -3521 0
-3516 3517 3521 0
3516 3517 -3521 0
3516 -3517 3521 0
-3517 3329 3518 0
-3517 -3329 -3518 0
3517 -3329 3518 0
3517 3329 -3518 0
-3518 -3519 -3520 0
-3518 3519 3520 0
3518 3519 -3520 0
3518 -3519 3520 0
3519 -9881 -3425 0
-3519 9881 0
-3519 3425 0
3520 -9880 -3433 0
-3520 9880 0
-3520 3433 0
3521 -3329 -3522 3523 0
3521 -3329 3522 -3523 0
-3521 3329 0
-3521 -3522 -3523 0
-3521 3522 3523 0
3522 59 -3425 0
-3522 -59 0
-3522 3425 0
3523 60 -3433 0
-3523 -60 0
-3523 3433 0
-3524 -3525 -3529 0
-3524 3525 3529 0
3524 3525 -3529 0
3524 -3525 3529 0
-3525 3329 3526 0
-3525 -3329 -3526 0
3525 -3329 3526 0
3525 3329 -3526 0
-3526 -3527 -3528 0
-3526 3527 3528 0
3526 3527 -3528 0
3526 -3527 3528 0
3527 -9882 -3425 0
-3527 9882 0
-3527 3425 0
3528 -9881 -3433 0
-3528 9881 0
-3528 3433 0
3529 -3329 -3530 3531 0
3529 -3329 3530 -3531 0
-3529 3329 0
-3529 -3530 -3531 0
-3529 3530 3531 0
3530 58 -3425 0
-3530 -58 0
-3530 3425 0
3531 59 -3433 0
-3531 -59 0
-3531 3433 0
-3532 -3533 -3537 0
-3532 3533 3537 0
3532 3533 -3537 0
3532 -3533 3537 0
-3533 3329 3534 0
-3533 -3329 -3534 0
3533 -3329 3534 0
3533 3329 -3534 0
-3534 -3535 -3536 0
-3534 3535 3536 0
3534 3535 -3536 0
3534 -3535 3536 0
3535 -9883 -3425 0
-3535 9883 0
-3535 3425 0
3536 -9882 -3433 0
-3536 9882 0
-3536 3433 0
3537 -3329 -3538 3539 0
3537 -3329 3538 -3539 0
-3537 3329 0
-3537 -3538 -3539 0
-3537 3538 3539 0
3538 57 -3425 0
-3538 -57 0
-3538 3425 0
3539 58 -3433 0
-3539 -58 0
-3539 3433 0
-3540 -3541 -3545 0
-3540 3541 3545 0
3540 3541 -3545 0
3540 -3541 3545 0
-3541 3329 3542 0
-3541 -3329 -3542 0
3541 -3329 3542 0
3541 3329 -3542 0
-3542 -3543 -3544 0
-3542 3543 3544 0
3542 3543 -3544 0
3542 -3543 3544 0
3543 -9884 -3425 0
-3543 9884 0
-3543 3425 0
3544 -9883 -3433 0
-3544 9883 0
-3544 3433 0
3545 -3329 -3546 3547 0
3545 -3329 3546 -3547 0
-3545 3329 0
-3545 -3546 -3547 0
-3545 3546 3547 0
3546 56 -3425 0
-3546 -56 0
-3546 3425 0
3547 57 -3433 0
-3547 -57 0
-3547 3433 0
-3548 -3549 -3553 0
-3548 3549 3553 0
3548 3549 -3553 0
3548 -3549 3553 0
-3549 3329 3550 0
-3549 -3329 -3550 0
3549 -3329 3550 0
3549 3329 -3550 0
-3550 -3551 -3552 0
-3550 3551 3552 0
3550 3551 -3552 0
3550 -3551 3552 0
3551 -9885 -3425 0
-3551 9885 0
-3551 3425 0
3552 -9884 -3433 0
-3552 9884 0
-3552 3433 0
3553 -3329 -3554 3555 0
3553 -3329 3554 -3555 0
-3553 3329 0
-3553 -3554 -3555 0
-3553 3554 3555 0
3554 55 -3425 0
-3554 -55 0
-3554 3425 0
3555 56 -3433 0
-3555 -56 0
-3555 3433 0
-3556 -3557 -3561 0
-3556 3557 3561 0
3556 3557 -3561 0
3556 -3557 3561 0
-3557 3329 3558 0
-3557 -3329 -3558 0
3557 -3329 3558 0
3557 3329 -3558 0
-3558 -3559 -3560 0
-3558 3559 3560 0
3558 3559 -3560 0
3558 -3559 3560 0
3559 -9886 -3425 0
-3559 9886 0
-3559 3425 0
3560 -9885 -3433 0
-3560 9885 0
-3560 3433 0
3561 -3329 -3562 3563 0
3561 -3329 3562 -3563 0
-3561 3329 0
-3561 -3562 -3563 0
-3561 3562 3563 0
3562 54 -3425 0
-3562 -54 0
-3562 3425 0
3563 55 -3433 0
-3563 -55 0
-3563 3433 0
-3564 -3565 -3569 0
-3564 3565 3569 0
3564 3565 -3569 0
3564 -3565 3569 0
-3565 3329 3566 0
-3565 -3329 -3566 0
3565 -3329 3566 0
3565 3329 -3566 0
-3566 -3567 -3568 0
-3566 3567 3568 0
3566 3567 -3568 0
3566 -3567 3568 0
3567 -9887 -3425 0
-3567 9887 0
-3567 3425 0
3568 -9886 -3433 0
-3568 9886 0
-3568 3433 0
3569 -3329 -3570 3571 0
3569 -3329 3570 -3571 0
-3569 3329 0
-3569 -3570 -3571 0
-3569 3570 3571 0
3570 53 -3425 0
-3570 -53 0
-3570 3425 0
3571 54 -3433 0
-3571 -54 0
-3571 3433 0
-3572 -3573 -3577 0
-3572 3573 3577 0
3572 3573 -3577 0
3572 -3573 3577 0
-3573 3329 3574 0
-3573 -3329 -3574 0
3573 -3329 3574 0
3573 3329 -3574 0
-3574 -3575 -3576 0
-3574 3575 3576 0
3574 3575 -3576 0
3574 -3575 3576 0
3575 -9888 -3425 0
-3575 9888 0
-3575 3425 0
3576 -9887 -3433 0
-3576 9887 0
-3576 3433 0
3577 -3329 -3578 3579 0
3577 -3329 3578 -3579 0
-3577 3329 0
-3577 -3578 -3579 0
-3577 3578 3579 0
3578 52 -3425 0
-3578 -52 0
-3578 3425 0
3579 53 -3433 0
-3579 -53 0
-3579 3433 0
-3580 -3581 -3585 0
-3580 3581 3585 0
3580 3581 -3585 0
3580 -3581 3585 0
-3581 3329 3582 0
-3581 -3329 -3582 0
3581 -3329 3582 0
3581 3329 -3582 0
-3582 -3583 -3584 0
-3582 3583 3584 0
3582 3583 -3584 0
3582 -3583 3584 0
3583 -9889 -3425 0
-3583 9889 0
-3583 3425 0
3584 -9888 -3433 0
-3584 9888 0
-3584 3433 0
3585 -3329 -3586 3587 0
3585 -3329 3586 -3587 0
-3585 3329 0
-3585 -3586 -3587 0
-3585 3586 3587 0
3586 51 -3425 0
-3586 -51 0
-3586 3425 0
3587 52 -3433 0
-3587 -52 0
-3587 3433 0
-3588 -3589 -3593 0
-3588 3589 3593 0
3588 3589 -3593 0
3588 -3589 3593 0
-3589 3329 3590 0
-3589 -3329 -3590 0
3589 -3329 3590 0
3589 3329 -3590 0
-3590 -3591 -3592 0
-3590 3591 3592 0
3590 3591 -3592 0
3590 -3591 3592 0
3591 -9890 -3425 0
-3591 9890 0
-3591 3425 0
3592 -9889 -3433 0
-3592 9889 0
-3592 3433 0
3593 -3329 -3594 3595 0
3593 -3329 3594 -3595 0
-3593 3329 0
-3593 -3594 -3595 0
-3593 3594 3595 0
3594 50 -3425 0
-3594 -50 0
-3594 3425 0
3595 51 -3433 0
-3595 -51 0
-3595 3433 0
-3596 -3597 -3601 0
-3596 3597 3601 0
3596 3597 -3601 0
3596 -3597 3601 0
-3597 3329 3598 0
-3597 -3329 -3598 0
3597 -3329 3598 0
3597 3329 -3598 0
-3598 -3599 -3600 0
-3598 3599 3600 0
3598 3599 -3600 0
3598 -3599 3600 0
3599 -9891 -3425 0
-3599 9891 0
-3599 3425 0
3600 -9890 -3433 0
-3600 9890 0
-3600 3433 0
3601 -3329 -3602 3603 0
3601 -3329 3602 -3603 0
-3601 3329 0
-3601 -3602 -3603 0
-3601 3602 3603 0
3602 49 -3425 0
-3602 -49 0
-3602 3425 0
3603 50 -3433 0
-3603 -50 0
-3603 3433 0
-3604 -3605 -3609 0
-3604 3605 3609 0
3604 3605 -3609 0
3604 -3605 3609 0
-3605 3329 3606 0
-3605 -3329 -3606 0
3605 -3329 3606 0
3605 3329 -3606 0
-3606 -3607 -3608 0
-3606 3607 3608 0
3606 3607 -3608 0
3606 -3607 3608 0
3607 -9892 -3425 0
-3607 9892 0
-3607 3425 0
3608 -9891 -3433 0
-3608 9891 0
-3608 3433 0
3609 -3329 -3610 3611 0
3609 -3329 3610 -3611 0
-3609 3329 0
-3609 -3610 -3611 0
-3609 3610 3611 0
3610 48 -3425 0
-3610 -48 0
-3610 3425 0
3611 49 -3433 0
-3611 -49 0
-3611 3433 0
-3612 -3613 -3617 0
-3612 3613 3617 0
3612 3613 -3617 0
3612 -3613 3617 0
-3613 3329 3614 0
-3613 -3329 -3614 0
3613 -3329 3614 0
3613 3329 -3614 0
-3614 -3615 -3616 0
-3614 3615 3616 0
3614 3615 -3616 0
3614 -3615 3616 0
3615 -9893 -3425 0
-3615 9893 0
-3615 3425 0
3616 -9892 -3433 0
-3616 9892 0
-3616 3433 0
3617 -3329 -3618 3619 0
3617 -3329 3618 -3619 0
-3617 3329 0
-3617 -3618 -3619 0
-3617 3618 3619 0
3618 47 -3425 0
-3618 -47 0
-3618 3425 0
3619 48 -3433 0
-3619 -48 0
-3619 3433 0
-3620 -3621 -3625 0
-3620 3621 3625 0
3620 3621 -3625 0
3620 -3621 3625 0
-3621 3329 3622 0
-3621 -3329 -3622 0
3621 -3329 3622 0
3621 3329 -3622 0
-3622 -3623 -3624 0
-3622 3623 3624 0
3622 3623 -3624 0
3622 -3623 3624 0
3623 -9894 -3425 0
-3623 9894 0
-3623 3425 0
3624 -9893 -3433 0
-3624 9893 0
-3624 3433 0
3625 -3329 -3626 3627 0
3625 -3329 3626 -3627 0
-3625 3329 0
-3625 -3626 -3627 0
-3625 3626 3627 0
3626 46 -3425 0
-3626 -46 0
-3626 3425 0
3627 47 -3433 0
-3627 -47 0
-3627 3433 0
-3628 -3629 -3633 0
-3628 3629 3633 0
3628 3629 -3633 0
3628 -3629 3633 0
-3629 3329 3630 0
-3629 -3329 -3630 0
3629 -3329 3630 0
3629 3329 -3630 0
-3630 -3631 -3632 0
-3630 3631 3632 0
3630 3631 -3632 0
3630 -3631 3632 0
3631 -9895 -3425 0
-3631 9895 0
-3631 3425 0
3632 -9894 -3433 0
-3632 9894 0
-3632 3433 0
3633 -3329 -3634 3635 0
3633 -3329 3634 -3635 0
-3633 3329 0
-3633 -3634 -3635 0
-3633 3634 3635 0
3634 45 -3425 0
-3634 -45 0
-3634 3425 0
3635 46 -3433 0
-3635 -46 0
-3635 3433 0
-3636 -3637 -3641 0
-3636 3637 3641 0
3636 3637 -3641 0
3636 -3637 3641 0
-3637 3329 3638 0
-3637 -3329 -3638 0
3637 -3329 3638 0
3637 3329 -3638 0
-3638 -3639 -3640 0
-3638 3639 3640 0
3638 3639 -3640 0
3638 -3639 3640 0
3639 -9896 -3425 0
-3639 9896 0
-3639 3425 0
3640 -9895 -3433 0
-3640 9895 0
-3640 3433 0
3641 -3329 -3642 3643 0
3641 -3329 3642 -3643 0
-3641 3329 0
-3641 -3642 -3643 0
-3641 3642 3643 0
3642 44 -3425 0
-3642 -44 0
-3642 3425 0
3643 45 -3433 0
-3643 -45 0
-3643 3433 0
-3644 -3645 -3649 0
-3644 3645 3649 0
3644 3645 -3649 0
3644 -3645 3649 0
-3645 3329 3646 0
-3645 -3329 -3646 0
3645 -3329 3646 0
3645 3329 -3646 0
-3646 -3647 -3648 0
-3646 3647 3648 0
3646 3647 -3648 0
3646 -3647 3648 0
3647 -9897 -3425 0
-3647 9897 0
-3647 3425 0
3648 -9896 -3433 0
-3648 9896 0
-3648 3433 0
3649 -3329 -3650 3651 0
3649 -3329 3650 -3651 0
-3649 3329 0
-3649 -3650 -3651 0
-3649 3650 3651 0
3650 43 -3425 0
-3650 -43 0
-3650 3425 0
3651 44 -3433 0
-3651 -44 0
-3651 3433 0
-3652 -3653 -3657 0
-3652 3653 3657 0
3652 3653 -3657 0
3652 -3653 3657 0
-3653 3329 3654 0
-3653 -3329 -3654 0
3653 -3329 3654 0
3653 3329 -3654 0
-3654 -3655 -3656 0
-3654 3655 3656 0
3654 3655 -3656 0
3654 -3655 3656 0
3655 -9898 -3425 0
-3655 9898 0
-3655 3425 0
3656 -9897 -3433 0
-3656 9897 0
-3656 3433 0
3657 -3329 -3658 3659 0
3657 -3329 3658 -3659 0
-3657 3329 0
-3657 -3658 -3659 0
-3657 3658 3659 0
3658 42 -3425 0
-3658 -42 0
-3658 3425 0
3659 43 -3433 0
-3659 -43 0
-3659 3433 0
-3660 -3661 -3665 0
-3660 3661 3665 0
3660 3661 -3665 0
3660 -3661 3665 0
-3661 3329 3662 0
-3661 -3329 -3662 0
3661 -3329 3662 0
3661 3329 -3662 0
-3662 -3663 -3664 0
-3662 3663 3664 0
3662 3663 -3664 0
3662 -3663 3664 0
3663 -9899 -3425 0
-3663 9899 0
-3663 3425 0
3664 -9898 -3433 0
-3664 9898 0
-3664 3433 0
3665 -3329 -3666 3667 0
3665 -3329 3666 -3667 0
-3665 3329 0
-3665 -3666 -3667 0
-3665 3666 3667 0
3666 41 -3425 0
-3666 -41 0
-3666 3425 0
3667 42 -3433 0
-3667 -42 0
-3667 3433 0
-3668 -3669 -3673 0
-3668 3669 3673 0
3668 3669 -3673 0
3668 -3669 3673 0
-3669 3329 3670 0
-3669 -3329 -3670 0
3669 -3329 3670 0
3669 3329 -3670 0
-3670 -3671 -3672 0
-3670 3671 3672 0
3670 3671 -3672 0
3670 -3671 3672 0
3671 -9900 -3425 0
-3671 9900 0
-3671 3425 0
3672 -9899 -3433 0
-3672 9899 0
-3672 3433 0
3673 -3329 -3674 3675 0
3673 -3329 3674 -3675 0
-3673 3329 0
-3673 -3674 -3675 0
-3673 3674 3675 0
3674 40 -3425 0
-3674 -40 0
-3674 3425 0
3675 41 -3433 0
-3675 -41 0
-3675 3433 0
-3676 -3677 -3679 0
-3676 3677 3679 0
3676 3677 -3679 0
3676 -3677 3679 0
-3677 -3329 -3678 0
-3677 3329 3678 0
3677 3329 -3678 0
3677 -3329 3678 0
3678 -9900 -3433 0
-3678 9900 0
-3678 3433 0
3679 -3329 -3680 3681 0
3679 -3329 3680 -3681 0
-3679 3329 0
-3679 -3680 -3681 0
-3679 3680 3681 0
3680 39 -3425 0
-3680 -39 0
-3680 3425 0
3681 40 -3433 0
-3681 -40 0
-3681 3433 0
-3682 3683 0
3682 -3683 0
3683 -39 -3684 0
-3683 39 0
-3683 3684 0
-3684 3685 0
3684 -3685 0
3685 9923 -9924 0
3685 9922 -9924 0
-3685 9924 0
-3685 -9922 -9923 0
-3686 17 3687 0
-3686 3687 4031 0
-3686 17 4031 0
3686 -17 -4031 0
3686 -3687 -4031 0
3686 -17 -3687 0
-3687 17 3688 0
-3687 3688 4023 0
-3687 17 4023 0
3687 -17 -4023 0
3687 -3688 -4023 0
3687 -17 -3688 0
-3688 3689 3691 0
-3688 3691 4015 0
-3688 3689 4015 0
3688 -3689 -4015 0
3688 -3691 -4015 0
3688 -3689 -3691 0
-3689 3332 3690 0
-3689 -3332 -3690 0
3689 -3332 3690 0
3689 3332 -3690 0
-3690 19 3676 0
-3690 -19 -3676 0
3690 -19 3676 0
3690 19 -3676 0
-3691 3692 3694 0
-3691 3694 4007 0
-3691 3692 4007 0
3691 -3692 -4007 0
3691 -3694 -4007 0
3691 -3692 -3694 0
-3692 3333 3693 0
-3692 -3333 -3693 0
3692 -3333 3693 0
3692 3333 -3693 0
-3693 19 3668 0
-3693 -19 -3668 0
3693 -19 3668 0
3693 19 -3668 0
-3694 3695 3697 0
-3694 3697 3999 0
-3694 3695 3999 0
3694 -3695 -3999 0
3694 -3697 -3999 0
3694 -3695 -3697 0
-3695 3336 3696 0
-3695 -3336 -3696 0
3695 -3336 3696 0
3695 3336 -3696 0
-3696 3334 3660 0
-3696 -3334 -3660 0
3696 -3334 3660 0
3696 3334 -3660 0
-3697 3698 3700 0
-3697 3700 3991 0
-3697 3698 3991 0
3697 -3698 -3991 0
3697 -3700 -3991 0
3697 -3698 -3700 0
-3698 3339 3699 0
-3698 -3339 -3699 0
3698 -3339 3699 0
3698 3339 -3699 0
-3699 3337 3652 0
-3699 -3337 -3652 0
3699 -3337 3652 0
3699 3337 -3652 0
-3700 3701 3703 0
-3700 3703 3983 0
-3700 3701 3983 0
3700 -3701 -3983 0
3700 -3703 -3983 0
3700 -3701 -3703 0
-3701 3342 3702 0
-3701 -3342 -3702 0
3701 -3342 3702 0
3701 3342 -3702 0
-3702 3340 3644 0
-3702 -3340 -3644 0
3702 -3340 3644 0
3702 3340 -3644 0
-3703 3704 3706 0
-3703 3706 3975 0
-3703 3704 3975 0
3703 -3704 -3975 0
3703 -3706 -3975 0
3703 -3704 -3706 0
-3704 3345 3705 0
-3704 -3345 -3705 0
3704 -3345 3705 0
3704 3345 -3705 0
-3705 3343 3636 0
-3705 -3343 -3636 0
3705 -3343 3636 0
3705 3343 -3636 0
-3706 3707 3709 0
-3706 3709 3967 0
-3706 3707 3967 0
3706 -3707 -3967 0
3706 -3709 -3967 0
3706 -3707 -3709 0
-3707 3348 3708 0
-3707 -3348 -3708 0
3707 -3348 3708 0
3707 3348 -3708 0
-3708 3346 3628 0
-3708 -3346 -3628 0
3708 -3346 3628 0
3708 3346 -3628 0
-3709 3710 3712 0
-3709 3712 3959 0
-3709 3710 3959 0
3709 -3710 -3959 0
3709 -3712 -3959 0
3709 -3710 -3712 0
-3710 3351 3711 0
-3710 -3351 -3711 0
3710 -3351 3711 0
3710 3351 -3711 0
-3711 3349 3620 0
-3711 -3349 -3620 0
3711 -3349 3620 0
3711 3349 -3620 0
-3712 3713 3715 0
-3712 3715 3951 0
-3712 3713 3951 0
3712 -3713 -3951 0
3712 -3715 -3951 0
3712 -3713 -3715 0
-3713 3354 3714 0
-3713 -3354 -3714 0
3713 -3354 3714 0
3713 3354 -3714 0
-3714 3352 3612 0
-3714 -3352 -3612 0
3714 -3352 3612 0
3714 3352 -3612 0
-3715 3716 3718 0
-3715 3718 3943 0
-3715 3716 3943 0
3715 -3716 -3943 0
3715 -3718 -3943 0
3715 -3716 -3718 0
-3716 3357 3717 0
-3716 -3357 -3717 0
3716 -3357 3717 0
3716 3357 -3717 0
-3717 3355 3604 0
-3717 -3355 -3604 0
3717 -3355 3604 0
3717 3355 -3604 0
-3718 3719 3721 0
-3718 3721 3935 0
-3718 3719 3935 0
3718 -3719 -3935 0
3718 -3721 -3935 0
3718 -3719 -3721 0
-3719 3360 3720 0
-3719 -3360 -3720 0
3719 -3360 3720 0
3719 3360 -3720 0
-3720 3358 3596 0
-3720 -3358 -3596 0
3720 -3358 3596 0
3720 3358 -3596 0
-3721 3722 3724 0
-3721 3724 3927 0
-3721 3722 3927 0
3721 -3722 -3927 0
3721 -3724 -3927 0
3721 -3722 -3724 0
-3722 3363 3723 0
-3722 -3363 -3723 0
3722 -3363 3723 0
3722 3363 -3723 0
-3723 3361 3588 0
-3723 -3361 -3588 0
3723 -3361 3588 0
3723 3361 -3588 0
-3724 3725 3727 0
-3724 3727 3919 0
-3724 3725 3919 0
3724 -3725 -3919 0
3724 -3727 -3919 0
3724 -3725 -3727 0
-3725 3366 3726 0
-3725 -3366 -3726 0
3725 -3366 3726 0
3725 3366 -3726 0
-3726 3364 3580 0
-3726 -3364 -3580 0
3726 -3364 3580 0
3726 3364 -3580 0
-3727 3728 3730 0
-3727 3730 3911 0
-3727 3728 3911 0
3727 -3728 -3911 0
3727 -3730 -3911 0
3727 -3728 -3730 0
-3728 3369 3729 0
-3728 -3369 -3729 0
3728 -3369 3729 0
3728 3369 -3729 0
-3729 3367 3572 0
-3729 -3367 -3572 0
3729 -3367 3572 0
3729 3367 -3572 0
-3730 3731 3733 0
-3730 3733 3903 0
-3730 3731 3903 0
3730 -3731 -3903 0
3730 -3733 -3903 0
3730 -3731 -3733 0
-3731 3372 3732 0
-3731 -3372 -3732 0
3731 -3372 3732 0
3731 3372 -3732 0
-3732 3370 3564 0
-3732 -3370 -3564 0
3732 -3370 3564 0
3732 3370 -3564 0
-3733 3734 3736 0
-3733 3736 3895 0
-3733 3734 3895 0
3733 -3734 -3895 0
3733 -3736 -3895 0
3733 -3734 -3736 0
-3734 3375 3735 0
-3734 -3375 -3735 0
3734 -3375 3735 0
3734 3375 -3735 0
-3735 3373 3556 0
-3735 -3373 -3556 0
3735 -3373 3556 0
3735 3373 -3556 0
-3736 3737 3739 0
-3736 3739 3887 0
-3736 3737 3887 0
3736 -3737 -3887 0
3736 -3739 -3887 0
3736 -3737 -3739 0
-3737 3378 3738 0
-3737 -3378 -3738 0
3737 -3378 3738 0
3737 3378 -3738 0
-3738 3376 3548 0
-3738 -3376 -3548 0
3738 -3376 3548 0
3738 3376 -3548 0
-3739 3740 3742 0
-3739 3742 3879 0
-3739 3740 3879 0
3739 -3740 -3879 0
3739 -3742 -3879 0
3739 -3740 -3742 0
-3740 3381 3741 0
-3740 -3381 -3741 0
3740 -3381 3741 0
3740 3381 -3741 0
-3741 3379 3540 0
-3741 -3379 -3540 0
3741 -3379 3540 0
3741 3379 -3540 0
-3742 3743 3745 0
-3742 3745 3871 0
-3742 3743 3871 0
3742 -3743 -3871 0
3742 -3745 -3871 0
3742 -3743 -3745 0
-3743 3384 3744 0
-3743 -3384 -3744 0
3743 -3384 3744 0
3743 3384 -3744 0
-3744 3382 3532 0
-3744 -3382 -3532 0
3744 -3382 3532 0
3744 3382 -3532 0
-3745 3746 3748 0
-3745 3748 3863 0
-3745 3746 3863 0
3745 -3746 -3863 0
3745 -3748 -3863 0
3745 -3746 -3748 0
-3746 3387 3747 0
-3746 -3387 -3747 0
3746 -3387 3747 0
3746 3387 -3747 0
-3747 3385 3524 0
-3747 -3385 -3524 0
3747 -3385 3524 0
3747 3385 -3524 0
-3748 3749 3751 0
-3748 3751 3855 0
-3748 3749 3855 0
3748 -3749 -3855 0
3748 -3751 -3855 0
3748 -3749 -3751 0
-3749 3390 3750 0
-3749 -3390 -3750 0
3749 -3390 3750 0
3749 3390 -3750 0
-3750 3388 3516 0
-3750 -3388 -3516 0
3750 -3388 3516 0
3750 3388 -3516 0
-3751 3752 3754 0
-3751 3754 3847 0
-3751 3752 3847 0
3751 -3752 -3847 0
3751 -3754 -3847 0
3751 -3752 -3754 0
-3752 3393 3753 0
-3752 -3393 -3753 0
3752 -3393 3753 0
3752 3393 -3753 0
-3753 3391 3508 0
-3753 -3391 -3508 0
3753 -3391 3508 0
3753 3391 -3508 0
-3754 3755 3757 0
-3754 3757 3839 0
-3754 3755 3839 0
3754 -3755 -3839 0
3754 -3757 -3839 0
3754 -3755 -3757 0
-3755 3396 3756 0
-3755 -3396 -3756 0
3755 -3396 3756 0
3755 3396 -3756 0
-3756 3394 3500 0
-3756 -3394 -3500 0
3756 -3394 3500 0
3756 3394 -3500 0
-3757 3758 3760 0
-3757 3760 3831 0
-3757 3758 3831 0
3757 -3758 -3831 0
3757 -3760 -3831 0
3757 -3758 -3760 0
-3758 3399 3759 0
-3758 -3399 -3759 0
3758 -3399 3759 0
3758 3399 -3759 0
-3759 3397 3492 0
-3759 -3397 -3492 0
3759 -3397 3492 0
3759 3397 -3492 0
-3760 3761 3763 0
-3760 3763 3823 0
-3760 3761 3823 0
3760 -3761 -3823 0
3760 -3763 -3823 0
3760 -3761 -3763 0
-3761 3402 3762 0
-3761 -3402 -3762 0
3761 -3402 3762 0
3761 3402 -3762 0
-3762 3400 3484 0
-3762 -3400 -3484 0
3762 -3400 3484 0
3762 3400 -3484 0
-3763 3764 3766 0
-3763 3766 3815 0
-3763 3764 3815 0
3763 -3764 -3815 0
3763 -3766 -3815 0
3763 -3764 -3766 0
-3764 3405 3765 0
-3764 -3405 -3765 0
3764 -3405 3765 0
3764 3405 -3765 0
-3765 3403 3476 0
-3765 -3403 -3476 0
3765 -3403 3476 0
3765 3403 -3476 0
-3766 3767 3769 0
-3766 3769 3807 0
-3766 3767 3807 0
3766 -3767 -3807 0
3766 -3769 -3807 0
3766 -3767 -3769 0
-3767 3408 3768 0
-3767 -3408 -3768 0
3767 -3408 3768 0
3767 3408 -3768 0
-3768 3406 3468 0
-3768 -3406 -3468 0
3768 -3406 3468 0
3768 3406 -3468 0
-3769 3770 3772 0
-3769 3772 3799 0
-3769 3770 3799 0
3769 -3770 -3799 0
3769 -3772 -3799 0
3769 -3770 -3772 0
-3770 3411 3771 0
-3770 -3411 -3771 0
3770 -3411 3771 0
3770 3411 -3771 0
-3771 3409 3460 0
-3771 -3409 -3460 0
3771 -3409 3460 0
3771 3409 -3460 0
-3772 3773 3775 0
-3772 3775 3791 0
-3772 3773 3791 0
3772 -3773 -3791 0
3772 -3775 -3791 0
3772 -3773 -3775 0
-3773 3414 3774 0
-3773 -3414 -3774 0
3773 -3414 3774 0
3773 3414 -3774 0
-3774 3412 3452 0
-3774 -3412 -3452 0
3774 -3412 3452 0
3774 3412 -3452 0
-3775 3776 3783 0
-3775 3776 3778 0
-3775 3778 3783 0
3775 -3778 -3783 0
3775 -3776 -3783 0
3775 -3776 -3778 0
-3776 3417 3777 0
-3776 -3417 -3777 0
3776 -3417 3777 0
3776 3417 -3777 0
-3777 3415 3444 0
-3777 -3415 -3444 0
3777 -3415 3444 0
3777 3415 -3444 0
3778 -3779 -3781 0
-3778 3779 0
-3778 3781 0
3779 -9869 -3780 0
-3779 9869 0
-3779 3780 0
-3780 -9922 -9923 0
-3780 9922 9923 0
3780 9922 -9923 0
3780 -9922 9923 0
-3781 3420 3782 0
-3781 -3420 -3782 0
3781 -3420 3782 0
3781 3420 -3782 0
-3782 3418 3436 0
-3782 -3418 -3436 0
3782 -3418 3436 0
3782 3418 -3436 0
-3783 -3784 -3789 0
-3783 3784 3789 0
3783 3784 -3789 0
3783 -3784 3789 0
-3784 3684 3785 0
-3784 -3684 -3785 0
3784 -3684 3785 0
3784 3684 -3785 0
-3785 -3786 -3787 0
-3785 3786 3787 0
3785 3786 -3787 0
3785 -3786 3787 0
3786 -9870 -3780 0
-3786 9870 0
-3786 3780 0
3787 -9869 -3788 0
-3787 9869 0
-3787 3788 0
-3788 -9922 -9924 0
-3788 9923 9924 0
-3788 9922 -9923 0
3788 -9922 -9923 9924 0
3788 9922 9923 -9924 0
3789 -3684 3788 -3790 0
3789 -3684 -3788 3790 0
-3789 3684 0
-3789 3788 3790 0
-3789 -3788 -3790 0
3790 9869 -3780 0
-3790 -9869 0
-3790 3780 0
-3791 -3792 -3796 0
-3791 3792 3796 0
3791 3792 -3796 0
3791 -3792 3796 0
-3792 3684 3793 0
-3792 -3684 -3793 0
3792 -3684 3793 0
3792 3684 -3793 0
-3793 -3794 -3795 0
-3793 3794 3795 0
3793 3794 -3795 0
3793 -3794 3795 0
3794 -9871 -3780 0
-3794 9871 0
-3794 3780 0
3795 -9870 -3788 0
-3795 9870 0
-3795 3788 0
3796 -3684 -3797 3798 0
3796 -3684 3797 -3798 0
-3796 3684 0
-3796 -3797 -3798 0
-3796 3797 3798 0
3797 69 -3780 0
-3797 -69 0
-3797 3780 0
3798 9869 -3788 0
-3798 -9869 0
-3798 3788 0
-3799 -3800 -3804 0
-3799 3800 3804 0
3799 3800 -3804 0
3799 -3800 3804 0
-3800 3684 3801 0
-3800 -3684 -3801 0
3800 -3684 3801 0
3800 3684 -3801 0
-3801 -3802 -3803 0
-3801 3802 3803 0
3801 3802 -3803 0
3801 -3802 3803 0
3802 -9872 -3780 0
-3802 9872 0
-3802 3780 0
3803 -9871 -3788 0
-3803 9871 0
-3803 3788 0
3804 -3684 -3805 3806 0
3804 -3684 3805 -3806 0
-3804 3684 0
-3804 -3805 -3806 0
-3804 3805 3806 0
3805 68 -3780 0
-3805 -68 0
-3805 3780 0
3806 69 -3788 0
-3806 -69 0
-3806 3788 0
-3807 -3808 -3812 0
-3807 3808 3812 0
3807 3808 -3812 0
3807 -3808 3812 0
-3808 3684 3809 0
-3808 -3684 -3809 0
3808 -3684 3809 0
3808 3684 -3809 0
-3809 -3810 -3811 0
-3809 3810 3811 0
3809 3810 -3811 0
3809 -3810 3811 0
3810 -9873 -3780 0
-3810 9873 0
-3810 3780 0
3811 -9872 -3788 0
-3811 9872 0
-3811 3788 0
3812 -3684 -3813 3814 0
3812 -3684 3813 -3814 0
-3812 3684 0
-3812 -3813 -3814 0
-3812 3813 3814 0
3813 67 -3780 0
-3813 -67 0
-3813 3780 0
3814 68 -3788 0
-3814 -68 0
-3814 3788 0
-3815 -3816 -3820 0
-3815 3816 3820 0
3815 3816 -3820 0
3815 -3816 3820 0
-3816 3684 3817 0
-3816 -3684 -3817 0
3816 -3684 3817 0
3816 3684 -3817 0
-3817 -3818 -3819 0
-3817 3818 3819 0
3817 3818 -3819 0
3817 -3818 3819 0
3818 -9874 -3780 0
-3818 9874 0
-3818 3780 0
3819 -9873 -3788 0
-3819 9873 0
-3819 3788 0
3820 -3684 -3821 3822 0
3820 -3684 3821 -3822 0
-3820 3684 0
-3820 -3821 -3822 0
-3820 3821 3822 0
3821 66 -3780 0
-3821 -66 0
-3821 3780 0
3822 67 -3788 0
-3822 -67 0
-3822 3788 0
-3823 -3824 -3828 0
-3823 3824 3828 0
3823 3824 -3828 0
3823 -3824 3828 0
-3824 3684 3825 0
-3824 -3684 -3825 0
3824 -3684 3825 0
3824 3684 -3825 0
-3825 -3826 -3827 0
-3825 3826 3827 0
3825 3826 -3827 0
3825 -3826 3827 0
3826 -9875 -3780 0
-3826 9875 0
-3826 3780 0
3827 -9874 -3788 0
-3827 9874 0
-3827 3788 0
3828 -3684 -3829 3830 0
3828 -3684 3829 -3830 0
-3828 3684 0
-3828 -3829 -3830 0
-3828 3829 3830 0
3829 65 -3780 0
-3829 -65 0
-3829 3780 0
3830 66 -3788 0
-3830 -66 0
-3830 3788 0
-3831 -3832 -3836 0
-3831 3832 3836 0
3831 3832 -3836 0
3831 -3832 3836 0
-3832 3684 3833 0
-3832 -3684 -3833 0
3832 -3684 3833 0
3832 3684 -3833 0
-3833 -3834 -3835 0
-3833 3834 3835 0
3833 3834 -3835 0
3833 -3834 3835 0
3834 -9876 -3780 0
-3834 9876 0
-3834 3780 0
3835 -9875 -3788 0
-3835 9875 0
-3835 3788 0
3836 -3684 -3837 3838 0
3836 -3684 3837 -3838 0
-3836 3684 0
-3836 -3837 -3838 0
-3836 3837 3838 0
3837 64 -3780 0
-3837 -64 0
-3837 3780 0
3838 65 -3788 0
-3838 -65 0
-3838 3788 0
-3839 -3840 -3844 0
-3839 3840 3844 0
3839 3840 -3844 0
3839 -3840 3844 0
-3840 3684 3841 0
-3840 -3684 -3841 0
3840 -3684 3841 0
3840 3684 -3841 0
-3841 -3842 -3843 0
-3841 3842 3843 0
3841 3842 -3843 0
3841 -3842 3843 0
3842 -9877 -3780 0
-3842 9877 0
-3842 3780 0
3843 -9876 -3788 0
-3843 9876 0
-3843 3788 0
3844 -3684 -3845 3846 0
3844 -3684 3845 -3846 0
-3844 3684 0
-3844 -3845 -3846 0
-3844 3845 3846 0
3845 63 -3780 0
-3845 -63 0
-3845 3780 0
3846 64 -3788 0
-3846 -64 0
-3846 3788 0
-3847 -3848 -3852 0
-3847 3848 3852 0
3847 3848 -3852 0
3847 -3848 3852 0
-3848 3684 3849 0
-3848 -3684 -3849 0
3848 -3684 3849 0
3848 3684 -3849 0
-3849 -3850 -3851 0
-3849 3850 3851 0
3849 3850 -3851 0
3849 -3850 3851 0
3850 -9878 -3780 0
-3850 9878 0
-3850 3780 0
3851 -9877 -3788 0
-3851 9877 0
-3851 3788 0
3852 -3684 -3853 3854 0
3852 -3684 3853 -3854 0
-3852 3684 0
-3852 -3853 -3854 0
-3852 3853 3854 0
3853 62 -3780 0
-3853 -62 0
-3853 3780 0
3854 63 -3788 0
-3854 -63 0
-3854 3788 0
-3855 -3856 -3860 0
-3855 3856 3860 0
3855 3856 -3860 0
3855 -3856 3860 0
-3856 3684 3857 0
-3856 -3684 -3857 0
3856 -3684 3857 0
3856 3684 -3857 0
-3857 -3858 -3859 0
-3857 3858 3859 0
3857 3858 -3859 0
3857 -3858 3859 0
3858 -9879 -3780 0
-3858 9879 0
-3858 3780 0
3859 -9878 -3788 0
-3859 9878 0
-3859 3788 0
3860 -3684 -3861 3862 0
3860 -3684 3861 -3862 0
-3860 3684 0
-3860 -3861 -3862 0
-3860 3861 3862 0
3861 61 -3780 0
-3861 -61 0
-3861 3780 0
3862 62 -3788 0
-3862 -62 0
-3862 3788 0
-3863 -3864 -3868 0
-3863 3864 3868 0
3863 3864 -3868 0
3863 -3864 3868 0
-3864 3684 3865 0
-3864 -3684 -3865 0
3864 -3684 3865 0
3864 3684 -3865 0
-3865 -3866 -3867 0
-3865 3866 3867 0
3865 3866 -3867 0
3865 -3866 3867 0
3866 -9880 -3780 0
-3866 9880 0
-3866 3780 0
3867 -9879 -3788 0
-3867 9879 0
-3867 3788 0
3868 -3684 -3869 3870 0
3868 -3684 3869 -3870 0
-3868 3684 0
-3868 -3869 -3870 0
-3868 3869 3870 0
3869 60 -3780 0
-3869 -60 0
-3869 3780 0
3870 61 -3788 0
-3870 -61 0
-3870 3788 0
-3871 -3872 -3876 0
-3871 3872 3876 0
3871 3872 -3876 0
3871 -3872 3876 0
-3872 3684 3873 0
-3872 -3684 -3873 0
3872 -3684 3873 0
3872 3684 -3873 0
-3873 -3874 -3875 0
-3873 3874 3875 0
3873 3874 -3875 0
3873 -3874 3875 0
3874 -9881 -3780 0
-3874 9881 0
-3874 3780 0
3875 -9880 -3788 0
-3875 9880 0
-3875 3788 0
3876 -3684 -3877 3878 0
3876 -3684 3877 -3878 0
-3876 3684 0
-3876 -3877 -3878 0
-3876 3877 3878 0
3877 59 -3780 0
-3877 -59 0
-3877 3780 0
3878 60 -3788 0
-3878 -60 0
-3878 3788 0
-3879 -3880 -3884 0
-3879 3880 3884 0
3879 3880 -3884 0
3879 -3880 3884 0
-3880 3684 3881 0
-3880 -3684 -3881 0
3880 -3684 3881 0
3880 3684 -3881 0
-3881 -3882 -3883 0
-3881 3882 3883 0
3881 3882 -3883 0
3881 -3882 3883 0
3882 -9882 -3780 0
-3882 9882 0
-3882 3780 0
3883 -9881 -3788 0
-3883 9881 0
-3883 3788 0
3884 -3684 -3885 3886 0
3884 -3684 3885 -3886 0
-3884 3684 0
-3884 -3885 -3886 0
-3884 3885 3886 0
3885 58 -3780 0
-3885 -58 0
-3885 3780 0
3886 59 -3788 0
-3886 -59 0
-3886 3788 0
-3887 -3888 -3892 0
-3887 3888 3892 0
3887 3888 -3892 0
3887 -3888 3892 0
-3888 3684 3889 0
-3888 -3684 -3889 0
3888 -3684 3889 0
3888 3684 -3889 0
-3889 -3890 -3891 0
-3889 3890 3891 0
3889 3890 -3891 0
3889 -3890 3891 0
3890 -9883 -3780 0
-3890 9883 0
-3890 3780 0
3891 -9882 -3788 0
-3891 9882 0
-3891 3788 0
3892 -3684 -3893 3894 0
3892 -3684 3893 -3894 0
-3892 3684 0
-3892 -3893 -3894 0
-3892 3893 3894 0
3893 57 -3780 0
-3893 -57 0
-3893 3780 0
3894 58 -3788 0
-3894 -58 0
-3894 3788 0
-3895 -3896 -3900 0
-3895 3896 3900 0
3895 3896 -3900 0
3895 -3896 3900 0
-3896 3684 3897 0
-3896 -3684 -3897 0
3896 -3684 3897 0
3896 3684 -3897 0
-3897 -3898 -3899 0
-3897 3898 3899 0
3897 3898 -3899 0
3897 -3898 3899 0
3898 -9884 -3780 0
-3898 9884 0
-3898 3780 0
3899 -9883 -3788 0
-3899 9883 0
-3899 3788 0
3900 -3684 -3901 3902 0
3900 -3684 3901 -3902 0
-3900 3684 0
-3900 -3901 -3902 0
-3900 3901 3902 0
3901 56 -3780 0
-3901 -56 0
-3901 3780 0
3902 57 -3788 0
-3902 -57 0
-3902 3788 0
-3903 -3904 -3908 0
-3903 3904 3908 0
3903 3904 -3908 0
3903 -3904 3908 0
-3904 3684 3905 0
-3904 -3684 -3905 0
3904 -3684 3905 0
3904 3684 -3905 0
-3905 -3906 -3907 0
-3905 3906 3907 0
3905 3906 -3907 0
3905 -3906 3907 0
3906 -9885 -3780 0
-3906 9885 0
-3906 3780 0
3907 -9884 -3788 0
-3907 9884 0
-3907 3788 0
3908 -3684 -3909 3910 0
3908 -3684 3909 -3910 0
-3908 3684 0
-3908 -3909 -3910 0
-3908 3909 3910 0
3909 55 -3780 0
-3909 -55 0
-3909 3780 0
3910 56 -3788 0
-3910 -56 0
-3910 3788 0
-3911 -3912 -3916 0
-3911 3912 3916 0
3911 3912 -3916 0
3911 -3912 3916 0
-3912 3684 3913 0
-3912 -3684 -3913 0
3912 -3684 3913 0
3912 3684 -3913 0
-3913 -3914 -3915 0
-3913 3914 3915 0
3913 3914 -3915 0
3913 -3914 3915 0
3914 -9886 -3780 0
-3914 9886 0
-3914 3780 0
3915 -9885 -3788 0
-3915 9885 0
-3915 3788 0
3916 -3684 -3917 3918 0
3916 -3684 3917 -3918 0
-3916 3684 0
-3916 -3917 -3918 0
-3916 3917 3918 0
3917 54 -3780 0
-3917 -54 0
-3917 3780 0
3918 55 -3788 0
-3918 -55 0
-3918 3788 0
-3919 -3920 -3924 0
-3919 3920 3924 0
3919 3920 -3924 0
3919 -3920 3924 0
-3920 3684 3921 0
-3920 -3684 -3921 0
3920 -3684 3921 0
3920 3684 -3921 0
-3921 -3922 -3923 0
-3921 3922 3923 0
3921 3922 -3923 0
3921 -3922 3923 0
3922 -9887 -3780 0
-3922 9887 0
-3922 3780 0
3923 -9886 -3788 0
-3923 9886 0
-3923 3788 0
3924 -3684 -3925 3926 0
3924 -3684 3925 -3926 0
-3924 3684 0
-3924 -3925 -3926 0
-3924 3925 3926 0
3925 53 -3780 0
-3925 -53 0
-3925 3780 0
3926 54 -3788 0
-3926 -54 0
-3926 3788 0
-3927 -3928 -3932 0
-3927 3928 3932 0
3927 3928 -3932 0
3927 -3928 3932 0
-3928 3684 3929 0
-3928 -3684 -3929 0
3928 -3684 3929 0
3928 3684 -3929 0
-3929 -3930 -3931 0
-3929 3930 3931 0
3929 3930 -3931 0
3929 -3930 3931 0
3930 -9888 -3780 0
-3930 9888 0
-3930 3780 0
3931 -9887 -3788 0
-3931 9887 0
-3931 3788 0
3932 -3684 -3933 3934 0
3932 -3684 3933 -3934 0
-3932 3684 0
-3932 -3933 -3934 0
-3932 3933 3934 0
3933 52 -3780 0
-3933 -52 0
-3933 3780 0
3934 53 -3788 0
-3934 -53 0
-3934 3788 0
-3935 -3936 -3940 0
-3935 3936 3940 0
3935 3936 -3940 0
3935 -3936 3940 0
-3936 3684 3937 0
-3936 -3684 -3937 0
3936 -3684 3937 0
3936 3684 -3937 0
-3937 -3938 -3939 0
-3937 3938 3939 0
3937 3938 -3939 0
3937 -3938 3939 0
3938 -9889 -3780 0
-3938 9889 0
-3938 3780 0
3939 -9888 -3788 0
-3939 9888 0
-3939 3788 0
3940 -3684 -3941 3942 0
3940 -3684 3941 -3942 0
-3940 3684 0
-3940 -3941 -3942 0
-3940 3941 3942 0
3941 51 -3780 0
-3941 -51 0
-3941 3780 0
3942 52 -3788 0
-3942 -52 0
-3942 3788 0
-3943 -3944 -3948 0
-3943 3944 3948 0
3943 3944 -3948 0
3943 -3944 3948 0
-3944 3684 3945 0
-3944 -3684 -3945 0
3944 -3684 3945 0
3944 3684 -3945 0
-3945 -3946 -3947 0
-3945 3946 3947 0
3945 3946 -3947 0
3945 -3946 3947 0
3946 -9890 -3780 0
-3946 9890 0
-3946 3780 0
3947 -9889 -3788 0
-3947 9889 0
-3947 3788 0
3948 -3684 -3949 3950 0
3948 -3684 3949 -3950 0
-3948 3684 0
-3948 -3949 -3950 0
-3948 3949 3950 0
3949 50 -3780 0
-3949 -50 0
-3949 3780 0
3950 51 -3788 0
-3950 -51 0
-3950 3788 0
-3951 -3952 -3956 0
-3951 3952 3956 0
3951 3952 -3956 0
3951 -3952 3956 0
-3952 3684 3953 0
-3952 -3684 -3953 0
3952 -3684 3953 0
3952 3684 -3953 0
-3953 -3954 -3955 0
-3953 3954 3955 0
3953 3954 -3955 0
3953 -3954 3955 0
3954 -9891 -3780 0
-3954 9891 0
-3954 3780 0
3955 -9890 -3788 0
-3955 9890 0
-3955 3788 0
3956 -3684 -3957 3958 0
3956 -3684 3957 -3958 0
-3956 3684 0
-3956 -3957 -3958 0
-3956 3957 3958 0
3957 49 -3780 0
-3957 -49 0
-3957 3780 0
3958 50 -3788 0
-3958 -50 0
-3958 3788 0
-3959 -3960 -3964 0
-3959 3960 3964 0
3959 3960 -3964 0
3959 -3960 3964 0
-3960 3684 3961 0
-3960 -3684 -3961 0
3960 -3684 3961 0
3960 3684 -3961 0
-3961 -3962 -3963 0
-3961 3962 3963 0
3961 3962 -3963 0
3961 -3962 3963 0
3962 -9892 -3780 0
-3962 9892 0
-3962 3780 0
3963 -9891 -3788 0
-3963 9891 0
-3963 3788 0
3964 -3684 -3965 3966 0
3964 -3684 3965 -3966 0
-3964 3684 0
-3964 -3965 -3966 0
-3964 3965 3966 0
3965 48 -3780 0
-3965 -48 0
-3965 3780 0
3966 49 -3788 0
-3966 -49 0
-3966 3788 0
-3967 -3968 -3972 0
-3967 3968 3972 0
3967 3968 -3972 0
3967 -3968 3972 0
-3968 3684 3969 0
-3968 -3684 -3969 0
3968 -3684 3969 0
3968 3684 -3969 0
-3969 -3970 -3971 0
-3969 3970 3971 0
3969 3970 -3971 0
3969 -3970 3971 0
3970 -9893 -3780 0
-3970 9893 0
-3970 3780 0
3971 -9892 -3788 0
-3971 9892 0
-3971 3788 0
3972 -3684 -3973 3974 0
3972 -3684 3973 -3974 0
-3972 3684 0
-3972 -3973 -3974 0
-3972 3973 3974 0
3973 47 -3780 0
-3973 -47 0
-3973 3780 0
3974 48 -3788 0
-3974 -48 0
-3974 3788 0
-3975 -3976 -3980 0
-3975 3976 3980 0
3975 3976 -3980 0
3975 -3976 3980 0
-3976 3684 3977 0
-3976 -3684 -3977 0
3976 -3684 3977 0
3976 3684 -3977 0
-3977 -3978 -3979 0
-3977 3978 3979 0
3977 3978 -3979 0
3977 -3978 3979 0
3978 -9894 -3780 0
-3978 9894 0
-3978 3780 0
3979 -9893 -3788 0
-3979 9893 0
-3979 3788 0
3980 -3684 -3981 3982 0
3980 -3684 3981 -3982 0
-3980 3684 0
-3980 -3981 -3982 0
-3980 3981 3982 0
3981 46 -3780 0
-3981 -46 0
-3981 3780 0
3982 47 -3788 0
-3982 -47 0
-3982 3788 0
-3983 -3984 -3988 0
-3983 3984 3988 0
3983 3984 -3988 0
3983 -3984 3988 0
-3984 3684 3985 0
-3984 -3684 -3985 0
3984 -3684 3985 0
3984 3684 -3985 0
-3985 -3986 -3987 0
-3985 3986 3987 0
3985 3986 -3987 0
3985 -3986 3987 0
3986 -9895 -3780 0
-3986 9895 0
-3986 3780 0
3987 -9894 -3788 0
-3987 9894 0
-3987 3788 0
3988 -3684 -3989 3990 0
3988 -3684 3989 -3990 0
-3988 3684 0
-3988 -3989 -3990 0
-3988 3989 3990 0
3989 45 -3780 0
-3989 -45 0
-3989 3780 0
3990 46 -3788 0
-3990 -46 0
-3990 3788 0
-3991 -3992 -3996 0
-3991 3992 3996 0
3991 3992 -3996 0
3991 -3992 3996 0
-3992 3684 3993 0
-3992 -3684 -3993 0
3992 -3684 3993 0
3992 3684 -3993 0
-3993 -3994 -3995 0
-3993 3994 3995 0
3993 3994 -3995 0
3993 -3994 3995 0
3994 -9896 -3780 0
-3994 9896 0
-3994 3780 0
3995 -9895 -3788 0
-3995 9895 0
-3995 3788 0
3996 -3684 -3997 3998 0
3996 -3684 3997 -3998 0
-3996 3684 0
-3996 -3997 -3998 0
-3996 3997 3998 0
3997 44 -3780 0
-3997 -44 0
-3997 3780 0
3998 45 -3788 0
-3998 -45 0
-3998 3788 0
-3999 -4000 -4004 0
-3999 4000 4004 0
3999 4000 -4004 0
3999 -4000 4004 0
-4000 3684 4001 0
-4000 -3684 -4001 0
4000 -3684 4001 0
4000 3684 -4001 0
-4001 -4002 -4003 0
-4001 4002 4003 0
4001 4002 -4003 0
4001 -4002 4003 0
4002 -9897 -3780 0
-4002 9897 0
-4002 3780 0
4003 -9896 -3788 0
-4003 9896 0
-4003 3788 0
4004 -3684 -4005 4006 0
4004 -3684 4005 -4006 0
-4004 3684 0
-4004 -4005 -4006 0
-4004 4005 4006 0
4005 43 -3780 0
-4005 -43 0
-4005 3780 0
4006 44 -3788 0
-4006 -44 0
-4006 3788 0
-4007 -4008 -4012 0
-4007 4008 4012 0
4007 4008 -4012 0
4007 -4008 4012 0
-4008 3684 4009 0
-4008 -3684 -4009 0
4008 -3684 4009 0
4008 3684 -4009 0
-4009 -4010 -4011 0
-4009 4010 4011 0
4009 4010 -4011 0
4009 -4010 4011 0
4010 -9898 -3780 0
-4010 9898 0
-4010 3780 0
4011 -9897 -3788 0
-4011 9897 0
-4011 3788 0
4012 -3684 -4013 4014 0
4012 -3684 4013 -4014 0
-4012 3684 0
-4012 -4013 -4014 0
-4012 4013 4014 0
4013 42 -3780 0
-4013 -42 0
-4013 3780 0
4014 43 -3788 0
-4014 -43 0
-4014 3788 0
-4015 -4016 -4020 0
-4015 4016 4020 0
4015 4016 -4020 0
4015 -4016 4020 0
-4016 3684 4017 0
-4016 -3684 -4017 0
4016 -3684 4017 0
4016 3684 -4017 0
-4017 -4018 -4019 0
-4017 4018 4019 0
4017 4018 -4019 0
4017 -4018 4019 0
4018 -9899 -3780 0
-4018 9899 0
-4018 3780 0
4019 -9898 -3788 0
-4019 9898 0
-4019 3788 0
4020 -3684 -4021 4022 0
4020 -3684 4021 -4022 0
-4020 3684 0
-4020 -4021 -4022 0
-4020 4021 4022 0
4021 41 -3780 0
-4021 -41 0
-4021 3780 0
4022 42 -3788 0
-4022 -42 0
-4022 3788 0
-4023 -4024 -4028 0
-4023 4024 4028 0
4023 4024 -4028 0
4023 -4024 4028 0
-4024 3684 4025 0
-4024 -3684 -4025 0
4024 -3684 4025 0
4024 3684 -4025 0
-4025 -4026 -4027 0
-4025 4026 4027 0
4025 4026 -4027 0
4025 -4026 4027 0
4026 -9900 -3780 0
-4026 9900 0
-4026 3780 0
4027 -9899 -3788 0
-4027 9899 0
-4027 3788 0
4028 -3684 -4029 4030 0
4028 -3684 4029 -4030 0
-4028 3684 0
-4028 -4029 -4030 0
-4028 4029 4030 0
4029 40 -3780 0
-4029 -40 0
-4029 3780 0
4030 41 -3788 0
-4030 -41 0
-4030 3788 0
-4031 -4032 -4034 0
-4031 4032 4034 0
4031 4032 -4034 0
4031 -4032 4034 0
-4032 -3684 -4033 0
-4032 3684 4033 0
4032 3684 -4033 0
4032 -3684 4033 0
4033 -9900 -3788 0
-4033 9900 0
-4033 3788 0
4034 -3684 -4035 4036 0
4034 -3684 4035 -4036 0
-4034 3684 0
-4034 -4035 -4036 0
-4034 4035 4036 0
4035 39 -3780 0
-4035 -39 0
-4035 3780 0
4036 40 -3788 0
-4036 -40 0
-4036 3788 0
-4037 4038 0
4037 -4038 0
4038 -39 -4039 0
-4038 39 0
-4038 4039 0
-4039 4040 0
4039 -4040 0
4040 9925 -9926 0
4040 9924 -9926 0
-4040 9926 0
-4040 -9924 -9925 0
-4041 15 4042 0
-4041 4042 4386 0
-4041 15 4386 0
4041 -15 -4386 0
4041 -4042 -4386 0
4041 -15 -4042 0
-4042 15 4043 0
-4042 4043 4378 0
-4042 15 4378 0
4042 -15 -4378 0
4042 -4043 -4378 0
4042 -15 -4043 0
-4043 4044 4046 0
-4043 4046 4370 0
-4043 4044 4370 0
4043 -4044 -4370 0
4043 -4046 -4370 0
4043 -4044 -4046 0
-4044 3687 4045 0
-4044 -3687 -4045 0
4044 -3687 4045 0
4044 3687 -4045 0
-4045 17 4031 0
-4045 -17 -4031 0
4045 -17 4031 0
4045 17 -4031 0
-4046 4047 4049 0
-4046 4049 4362 0
-4046 4047 4362 0
4046 -4047 -4362 0
4046 -4049 -4362 0
4046 -4047 -4049 0
-4047 3688 4048 0
-4047 -3688 -4048 0
4047 -3688 4048 0
4047 3688 -4048 0
-4048 17 4023 0
-4048 -17 -4023 0
4048 -17 4023 0
4048 17 -4023 0
-4049 4050 4052 0
-4049 4052 4354 0
-4049 4050 4354 0
4049 -4050 -4354 0
4049 -4052 -4354 0
4049 -4050 -4052 0
-4050 3691 4051 0
-4050 -3691 -4051 0
4050 -3691 4051 0
4050 3691 -4051 0
-4051 3689 4015 0
-4051 -3689 -4015 0
4051 -3689 4015 0
4051 3689 -4015 0
-4052 4053 4055 0
-4052 4055 4346 0
-4052 4053 4346 0
4052 -4053 -4346 0
4052 -4055 -4346 0
4052 -4053 -4055 0
-4053 3694 4054 0
-4053 -3694 -4054 0
4053 -3694 4054 0
4053 3694 -4054 0
-4054 3692 4007 0
-4054 -3692 -4007 0
4054 -3692 4007 0
4054 3692 -4007 0
-4055 4056 4058 0
-4055 4058 4338 0
-4055 4056 4338 0
4055 -4056 -4338 0
4055 -4058 -4338 0
4055 -4056 -4058 0
-4056 3697 4057 0
-4056 -3697 -4057 0
4056 -3697 4057 0
4056 3697 -4057 0
-4057 3695 3999 0
-4057 -3695 -3999 0
4057 -3695 3999 0
4057 3695 -3999 0
-4058 4059 4061 0
-4058 4061 4330 0
-4058 4059 4330 0
4058 -4059 -4330 0
4058 -4061 -4330 0
4058 -4059 -4061 0
-4059 3700 4060 0
-4059 -3700 -4060 0
4059 -3700 4060 0
4059 3700 -4060 0
-4060 3698 3991 0
-4060 -3698 -3991 0
4060 -3698 3991 0
4060 3698 -3991 0
-4061 4062 4064 0
-4061 4064 4322 0
-4061 4062 4322 0
4061 -4062 -4322 0
4061 -4064 -4322 0
4061 -4062 -4064 0
-4062 3703 4063 0
-4062 -3703 -4063 0
4062 -3703 4063 0
4062 3703 -4063 0
-4063 3701 3983 0
-4063 -3701 -3983 0
4063 -3701 3983 0
4063 3701 -3983 0
-4064 4065 4067 0
-4064 4067 4314 0
-4064 4065 4314 0
4064 -4065 -4314 0
4064 -4067 -4314 0
4064 -4065 -4067 0
-4065 3706 4066 0
-4065 -3706 -4066 0
4065 -3706 4066 0
4065 3706 -4066 0
-4066 3704 3975 0
-4066 -3704 -3975 0
4066 -3704 3975 0
4066 3704 -3975 0
-4067 4068 4070 0
-4067 4070 4306 0
-4067 4068 4306 0
4067 -4068 -4306 0
4067 -4070 -4306 0
4067 -4068 -4070 0
-4068 3709 4069 0
-4068 -3709 -4069 0
4068 -3709 4069 0
4068 3709 -4069 0
-4069 3707 3967 0
-4069 -3707 -3967 0
4069 -3707 3967 0
4069 3707 -3967 0
-4070 4071 4073 0
-4070 4073 4298 0
-4070 4071 4298 0
4070 -4071 -4298 0
4070 -4073 -4298 0
4070 -4071 -4073 0
-4071 3712 4072 0
-4071 -3712 -4072 0
4071 -3712 4072 0
4071 3712 -4072 0
-4072 3710 3959 0
-4072 -3710 -3959 0
4072 -3710 3959 0
4072 3710 -3959 0
-4073 4074 4076 0
-4073 4076 4290 0
-4073 4074 4290 0
4073 -4074 -4290 0
4073 -4076 -4290 0
4073 -4074 -4076 0
-4074 3715 4075 0
-4074 -3715 -4075 0
4074 -3715 4075 0
4074 3715 -4075 0
-4075 3713 3951 0
-4075 -3713 -3951 0
4075 -3713 3951 0
4075 3713 -3951 0
-4076 4077 4079 0
-4076 4079 4282 0
-4076 4077 4282 0
4076 -4077 -4282 0
4076 -4079 -4282 0
4076 -4077 -4079 0
-4077 3718 4078 0
-4077 -3718 -4078 0
4077 -3718 4078 0
4077 3718 -4078 0
-4078 3716 3943 0
-4078 -3716 -3943 0
4078 -3716 3943 0
4078 3716 -3943 0
-4079 4080 4082 0
-4079 4082 4274 0
-4079 4080 4274 0
4079 -4080 -4274 0
4079 -4082 -4274 0
4079 -4080 -4082 0
-4080 3721 4081 0
-4080 -3721 -4081 0
4080 -3721 4081 0
4080 3721 -4081 0
-4081 3719 3935 0
-4081 -3719 -3935 0
4081 -3719 3935 0
4081 3719 -3935 0
-4082 4083 4085 0
-4082 4085 4266 0
-4082 4083 4266 0
4082 -4083 -4266 0
4082 -4085 -4266 0
4082 -4083 -4085 0
-4083 3724 4084 0
-4083 -3724 -4084 0
4083 -3724 4084 0
4083 3724 -4084 0
-4084 3722 3927 0
-4084 -3722 -3927 0
4084 -3722 3927 0
4084 3722 -3927 0
-4085 4086 4088 0
-4085 4088 4258 0
-4085 4086 4258 0
4085 -4086 -4258 0
4085 -4088 -4258 0
4085 -4086 -4088 0
-4086 3727 4087 0
-4086 -3727 -4087 0
4086 -3727 4087 0
4086 3727 -4087 0
-4087 3725 3919 0
-4087 -3725 -3919 0
4087 -3725 3919 0
4087 3725 -3919 0
-4088 4089 4091 0
-4088 4091 4250 0
-4088 4089 4250 0
4088 -4089 -4250 0
4088 -4091 -4250 0
4088 -4089 -4091 0
-4089 3730 4090 0
-4089 -3730 -4090 0
4089 -3730 4090 0
4089 3730 -4090 0
-4090 3728 3911 0
-4090 -3728 -3911 0
4090 -3728 3911 0
4090 3728 -3911 0
-4091 4092 4094 0
-4091 4094 4242 0
-4091 4092 4242 0
4091 -4092 -4242 0
4091 -4094 -4242 0
4091 -4092 -4094 0
-4092 3733 4093 0
-4092 -3733 -4093 0
4092 -3733 4093 0
4092 3733 -4093 0
-4093 3731 3903 0
-4093 -3731 -3903 0
4093 -3731 3903 0
4093 3731 -3903 0
-4094 4095 4097 0
-4094 4097 4234 0
-4094 4095 4234 0
4094 -4095 -4234 0
4094 -4097 -4234 0
4094 -4095 -4097 0
-4095 3736 4096 0
-4095 -3736 -4096 0
4095 -3736 4096 0
4095 3736 -4096 0
-4096 3734 3895 0
-4096 -3734 -3895 0
4096 -3734 3895 0
4096 3734 -3895 0
-4097 4098 4100 0
-4097 4100 4226 0
-4097 4098 4226 0
4097 -4098 -4226 0
4097 -4100 -4226 0
4097 -4098 -4100 0
-4098 3739 4099 0
-4098 -3739 -4099 0
4098 -3739 4099 0
4098 3739 -4099 0
-4099 3737 3887 0
-4099 -3737 -3887 0
4099 -3737 3887 0
4099 3737 -3887 0
-4100 4101 4103 0
-4100 4103 4218 0
-4100 4101 4218 0
4100 -4101 -4218 0
4100 -4103 -4218 0
4100 -4101 -4103 0
-4101 3742 4102 0
-4101 -3742 -4102 0
4101 -3742 4102 0
4101 3742 -4102 0
-4102 3740 3879 0
-4102 -3740 -3879 0
4102 -3740 3879 0
4102 3740 -3879 0
-4103 4104 4106 0
-4103 4106 4210 0
-4103 4104 4210 0
4103 -4104 -4210 0
4103 -4106 -4210 0
4103 -4104 -4106 0
-4104 3745 4105 0
-4104 -3745 -4105 0
4104 -3745 4105 0
4104 3745 -4105 0
-4105 3743 3871 0
-4105 -3743 -3871 0
4105 -3743 3871 0
4105 3743 -3871 0
-4106 4107 4109 0
-4106 4109 4202 0
-4106 4107 4202 0
4106 -4107 -4202 0
4106 -4109 -4202 0
4106 -4107 -4109 0
-4107 3748 4108 0
-4107 -3748 -4108 0
4107 -3748 4108 0
4107 3748 -4108 0
-4108 3746 3863 0
-4108 -3746 -3863 0
4108 -3746 3863 0
4108 3746 -3863 0
-4109 4110 4112 0
-4109 4112 4194 0
-4109 4110 4194 0
4109 -4110 -4194 0
4109 -4112 -4194 0
4109 -4110 -4112 0
-4110 3751 4111 0
-4110 -3751 -4111 0
4110 -3751 4111 0
4110 3751 -4111 0
-4111 3749 3855 0
-4111 -3749 -3855 0
4111 -3749 3855 0
4111 3749 -3855 0
-4112 4113 4115 0
-4112 4115 4186 0
-4112 4113 4186 0
4112 -4113 -4186 0
4112 -4115 -4186 0
4112 -4113 -4115 0
-4113 3754 4114 0
-4113 -3754 -4114 0
4113 -3754 4114 0
4113 3754 -4114 0
-4114 3752 3847 0
-4114 -3752 -3847 0
4114 -3752 3847 0
4114 3752 -3847 0
-4115 4116 4118 0
-4115 4118 4178 0
-4115 4116 4178 0
4115 -4116 -4178 0
4115 -4118 -4178 0
4115 -4116 -4118 0
-4116 3757 4117 0
-4116 -3757 -4117 0
4116 -3757 4117 0
4116 3757 -4117 0
-4117 3755 3839 0
-4117 -3755 -3839 0
4117 -3755 3839 0
4117 3755 -3839 0
-4118 4119 4121 0
-4118 4121 4170 0
-4118 4119 4170 0
4118 -4119 -4170 0
4118 -4121 -4170 0
4118 -4119 -4121 0
-4119 3760 4120 0
-4119 -3760 -4120 0
4119 -3760 4120 0
4119 3760 -4120 0
-4120 3758 3831 0
-4120 -3758 -3831 0
4120 -3758 3831 0
4120 3758 -3831 0
-4121 4122 4124 0
-4121 4124 4162 0
-4121 4122 4162 0
4121 -4122 -4162 0
4121 -4124 -4162 0
4121 -4122 -4124 0
-4122 3763 4123 0
-4122 -3763 -4123 0
4122 -3763 4123 0
4122 3763 -4123 0
-4123 3761 3823 0
-4123 -3761 -3823 0
4123 -3761 3823 0
4123 3761 -3823 0
-4124 4125 4127 0
-4124 4127 4154 0
-4124 4125 4154 0
4124 -4125 -4154 0
4124 -4127 -4154 0
4124 -4125 -4127 0
-4125 3766 4126 0
-4125 -3766 -4126 0
4125 -3766 4126 0
4125 3766 -4126 0
-4126 3764 3815 0
-4126 -3764 -3815 0
4126 -3764 3815 0
4126 3764 -3815 0
-4127 4128 4130 0
-4127 4130 4146 0
-4127 4128 4146 0
4127 -4128 -4146 0
4127 -4130 -4146 0
4127 -4128 -4130 0
-4128 3769 4129 0
-4128 -3769 -4129 0
4128 -3769 4129 0
4128 3769 -4129 0
-4129 3767 3807 0
-4129 -3767 -3807 0
4129 -3767 3807 0
4129 3767 -3807 0
-4130 4131 4138 0
-4130 4131 4133 0
-4130 4133 4138 0
4130 -4133 -4138 0
4130 -4131 -4138 0
4130 -4131 -4133 0
-4131 3772 4132 0
-4131 -3772 -4132 0
4131 -3772 4132 0
4131 3772 -4132 0
-4132 3770 3799 0
-4132 -3770 -3799 0
4132 -3770 3799 0
4132 3770 -3799 0
4133 -4134 -4136 0
-4133 4134 0
-4133 4136 0
4134 -9869 -4135 0
-4134 9869 0
-4134 4135 0
-4135 -9924 -9925 0
-4135 9924 9925 0
4135 9924 -9925 0
4135 -9924 9925 0
-4136 3775 4137 0
-4136 -3775 -4137 0
4136 -3775 4137 0
4136 3775 -4137 0
-4137 3773 3791 0
-4137 -3773 -3791 0
4137 -3773 3791 0
4137 3773 -3791 0
-4138 -4139 -4144 0
-4138 4139 4144 0
4138 4139 -4144 0
4138 -4139 4144 0
-4139 4039 4140 0
-4139 -4039 -4140 0
4139 -4039 4140 0
4139 4039 -4140 0
-4140 -4141 -4142 0
-4140 4141 4142 0
4140 4141 -4142 0
4140 -4141 4142 0
4141 -9870 -4135 0
-4141 9870 0
-4141 4135 0
4142 -9869 -4143 0
-4142 9869 0
-4142 4143 0
-4143 -9924 -9926 0
-4143 9925 9926 0
-4143 9924 -9925 0
4143 -9924 -9925 9926 0
4143 9924 9925 -9926 0
4144 -4039 4143 -4145 0
4144 -4039 -4143 4145 0
-4144 4039 0
-4144 4143 4145 0
-4144 -4143 -4145 0
4145 9869 -4135 0
-4145 -9869 0
-4145 4135 0
-4146 -4147 -4151 0
-4146 4147 4151 0
4146 4147 -4151 0
4146 -4147 4151 0
-4147 4039 4148 0
-4147 -4039 -4148 0
4147 -4039 4148 0
4147 4039 -4148 0
-4148 -4149 -4150 0
-4148 4149 4150 0
4148 4149 -4150 0
4148 -4149 4150 0
4149 -9871 -4135 0
-4149 9871 0
-4149 4135 0
4150 -9870 -4143 0
-4150 9870 0
-4150 4143 0
4151 -4039 -4152 4153 0
4151 -4039 4152 -4153 0
-4151 4039 0
-4151 -4152 -4153 0
-4151 4152 4153 0
4152 69 -4135 0
-4152 -69 0
-4152 4135 0
4153 9869 -4143 0
-4153 -9869 0
-4153 4143 0
-4154 -4155 -4159 0
-4154 4155 4159 0
4154 4155 -4159 0
4154 -4155 4159 0
-4155 4039 4156 0
-4155 -4039 -4156 0
4155 -4039 4156 0
4155 4039 -4156 0
-4156 -4157 -4158 0
-4156 4157 4158 0
4156 4157 -4158 0
4156 -4157 4158 0
4157 -9872 -4135 0
-4157 9872 0
-4157 4135 0
4158 -9871 -4143 0
-4158 9871 0
-4158 4143 0
4159 -4039 -4160 4161 0
4159 -4039 4160 -4161 0
-4159 4039 0
-4159 -4160 -4161 0
-4159 4160 4161 0
4160 68 -4135 0
-4160 -68 0
-4160 4135 0
4161 69 -4143 0
-4161 -69 0
-4161 4143 0
-4162 -4163 -4167 0
-4162 4163 4167 0
4162 4163 -4167 0
4162 -4163 4167 0
-4163 4039 4164 0
-4163 -4039 -4164 0
4163 -4039 4164 0
4163 4039 -4164 0
-4164 -4165 -4166 0
-4164 4165 4166 0
4164 4165 -4166 0
4164 -4165 4166 0
4165 -9873 -4135 0
-4165 9873 0
-4165 4135 0
4166 -9872 -4143 0
-4166 9872 0
-4166 4143 0
4167 -4039 -4168 4169 0
4167 -4039 4168 -4169 0
-4167 4039 0
-4167 -4168 -4169 0
-4167 4168 4169 0
4168 67 -4135 0
-4168 -67 0
-4168 4135 0
4169 68 -4143 0
-4169 -68 0
-4169 4143 0
-4170 -4171 -4175 0
-4170 4171 4175 0
4170 4171 -4175 0
4170 -4171 4175 0
-4171 4039 4172 0
-4171 -4039 -4172 0
4171 -4039 4172 0
4171 4039 -4172 0
-4172 -4173 -4174 0
-4172 4173 4174 0
4172 4173 -4174 0
4172 -4173 4174 0
4173 -9874 -4135 0
-4173 9874 0
-4173 4135 0
4174 -9873 -4143 0
-4174 9873 0
-4174 4143 0
4175 -4039 -4176 4177 0
4175 -4039 4176 -4177 0
-4175 4039 0
-4175 -4176 -4177 0
-4175 4176 4177 0
4176 66 -4135 0
-4176 -66 0
-4176 4135 0
4177 67 -4143 0
-4177 -67 0
-4177 4143 0
-4178 -4179 -4183 0
-4178 4179 4183 0
4178 4179 -4183 0
4178 -4179 4183 0
-4179 4039 4180 0
-4179 -4039 -4180 0
4179 -4039 4180 0
4179 4039 -4180 0
-4180 -4181 -4182 0
-4180 4181 4182 0
4180 4181 -4182 0
4180 -4181 4182 0
4181 -9875 -4135 0
-4181 9875 0
-4181 4135 0
4182 -9874 -4143 0
-4182 9874 0
-4182 4143 0
4183 -4039 -4184 4185 0
4183 -4039 4184 -4185 0
-4183 4039 0
-4183 -4184 -4185 0
-4183 4184 4185 0
4184 65 -4135 0
-4184 -65 0
-4184 4135 0
4185 66 -4143 0
-4185 -66 0
-4185 4143 0
-4186 -4187 -4191 0
-4186 4187 4191 0
4186 4187 -4191 0
4186 -4187 4191 0
-4187 4039 4188 0
-4187 -4039 -4188 0
4187 -4039 4188 0
4187 4039 -4188 0
-4188 -4189 -4190 0
-4188 4189 4190 0
4188 4189 -4190 0
4188 -4189 4190 0
4189 -9876 -4135 0
-4189 9876 0
-4189 4135 0
4190 -9875 -4143 0
-4190 9875 0
-4190 4143 0
4191 -4039 -4192 4193 0
4191 -4039 4192 -4193 0
-4191 4039 0
-4191 -4192 -4193 0
-4191 4192 4193 0
4192 64 -4135 0
-4192 -64 0
-4192 4135 0
4193 65 -4143 0
-4193 -65 0
-4193 4143 0
-4194 -4195 -4199 0
-4194 4195 4199 0
4194 4195 -4199 0
4194 -4195 4199 0
-4195 4039 4196 0
-4195 -4039 -4196 0
4195 -4039 4196 0
4195 4039 -4196 0
-4196 -4197 -4198 0
-4196 4197 4198 0
4196 4197 -4198 0
4196 -4197 4198 0
4197 -9877 -4135 0
-4197 9877 0
-4197 4135 0
4198 -9876 -4143 0
-4198 9876 0
-4198 4143 0
4199 -4039 -4200 4201 0
4199 -4039 4200 -4201 0
-4199 4039 0
-4199 -4200 -4201 0
-4199 4200 4201 0
4200 63 -4135 0
-4200 -63 0
-4200 4135 0
4201 64 -4143 0
-4201 -64 0
-4201 4143 0
-4202 -4203 -4207 0
-4202 4203 4207 0
4202 4203 -4207 0
4202 -4203 4207 0
-4203 4039 4204 0
-4203 -4039 -4204 0
4203 -4039 4204 0
4203 4039 -4204 0
-4204 -4205 -4206 0
-4204 4205 4206 0
4204 4205 -4206 0
4204 -4205 4206 0
4205 -9878 -4135 0
-4205 9878 0
-4205 4135 0
4206 -9877 -4143 0
-4206 9877 0
-4206 4143 0
4207 -4039 -4208 4209 0
4207 -4039 4208 -4209 0
-4207 4039 0
-4207 -4208 -4209 0
-4207 4208 4209 0
4208 62 -4135 0
-4208 -62 0
-4208 4135 0
4209 63 -4143 0
-4209 -63 0
-4209 4143 0
-4210 -4211 -4215 0
-4210 4211 4215 0
4210 4211 -4215 0
4210 -4211 4215 0
-4211 4039 4212 0
-4211 -4039 -4212 0
4211 -4039 4212 0
4211 4039 -4212 0
-4212 -4213 -4214 0
-4212 4213 4214 0
4212 4213 -4214 0
4212 -4213 4214 0
4213 -9879 -4135 0
-4213 9879 0
-4213 4135 0
4214 -9878 -4143 0
-4214 9878 0
-4214 4143 0
4215 -4039 -4216 4217 0
4215 -4039 4216 -4217 0
-4215 4039 0
-4215 -4216 -4217 0
-4215 4216 4217 0
4216 61 -4135 0
-4216 -61 0
-4216 4135 0
4217 62 -4143 0
-4217 -62 0
-4217 4143 0
-4218 -4219 -4223 0
-4218 4219 4223 0
4218 4219 -4223 0
4218 -4219 4223 0
-4219 4039 4220 0
-4219 -4039 -4220 0
4219 -4039 4220 0
4219 4039 -4220 0
-4220 -4221 -4222 0
-4220 4221 4222 0
4220 4221 -4222 0
4220 -4221 4222 0
4221 -9880 -4135 0
-4221 9880 0
-4221 4135 0
4222 -9879 -4143 0
-4222 9879 0
-4222 4143 0
4223 -4039 -4224 4225 0
4223 -4039 4224 -4225 0
-4223 4039 0
-4223 -4224 -4225 0
-4223 4224 4225 0
4224 60 -4135 0
-4224 -60 0
-4224 4135 0
4225 61 -4143 0
-4225 -61 0
-4225 4143 0
-4226 -4227 -4231 0
-4226 4227 4231 0
4226 4227 -4231 0
4226 -4227 4231 0
-4227 4039 4228 0
-4227 -4039 -4228 0
4227 -4039 4228 0
4227 4039 -4228 0
-4228 -4229 -4230 0
-4228 4229 4230 0
4228 4229 -4230 0
4228 -4229 4230 0
4229 -9881 -4135 0
-4229 9881 0
-4229 4135 0
4230 -9880 -4143 0
-4230 9880 0
-4230 4143 0
4231 -4039 -4232 4233 0
4231 -4039 4232 -4233 0
-4231 4039 0
-4231 -4232 -4233 0
-4231 4232 4233 0
4232 59 -4135 0
-4232 -59 0
-4232 4135 0
4233 60 -4143 0
-4233 -60 0
-4233 4143 0
-4234 -4235 -4239 0
-4234 4235 4239 0
4234 4235 -4239 0
4234 -4235 4239 0
-4235 4039 4236 0
-4235 -4039 -4236 0
4235 -4039 4236 0
4235 4039 -4236 0
-4236 -4237 -4238 0
-4236 4237 4238 0
4236 4237 -4238 0
4236 -4237 4238 0
4237 -9882 -4135 0
-4237 9882 0
-4237 4135 0
4238 -9881 -4143 0
-4238 9881 0
-4238 4143 0
4239 -4039 -4240 4241 0
4239 -4039 4240 -4241 0
-4239 4039 0
-4239 -4240 -4241 0
-4239 4240 4241 0
4240 58 -4135 0
-4240 -58 0
-4240 4135 0
4241 59 -4143 0
-4241 -59 0
-4241 4143 0
-4242 -4243 -4247 0
-4242 4243 4247 0
4242 4243 -4247 0
4242 -4243 4247 0
-4243 4039 4244 0
-4243 -4039 -4244 0
4243 -4039 4244 0
4243 4039 -4244 0
-4244 -4245 -4246 0
-4244 4245 4246 0
4244 4245 -4246 0
4244 -4245 4246 0
4245 -9883 -4135 0
-4245 9883 0
-4245 4135 0
4246 -9882 -4143 0
-4246 9882 0
-4246 4143 0
4247 -4039 -4248 4249 0
4247 -4039 4248 -4249 0
-4247 4039 0
-4247 -4248 -4249 0
-4247 4248 4249 0
4248 57 -4135 0
-4248 -57 0
-4248 4135 0
4249 58 -4143 0
-4249 -58 0
-4249 4143 0
-4250 -4251 -4255 0
-4250 4251 4255 0
4250 4251 -4255 0
4250 -4251 4255 0
-4251 4039 4252 0
-4251 -4039 -4252 0
4251 -4039 4252 0
4251 4039 -4252 0
-4252 -4253 -4254 0
-4252 4253 4254 0
4252 4253 -4254 0
4252 -4253 4254 0
4253 -9884 -4135 0
-4253 9884 0
-4253 4135 0
4254 -9883 -4143 0
-4254 9883 0
-4254 4143 0
4255 -4039 -4256 4257 0
4255 -4039 4256 -4257 0
-4255 4039 0
-4255 -4256 -4257 0
-4255 4256 4257 0
4256 56 -4135 0
-4256 -56 0
-4256 4135 0
4257 57 -4143 0
-4257 -57 0
-4257 4143 0
-4258 -4259 -4263 0
-4258 4259 4263 0
4258 4259 -4263 0
4258 -4259 4263 0
-4259 4039 4260 0
-4259 -4039 -4260 0
4259 -4039 4260 0
4259 4039 -4260 0
-4260 -4261 -4262 0
-4260 4261 4262 0
4260 4261 -4262 0
4260 -4261 4262 0
4261 -9885 -4135 0
-4261 9885 0
-4261 4135 0
4262 -9884 -4143 0
-4262 9884 0
-4262 4143 0
4263 -4039 -4264 4265 0
4263 -4039 4264 -4265 0
-4263 4039 0
-4263 -4264 -4265 0
-4263 4264 4265 0
4264 55 -4135 0
-4264 -55 0
-4264 4135 0
4265 56 -4143 0
-4265 -56 0
-4265 4143 0
-4266 -4267 -4271 0
-4266 4267 4271 0
4266 4267 -4271 0
4266 -4267 4271 0
-4267 4039 4268 0
-4267 -4039 -4268 0
4267 -4039 4268 0
4267 4039 -4268 0
-4268 -4269 -4270 0
-4268 4269 4270 0
4268 4269 -4270 0
4268 -4269 4270 0
4269 -9886 -4135 0
-4269 9886 0
-4269 4135 0
4270 -9885 -4143 0
-4270 9885 0
-4270 4143 0
4271 -4039 -4272 4273 0
4271 -4039 4272 -4273 0
-4271 4039 0
-4271 -4272 -4273 0
-4271 4272 4273 0
4272 54 -4135 0
-4272 -54 0
-4272 4135 0
4273 55 -4143 0
-4273 -55 0
-4273 4143 0
-4274 -4275 -4279 0
-4274 4275 4279 0
4274 4275 -4279 0
4274 -4275 4279 0
-4275 4039 4276 0
-4275 -4039 -4276 0
4275 -4039 4276 0
4275 4039 -4276 0
-4276 -4277 -4278 0
-4276 4277 4278 0
4276 4277 -4278 0
4276 -4277 4278 0
4277 -9887 -4135 0
-4277 9887 0
-4277 4135 0
4278 -9886 -4143 0
-4278 9886 0
-4278 4143 0
4279 -4039 -4280 4281 0
4279 -4039 4280 -4281 0
-4279 4039 0
-4279 -4280 -4281 0
-4279 4280 4281 0
4280 53 -4135 0
-4280 -53 0
-4280 4135 0
4281 54 -4143 0
-4281 -54 0
-4281 4143 0
-4282 -4283 -4287 0
-4282 4283 4287 0
4282 4283 -4287 0
4282 -4283 4287 0
-4283 4039 4284 0
-4283 -4039 -4284 0
4283 -4039 4284 0
4283 4039 -4284 0
-4284 -4285 -4286 0
-4284 4285 4286 0
4284 4285 -4286 0
4284 -4285 4286 0
4285 -9888 -4135 0
-4285 9888 0
-4285 4135 0
4286 -9887 -4143 0
-4286 9887 0
-4286 4143 0
4287 -4039 -4288 4289 0
4287 -4039 4288 -4289 0
-4287 4039 0
-4287 -4288 -4289 0
-4287 4288 4289 0
4288 52 -4135 0
-4288 -52 0
-4288 4135 0
4289 53 -4143 0
-4289 -53 0
-4289 4143 0
-4290 -4291 -4295 0
-4290 4291 4295 0
4290 4291 -4295 0
4290 -4291 4295 0
-4291 4039 4292 0
-4291 -4039 -4292 0
4291 -4039 4292 0
4291 4039 -4292 0
-4292 -4293 -4294 0
-4292 4293 4294 0
4292 4293 -4294 0
4292 -4293 4294 0
4293 -9889 -4135 0
-4293 9889 0
-4293 4135 0
4294 -9888 -4143 0
-4294 9888 0
-4294 4143 0
4295 -4039 -4296 4297 0
4295 -4039 4296 -4297 0
-4295 4039 0
-4295 -4296 -4297 0
-4295 4296 4297 0
4296 51 -4135 0
-4296 -51 0
-4296 4135 0
4297 52 -4143 0
-4297 -52 0
-4297 4143 0
-4298 -4299 -4303 0
-4298 4299 4303 0
4298 4299 -4303 0
4298 -4299 4303 0
-4299 4039 4300 0
-4299 -4039 -4300 0
4299 -4039 4300 0
4299 4039 -4300 0
-4300 -4301 -4302 0
-4300 4301 4302 0
4300 4301 -4302 0
4300 -4301 4302 0
4301 -9890 -4135 0
-4301 9890 0
-4301 4135 0
4302 -9889 -4143 0
-4302 9889 0
-4302 4143 0
4303 -4039 -4304 4305 0
4303 -4039 4304 -4305 0
-4303 4039 0
-4303 -4304 -4305 0
-4303 4304 4305 0
4304 50 -4135 0
-4304 -50 0
-4304 4135 0
4305 51 -4143 0
-4305 -51 0
-4305 4143 0
-4306 -4307 -4311 0
-4306 4307 4311 0
4306 4307 -4311 0
4306 -4307 4311 0
-4307 4039 4308 0
-4307 -4039 -4308 0
4307 -4039 4308 0
4307 4039 -4308 0
-4308 -4309 -4310 0
-4308 4309 4310 0
4308 4309 -4310 0
4308 -4309 4310 0
4309 -9891 -4135 0
-4309 9891 0
-4309 4135 0
4310 -9890 -4143 0
-4310 9890 0
-4310 4143 0
4311 -4039 -4312 4313 0
4311 -4039 4312 -4313 0
-4311 4039 0
-4311 -4312 -4313 0
-4311 4312 4313 0
4312 49 -4135 0
-4312 -49 0
-4312 4135 0
4313 50 -4143 0
-4313 -50 0
-4313 4143 0
-4314 -4315 -4319 0
-4314 4315 4319 0
4314 4315 -4319 0
4314 -4315 4319 0
-4315 4039 4316 0
-4315 -4039 -4316 0
4315 -4039 4316 0
4315 4039 -4316 0
-4316 -4317 -4318 0
-4316 4317 4318 0
4316 4317 -4318 0
4316 -4317 4318 0
4317 -9892 -4135 0
-4317 9892 0
-4317 4135 0
4318 -9891 -4143 0
-4318 9891 0
-4318 4143 0
4319 -4039 -4320 4321 0
4319 -4039 4320 -4321 0
-4319 4039 0
-4319 -4320 -4321 0
-4319 4320 4321 0
4320 48 -4135 0
-4320 -48 0
-4320 4135 0
4321 49 -4143 0
-4321 -49 0
-4321 4143 0
-4322 -4323 -4327 0
-4322 4323 4327 0
4322 4323 -4327 0
4322 -4323 4327 0
-4323 4039 4324 0
-4323 -4039 -4324 0
4323 -4039 4324 0
4323 4039 -4324 0
-4324 -4325 -4326 0
-4324 4325 4326 0
4324 4325 -4326 0
4324 -4325 4326 0
4325 -9893 -4135 0
-4325 9893 0
-4325 4135 0
4326 -9892 -4143 0
-4326 9892 0
-4326 4143 0
4327 -4039 -4328 4329 0
4327 -4039 4328 -4329 0
-4327 4039 0
-4327 -4328 -4329 0
-4327 4328 4329 0
4328 47 -4135 0
-4328 -47 0
-4328 4135 0
4329 48 -4143 0
-4329 -48 0
-4329 4143 0
-4330 -4331 -4335 0
-4330 4331 4335 0
4330 4331 -4335 0
4330 -4331 4335 0
-4331 4039 4332 0
-4331 -4039 -4332 0
4331 -4039 4332 0
4331 4039 -4332 0
-4332 -4333 -4334 0
-4332 4333 4334 0
4332 4333 -4334 0
4332 -4333 4334 0
4333 -9894 -4135 0
-4333 9894 0
-4333 4135 0
4334 -9893 -4143 0
-4334 9893 0
-4334 4143 0
4335 -4039 -4336 4337 0
4335 -4039 4336 -4337 0
-4335 4039 0
-4335 -4336 -4337 0
-4335 4336 4337 0
4336 46 -4135 0
-4336 -46 0
-4336 4135 0
4337 47 -4143 0
-4337 -47 0
-4337 4143 0
-4338 -4339 -4343 0
-4338 4339 4343 0
4338 4339 -4343 0
4338 -4339 4343 0
-4339 4039 4340 0
-4339 -4039 -4340 0
4339 -4039 4340 0
4339 4039 -4340 0
-4340 -4341 -4342 0
-4340 4341 4342 0
4340 4341 -4342 0
4340 -4341 4342 0
4341 -9895 -4135 0
-4341 9895 0
-4341 4135 0
4342 -9894 -4143 0
-4342 9894 0
-4342 4143 0
4343 -4039 -4344 4345 0
4343 -4039 4344 -4345 0
-4343 4039 0
-4343 -4344 -4345 0
-4343 4344 4345 0
4344 45 -4135 0
-4344 -45 0
-4344 4135 0
4345 46 -4143 0
-4345 -46 0
-4345 4143 0
-4346 -4347 -4351 0
-4346 4347 4351 0
4346 4347 -4351 0
4346 -4347 4351 0
-4347 4039 4348 0
-4347 -4039 -4348 0
4347 -4039 4348 0
4347 4039 -4348 0
-4348 -4349 -4350 0
-4348 4349 4350 0
4348 4349 -4350 0
4348 -4349 4350 0
4349 -9896 -4135 0
-4349 9896 0
-4349 4135 0
4350 -9895 -4143 0
-4350 9895 0
-4350 4143 0
4351 -4039 -4352 4353 0
4351 -4039 4352 -4353 0
-4351 4039 0
-4351 -4352 -4353 0
-4351 4352 4353 0
4352 44 -4135 0
-4352 -44 0
-4352 4135 0
4353 45 -4143 0
-4353 -45 0
-4353 4143 0
-4354 -4355 -4359 0
-4354 4355 4359 0
4354 4355 -4359 0
4354 -4355 4359 0
-4355 4039 4356 0
-4355 -4039 -4356 0
4355 -4039 4356 0
4355 4039 -4356 0
-4356 -4357 -4358 0
-4356 4357 4358 0
4356 4357 -4358 0
4356 -4357 4358 0
4357 -9897 -4135 0
-4357 9897 0
-4357 4135 0
4358 -9896 -4143 0
-4358 9896 0
-4358 4143 0
4359 -4039 -4360 4361 0
4359 -4039 4360 -4361 0
-4359 4039 0
-4359 -4360 -4361 0
-4359 4360 4361 0
4360 43 -4135 0
-4360 -43 0
-4360 4135 0
4361 44 -4143 0
-4361 -44 0
-4361 4143 0
-4362 -4363 -4367 0
-4362 4363 4367 0
4362 4363 -4367 0
4362 -4363 4367 0
-4363 4039 4364 0
-4363 -4039 -4364 0
4363 -4039 4364 0
4363 4039 -4364 0
-4364 -4365 -4366 0
-4364 4365 4366 0
4364 4365 -4366 0
4364 -4365 4366 0
4365 -9898 -4135 0
-4365 9898 0
-4365 4135 0
4366 -9897 -4143 0
-4366 9897 0
-4366 4143 0
4367 -4039 -4368 4369 0
4367 -4039 4368 -4369 0
-4367 4039 0
-4367 -4368 -4369 0
-4367 4368 4369 0
4368 42 -4135 0
-4368 -42 0
-4368 4135 0
4369 43 -4143 0
-4369 -43 0
-4369 4143 0
-4370 -4371 -4375 0
-4370 4371 4375 0
4370 4371 -4375 0
4370 -4371 4375 0
-4371 4039 4372 0
-4371 -4039 -4372 0
4371 -4039 4372 0
4371 4039 -4372 0
-4372 -4373 -4374 0
-4372 4373 4374 0
4372 4373 -4374 0
4372 -4373 4374 0
4373 -9899 -4135 0
-4373 9899 0
-4373 4135 0
4374 -9898 -4143 0
-4374 9898 0
-4374 4143 0
4375 -4039 -4376 4377 0
4375 -4039 4376 -4377 0
-4375 4039 0
-4375 -4376 -4377 0
-4375 4376 4377 0
4376 41 -4135 0
-4376 -41 0
-4376 4135 0
4377 42 -4143 0
-4377 -42 0
-4377 4143 0
-4378 -4379 -4383 0
-4378 4379 4383 0
4378 4379 -4383 0
4378 -4379 4383 0
-4379 4039 4380 0
-4379 -4039 -4380 0
4379 -4039 4380 0
4379 4039 -4380 0
-4380 -4381 -4382 0
-4380 4381 4382 0
4380 4381 -4382 0
4380 -4381 4382 0
4381 -9900 -4135 0
-4381 9900 0
-4381 4135 0
4382 -9899 -4143 0
-4382 9899 0
-4382 4143 0
4383 -4039 -4384 4385 0
4383 -4039 4384 -4385 0
-4383 4039 0
-4383 -4384 -4385 0
-4383 4384 4385 0
4384 40 -4135 0
-4384 -40 0
-4384 4135 0
4385 41 -4143 0
-4385 -41 0
-4385 4143 0
-4386 -4387 -4389 0
-4386 4387 4389 0
4386 4387 -4389 0
4386 -4387 4389 0
-4387 -4039 -4388 0
-4387 4039 4388 0
4387 4039 -4388 0
4387 -4039 4388 0
4388 -9900 -4143 0
-4388 9900 0
-4388 4143 0
4389 -4039 -4390 4391 0
4389 -4039 4390 -4391 0
-4389 4039 0
-4389 -4390 -4391 0
-4389 4390 4391 0
4390 39 -4135 0
-4390 -39 0
-4390 4135 0
4391 40 -4143 0
-4391 -40 0
-4391 4143 0
-4392 4393 0
4392 -4393 0
4393 -39 -4394 0
-4393 39 0
-4393 4394 0
-4394 4395 0
4394 -4395 0
4395 9927 -9928 0
4395 9926 -9928 0
-4395 9928 0
-4395 -9926 -9927 0
-4396 13 4397 0
-4396 4397 4741 0
-4396 13 4741 0
4396 -13 -4741 0
4396 -4397 -4741 0
4396 -13 -4397 0
-4397 13 4398 0
-4397 4398 4733 0
-4397 13 4733 0
4397 -13 -4733 0
4397 -4398 -4733 0
4397 -13 -4398 0
-4398 4399 4401 0
-4398 4401 4725 0
-4398 4399 4725 0
4398 -4399 -4725 0
4398 -4401 -4725 0
4398 -4399 -4401 0
-4399 4042 4400 0
-4399 -4042 -4400 0
4399 -4042 4400 0
4399 4042 -4400 0
-4400 15 4386 0
-4400 -15 -4386 0
4400 -15 4386 0
4400 15 -4386 0
-4401 4402 4404 0
-4401 4404 4717 0
-4401 4402 4717 0
4401 -4402 -4717 0
4401 -4404 -4717 0
4401 -4402 -4404 0
-4402 4043 4403 0
-4402 -4043 -4403 0
4402 -4043 4403 0
4402 4043 -4403 0
-4403 15 4378 0
-4403 -15 -4378 0
4403 -15 4378 0
4403 15 -4378 0
-4404 4405 4407 0
-4404 4407 4709 0
-4404 4405 4709 0
4404 -4405 -4709 0
4404 -4407 -4709 0
4404 -4405 -4407 0
-4405 4046 4406 0
-4405 -4046 -4406 0
4405 -4046 4406 0
4405 4046 -4406 0
-4406 4044 4370 0
-4406 -4044 -4370 0
4406 -4044 4370 0
4406 4044 -4370 0
-4407 4408 4410 0
-4407 4410 4701 0
-4407 4408 4701 0
4407 -4408 -4701 0
4407 -4410 -4701 0
4407 -4408 -4410 0
-4408 4049 4409 0
-4408 -4049 -4409 0
4408 -4049 4409 0
4408 4049 -4409 0
-4409 4047 4362 0
-4409 -4047 -4362 0
4409 -4047 4362 0
4409 4047 -4362 0
-4410 4411 4413 0
-4410 4413 4693 0
-4410 4411 4693 0
4410 -4411 -4693 0
4410 -4413 -4693 0
4410 -4411 -4413 0
-4411 4052 4412 0
-4411 -4052 -4412 0
4411 -4052 4412 0
4411 4052 -4412 0
-4412 4050 4354 0
-4412 -4050 -4354 0
4412 -4050 4354 0
4412 4050 -4354 0
-4413 4414 4416 0
-4413 4416 4685 0
-4413 4414 4685 0
4413 -4414 -4685 0
4413 -4416 -4685 0
4413 -4414 -4416 0
-4414 4055 4415 0
-4414 -4055 -4415 0
4414 -4055 4415 0
4414 4055 -4415 0
-4415 4053 4346 0
-4415 -4053 -4346 0
4415 -4053 4346 0
4415 4053 -4346 0
-4416 4417 4419 0
-4416 4419 4677 0
-4416 4417 4677 0
4416 -4417 -4677 0
4416 -4419 -4677 0
4416 -4417 -4419 0
-4417 4058 4418 0
-4417 -4058 -4418 0
4417 -4058 4418 0
4417 4058 -4418 0
-4418 4056 4338 0
-4418 -4056 -4338 0
4418 -4056 4338 0
4418 4056 -4338 0
-4419 4420 4422 0
-4419 4422 4669 0
-4419 4420 4669 0
4419 -4420 -4669 0
4419 -4422 -4669 0
4419 -4420 -4422 0
-4420 4061 4421 0
-4420 -4061 -4421 0
4420 -4061 4421 0
4420 4061 -4421 0
-4421 4059 4330 0
-4421 -4059 -4330 0
4421 -4059 4330 0
4421 4059 -4330 0
-4422 4423 4425 0
-4422 4425 4661 0
-4422 4423 4661 0
4422 -4423 -4661 0
4422 -4425 -4661 0
4422 -4423 -4425 0
-4423 4064 4424 0
-4423 -4064 -4424 0
4423 -4064 4424 0
4423 4064 -4424 0
-4424 4062 4322 0
-4424 -4062 -4322 0
4424 -4062 4322 0
4424 4062 -4322 0
-4425 4426 4428 0
-4425 4428 4653 0
-4425 4426 4653 0
4425 -4426 -4653 0
4425 -4428 -4653 0
4425 -4426 -4428 0
-4426 4067 4427 0
-4426 -4067 -4427 0
4426 -4067 4427 0
4426 4067 -4427 0
-4427 4065 4314 0
-4427 -4065 -4314 0
4427 -4065 4314 0
4427 4065 -4314 0
-4428 4429 4431 0
-4428 4431 4645 0
-4428 4429 4645 0
4428 -4429 -4645 0
4428 -4431 -4645 0
4428 -4429 -4431 0
-4429 4070 4430 0
-4429 -4070 -4430 0
4429 -4070 4430 0
4429 4070 -4430 0
-4430 4068 4306 0
-4430 -4068 -4306 0
4430 -4068 4306 0
4430 4068 -4306 0
-4431 4432 4434 0
-4431 4434 4637 0
-4431 4432 4637 0
4431 -4432 -4637 0
4431 -4434 -4637 0
4431 -4432 -4434 0
-4432 4073 4433 0
-4432 -4073 -4433 0
4432 -4073 4433 0
4432 4073 -4433 0
-4433 4071 4298 0
-4433 -4071 -4298 0
4433 -4071 4298 0
4433 4071 -4298 0
-4434 4435 4437 0
-4434 4437 4629 0
-4434 4435 4629 0
4434 -4435 -4629 0
4434 -4437 -4629 0
4434 -4435 -4437 0
-4435 4076 4436 0
-4435 -4076 -4436 0
4435 -4076 4436 0
4435 4076 -4436 0
-4436 4074 4290 0
-4436 -4074 -4290 0
4436 -4074 4290 0
4436 4074 -4290 0
-4437 4438 4440 0
-4437 4440 4621 0
-4437 4438 4621 0
4437 -4438 -4621 0
4437 -4440 -4621 0
4437 -4438 -4440 0
-4438 4079 4439 0
-4438 -4079 -4439 0
4438 -4079 4439 0
4438 4079 -4439 0
-4439 4077 4282 0
-4439 -4077 -4282 0
4439 -4077 4282 0
4439 4077 -4282 0
-4440 4441 4443 0
-4440 4443 4613 0
-4440 4441 4613 0
4440 -4441 -4613 0
4440 -4443 -4613 0
4440 -4441 -4443 0
-4441 4082 4442 0
-4441 -4082 -4442 0
4441 -4082 4442 0
4441 4082 -4442 0
-4442 4080 4274 0
-4442 -4080 -4274 0
4442 -4080 4274 0
4442 4080 -4274 0
-4443 4444 4446 0
-4443 4446 4605 0
-4443 4444 4605 0
4443 -4444 -4605 0
4443 -4446 -4605 0
4443 -4444 -4446 0
-4444 4085 4445 0
-4444 -4085 -4445 0
4444 -4085 4445 0
4444 4085 -4445 0
-4445 4083 4266 0
-4445 -4083 -4266 0
4445 -4083 4266 0
4445 4083 -4266 0
-4446 4447 4449 0
-4446 4449 4597 0
-4446 4447 4597 0
4446 -4447 -4597 0
4446 -4449 -4597 0
4446 -4447 -4449 0
-4447 4088 4448 0
-4447 -4088 -4448 0
4447 -4088 4448 0
4447 4088 -4448 0
-4448 4086 4258 0
-4448 -4086 -4258 0
4448 -4086 4258 0
4448 4086 -4258 0
-4449 4450 4452 0
-4449 4452 4589 0
-4449 4450 4589 0
4449 -4450 -4589 0
4449 -4452 -4589 0
4449 -4450 -4452 0
-4450 4091 4451 0
-4450 -4091 -4451 0
4450 -4091 4451 0
4450 4091 -4451 0
-4451 4089 4250 0
-4451 -4089 -4250 0
4451 -4089 4250 0
4451 4089 -4250 0
-4452 4453 4455 0
-4452 4455 4581 0
-4452 4453 4581 0
4452 -4453 -4581 0
4452 -4455 -4581 0
4452 -4453 -4455 0
-4453 4094 4454 0
-4453 -4094 -4454 0
4453 -4094 4454 0
4453 4094 -4454 0
-4454 4092 4242 0
-4454 -4092 -4242 0
4454 -4092 4242 0
4454 4092 -4242 0
-4455 4456 4458 0
-4455 4458 4573 0
-4455 4456 4573 0
4455 -4456 -4573 0
4455 -4458 -4573 0
4455 -4456 -4458 0
-4456 4097 4457 0
-4456 -4097 -4457 0
4456 -4097 4457 0
4456 4097 -4457 0
-4457 4095 4234 0
-4457 -4095 -4234 0
4457 -4095 4234 0
4457 4095 -4234 0
-4458 4459 4461 0
-4458 4461 4565 0
-4458 4459 4565 0
4458 -4459 -4565 0
4458 -4461 -4565 0
4458 -4459 -4461 0
-4459 4100 4460 0
-4459 -4100 -4460 0
4459 -4100 4460 0
4459 4100 -4460 0
-4460 4098 4226 0
-4460 -4098 -4226 0
4460 -4098 4226 0
4460 4098 -4226 0
-4461 4462 4464 0
-4461 4464 4557 0
-4461 4462 4557 0
4461 -4462 -4557 0
4461 -4464 -4557 0
4461 -4462 -4464 0
-4462 4103 4463 0
-4462 -4103 -4463 0
4462 -4103 4463 0
4462 4103 -4463 0
-4463 4101 4218 0
-4463 -4101 -4218 0
4463 -4101 4218 0
4463 4101 -4218 0
-4464 4465 4467 0
-4464 4467 4549 0
-4464 4465 4549 0
4464 -4465 -4549 0
4464 -4467 -4549 0
4464 -4465 -4467 0
-4465 4106 4466 0
-4465 -4106 -4466 0
4465 -4106 4466 0
4465 4106 -4466 0
-4466 4104 4210 0
-4466 -4104 -4210 0
4466 -4104 4210 0
4466 4104 -4210 0
-4467 4468 4470 0
-4467 4470 4541 0
-4467 4468 4541 0
4467 -4468 -4541 0
4467 -4470 -4541 0
4467 -4468 -4470 0
-4468 4109 4469 0
-4468 -4109 -4469 0
4468 -4109 4469 0
4468 4109 -4469 0
-4469 4107 4202 0
-4469 -4107 -4202 0
4469 -4107 4202 0
4469 4107 -4202 0
-4470 4471 4473 0
-4470 4473 4533 0
-4470 4471 4533 0
4470 -4471 -4533 0
4470 -4473 -4533 0
4470 -4471 -4473 0
-4471 4112 4472 0
-4471 -4112 -4472 0
4471 -4112 4472 0
4471 4112 -4472 0
-4472 4110 4194 0
-4472 -4110 -4194 0
4472 -4110 4194 0
4472 4110 -4194 0
-4473 4474 4476 0
-4473 4476 4525 0
-4473 4474 4525 0
4473 -4474 -4525 0
4473 -4476 -4525 0
4473 -4474 -4476 0
-4474 4115 4475 0
-4474 -4115 -4475 0
4474 -4115 4475 0
4474 4115 -4475 0
-4475 4113 4186 0
-4475 -4113 -4186 0
4475 -4113 4186 0
4475 4113 -4186 0
-4476 4477 4479 0
-4476 4479 4517 0
-4476 4477 4517 0
4476 -4477 -4517 0
4476 -4479 -4517 0
4476 -4477 -4479 0
-4477 4118 4478 0
-4477 -4118 -4478 0
4477 -4118 4478 0
4477 4118 -4478 0
-4478 4116 4178 0
-4478 -4116 -4178 0
4478 -4116 4178 0
4478 4116 -4178 0
-4479 4480 4482 0
-4479 4482 4509 0
-4479 4480 4509 0
4479 -4480 -4509 0
4479 -4482 -4509 0
4479 -4480 -4482 0
-4480 4121 4481 0
-4480 -4121 -4481 0
4480 -4121 4481 0
4480 4121 -4481 0
-4481 4119 4170 0
-4481 -4119 -4170 0
4481 -4119 4170 0
4481 4119 -4170 0
-4482 4483 4485 0
-4482 4485 4501 0
-4482 4483 4501 0
4482 -4483 -4501 0
4482 -4485 -4501 0
4482 -4483 -4485 0
-4483 4124 4484 0
-4483 -4124 -4484 0
4483 -4124 4484 0
4483 4124 -4484 0
-4484 4122 4162 0
-4484 -4122 -4162 0
4484 -4122 4162 0
4484 4122 -4162 0
-4485 4486 4493 0
-4485 4486 4488 0
-4485 4488 4493 0
4485 -4488 -4493 0
4485 -4486 -4493 0
4485 -4486 -4488 0
-4486 4127 4487 0
-4486 -4127 -4487 0
4486 -4127 4487 0
4486 4127 -4487 0
-4487 4125 4154 0
-4487 -4125 -4154 0
4487 -4125 4154 0
4487 4125 -4154 0
4488 -4489 -4491 0
-4488 4489 0
-4488 4491 0
4489 -9869 -4490 0
-4489 9869 0
-4489 4490 0
-4490 -9926 -9927 0
-4490 9926 9927 0
4490 9926 -9927 0
4490 -9926 9927 0
-4491 4130 4492 0
-4491 -4130 -4492 0
4491 -4130 4492 0
4491 4130 -4492 0
-4492 4128 4146 0
-4492 -4128 -4146 0
4492 -4128 4146 0
4492 4128 -4146 0
-4493 -4494 -4499 0
-4493 4494 4499 0
4493 4494 -4499 0
4493 -4494 4499 0
-4494 4394 4495 0
-4494 -4394 -4495 0
4494 -4394 4495 0
4494 4394 -4495 0
-4495 -4496 -4497 0
-4495 4496 4497 0
4495 4496 -4497 0
4495 -4496 4497 0
4496 -9870 -4490 0
-4496 9870 0
-4496 4490 0
4497 -9869 -4498 0
-4497 9869 0
-4497 4498 0
-4498 -9926 -9928 0
-4498 9927 9928 0
-4498 9926 -9927 0
4498 -9926 -9927 9928 0
4498 9926 9927 -9928 0
4499 -4394 4498 -4500 0
4499 -4394 -4498 4500 0
-4499 4394 0
-4499 4498 4500 0
-4499 -4498 -4500 0
4500 9869 -4490 0
-4500 -9869 0
-4500 4490 0
-4501 -4502 -4506 0
-4501 4502 4506 0
4501 4502 -4506 0
4501 -4502 4506 0
-4502 4394 4503 0
-4502 -4394 -4503 0
4502 -4394 4503 0
4502 4394 -4503 0
-4503 -4504 -4505 0
-4503 4504 4505 0
4503 4504 -4505 0
4503 -4504 4505 0
4504 -9871 -4490 0
-4504 9871 0
-4504 4490 0
4505 -9870 -4498 0
-4505 9870 0
-4505 4498 0
4506 -4394 -4507 4508 0
4506 -4394 4507 -4508 0
-4506 4394 0
-4506 -4507 -4508 0
-4506 4507 4508 0
4507 69 -4490 0
-4507 -69 0
-4507 4490 0
4508 9869 -4498 0
-4508 -9869 0
-4508 4498 0
-4509 -4510 -4514 0
-4509 4510 4514 0
4509 4510 -4514 0
4509 -4510 4514 0
-4510 4394 4511 0
-4510 -4394 -4511 0
4510 -4394 4511 0
4510 4394 -4511 0
-4511 -4512 -4513 0
-4511 4512 4513 0
4511 4512 -4513 0
4511 -4512 4513 0
4512 -9872 -4490 0
-4512 9872 0
-4512 4490 0
4513 -9871 -4498 0
-4513 9871 0
-4513 4498 0
4514 -4394 -4515 4516 0
4514 -4394 4515 -4516 0
-4514 4394 0
-4514 -4515 -4516 0
-4514 4515 4516 0
4515 68 -4490 0
-4515 -68 0
-4515 4490 0
4516 69 -4498 0
-4516 -69 0
-4516 4498 0
-4517 -4518 -4522 0
-4517 4518 4522 0
4517 4518 -4522 0
4517 -4518 4522 0
-4518 4394 4519 0
-4518 -4394 -4519 0
4518 -4394 4519 0
4518 4394 -4519 0
-4519 -4520 -4521 0
-4519 4520 4521 0
4519 4520 -4521 0
4519 -4520 4521 0
4520 -9873 -4490 0
-4520 9873 0
-4520 4490 0
4521 -9872 -4498 0
-4521 9872 0
-4521 4498 0
4522 -4394 -4523 4524 0
4522 -4394 4523 -4524 0
-4522 4394 0
-4522 -4523 -4524 0
-4522 4523 4524 0
4523 67 -4490 0
-4523 -67 0
-4523 4490 0
4524 68 -4498 0
-4524 -68 0
-4524 4498 0
-4525 -4526 -4530 0
-4525 4526 4530 0
4525 4526 -4530 0
4525 -4526 4530 0
-4526 4394 4527 0
-4526 -4394 -4527 0
4526 -4394 4527 0
4526 4394 -4527 0
-4527 -4528 -4529 0
-4527 4528 4529 0
4527 4528 -4529 0
4527 -4528 4529 0
4528 -9874 -4490 0
-4528 9874 0
-4528 4490 0
4529 -9873 -4498 0
-4529 9873 0
-4529 4498 0
4530 -4394 -4531 4532 0
4530 -4394 4531 -4532 0
-4530 4394 0
-4530 -4531 -4532 0
-4530 4531 4532 0
4531 66 -4490 0
-4531 -66 0
-4531 4490 0
4532 67 -4498 0
-4532 -67 0
-4532 4498 0
-4533 -4534 -4538 0
-4533 4534 4538 0
4533 4534 -4538 0
4533 -4534 4538 0
-4534 4394 4535 0
-4534 -4394 -4535 0
4534 -4394 4535 0
4534 4394 -4535 0
-4535 -4536 -4537 0
-4535 4536 4537 0
4535 4536 -4537 0
4535 -4536 4537 0
4536 -9875 -4490 0
-4536 9875 0
-4536 4490 0
4537 -9874 -4498 0
-4537 9874 0
-4537 4498 0
4538 -4394 -4539 4540 0
4538 -4394 4539 -4540 0
-4538 4394 0
-4538 -4539 -4540 0
-4538 4539 4540 0
4539 65 -4490 0
-4539 -65 0
-4539 4490 0
4540 66 -4498 0
-4540 -66 0
-4540 4498 0
-4541 -4542 -4546 0
-4541 4542 4546 0
4541 4542 -4546 0
4541 -4542 4546 0
-4542 4394 4543 0
-4542 -4394 -4543 0
4542 -4394 4543 0
4542 4394 -4543 0
-4543 -4544 -4545 0
-4543 4544 4545 0
4543 4544 -4545 0
4543 -4544 4545 0
4544 -9876 -4490 0
-4544 9876 0
-4544 4490 0
4545 -9875 -4498 0
-4545 9875 0
-4545 4498 0
4546 -4394 -4547 4548 0
4546 -4394 4547 -4548 0
-4546 4394 0
-4546 -4547 -4548 0
-4546 4547 4548 0
4547 64 -4490 0
-4547 -64 0
-4547 4490 0
4548 65 -4498 0
-4548 -65 0
-4548 4498 0
-4549 -4550 -4554 0
-4549 4550 4554 0
4549 4550 -4554 0
4549 -4550 4554 0
-4550 4394 4551 0
-4550 -4394 -4551 0
4550 -4394 4551 0
4550 4394 -4551 0
-4551 -4552 -4553 0
-4551 4552 4553 0
4551 4552 -4553 0
4551 -4552 4553 0
4552 -9877 -4490 0
-4552 9877 0
-4552 4490 0
4553 -9876 -4498 0
-4553 9876 0
-4553 4498 0
4554 -4394 -4555 4556 0
4554 -4394 4555 -4556 0
-4554 4394 0
-4554 -4555 -4556 0
-4554 4555 4556 0
4555 63 -4490 0
-4555 -63 0
-4555 4490 0
4556 64 -4498 0
-4556 -64 0
-4556 4498 0
-4557 -4558 -4562 0
-4557 4558 4562 0
4557 4558 -4562 0
4557 -4558 4562 0
-4558 4394 4559 0
-4558 -4394 -4559 0
4558 -4394 4559 0
4558 4394 -4559 0
-4559 -4560 -4561 0
-4559 4560 4561 0
4559 4560 -4561 0
4559 -4560 4561 0
4560 -9878 -4490 0
-4560 9878 0
-4560 4490 0
4561 -9877 -4498 0
-4561 9877 0
-4561 4498 0
4562 -4394 -4563 4564 0
4562 -4394 4563 -4564 0
-4562 4394 0
-4562 -4563 -4564 0
-4562 4563 4564 0
4563 62 -4490 0
-4563 -62 0
-4563 4490 0
4564 63 -4498 0
-4564 -63 0
-4564 4498 0
-4565 -4566 -4570 0
-4565 4566 4570 0
4565 4566 -4570 0
4565 -4566 4570 0
-4566 4394 4567 0
-4566 -4394 -4567 0
4566 -4394 4567 0
4566 4394 -4567 0
-4567 -4568 -4569 0
-4567 4568 4569 0
4567 4568 -4569 0
4567 -4568 4569 0
4568 -9879 -4490 0
-4568 9879 0
-4568 4490 0
4569 -9878 -4498 0
-4569 9878 0
-4569 4498 0
4570 -4394 -4571 4572 0
4570 -4394 4571 -4572 0
-4570 4394 0
-4570 -4571 -4572 0
-4570 4571 4572 0
4571 61 -4490 0
-4571 -61 0
-4571 4490 0
4572 62 -4498 0
-4572 -62 0
-4572 4498 0
-4573 -4574 -4578 0
-4573 4574 4578 0
4573 4574 -4578 0
4573 -4574 4578 0
-4574 4394 4575 0
-4574 -4394 -4575 0
4574 -4394 4575 0
4574 4394 -4575 0
-4575 -4576 -4577 0
-4575 4576 4577 0
4575 4576 -4577 0
4575 -4576 4577 0
4576 -9880 -4490 0
-4576 9880 0
-4576 4490 0
4577 -9879 -4498 0
-4577 9879 0
-4577 4498 0
4578 -4394 -4579 4580 0
4578 -4394 4579 -4580 0
-4578 4394 0
-4578 -4579 -4580 0
-4578 4579 4580 0
4579 60 -4490 0
-4579 -60 0
-4579 4490 0
4580 61 -4498 0
-4580 -61 0
-4580 4498 0
-4581 -4582 -4586 0
-4581 4582 4586 0
4581 4582 -4586 0
4581 -4582 4586 0
-4582 4394 4583 0
-4582 -4394 -4583 0
4582 -4394 4583 0
4582 4394 -4583 0
-4583 -4584 -4585 0
-4583 4584 4585 0
4583 4584 -4585 0
4583 -4584 4585 0
4584 -9881 -4490 0
-4584 9881 0
-4584 4490 0
4585 -9880 -4498 0
-4585 9880 0
-4585 4498 0
4586 -4394 -4587 4588 0
4586 -4394 4587 -4588 0
-4586 4394 0
-4586 -4587 -4588 0
-4586 4587 4588 0
4587 59 -4490 0
-4587 -59 0
-4587 4490 0
4588 60 -4498 0
-4588 -60 0
-4588 4498 0
-4589 -4590 -4594 0
-4589 4590 4594 0
4589 4590 -4594 0
4589 -4590 4594 0
-4590 4394 4591 0
-4590 -4394 -4591 0
4590 -4394 4591 0
4590 4394 -4591 0
-4591 -4592 -4593 0
-4591 4592 4593 0
4591 4592 -4593 0
4591 -4592 4593 0
4592 -9882 -4490 0
-4592 9882 0
-4592 4490 0
4593 -9881 -4498 0
-4593 9881 0
-4593 4498 0
4594 -4394 -4595 4596 0
4594 -4394 4595 -4596 0
-4594 4394 0
-4594 -4595 -4596 0
-4594 4595 4596 0
4595 58 -4490 0
-4595 -58 0
-4595 4490 0
4596 59 -4498 0
-4596 -59 0
-4596 4498 0
-4597 -4598 -4602 0
-4597 4598 4602 0
4597 4598 -4602 0
4597 -4598 4602 0
-4598 4394 4599 0
-4598 -4394 -4599 0
4598 -4394 4599 0
4598 4394 -4599 0
-4599 -4600 -4601 0
-4599 4600 4601 0
4599 4600 -4601 0
4599 -4600 4601 0
4600 -9883 -4490 0
-4600 9883 0
-4600 4490 0
4601 -9882 -4498 0
-4601 9882 0
-4601 4498 0
4602 -4394 -4603 4604 0
4602 -4394 4603 -4604 0
-4602 4394 0
-4602 -4603 -4604 0
-4602 4603 4604 0
4603 57 -4490 0
-4603 -57 0
-4603 4490 0
4604 58 -4498 0
-4604 -58 0
-4604 4498 0
-4605 -4606 -4610 0
-4605 4606 4610 0
4605 4606 -4610 0
4605 -4606 4610 0
-4606 4394 4607 0
-4606 -4394 -4607 0
4606 -4394 4607 0
4606 4394 -4607 0
-4607 -4608 -4609 0
-4607 4608 4609 0
4607 4608 -4609 0
4607 -4608 4609 0
4608 -9884 -4490 0
-4608 9884 0
-4608 4490 0
4609 -9883 -4498 0
-4609 9883 0
-4609 4498 0
4610 -4394 -4611 4612 0
4610 -4394 4611 -4612 0
-4610 4394 0
-4610 -4611 -4612 0
-4610 4611 4612 0
4611 56 -4490 0
-4611 -56 0
-4611 4490 0
4612 57 -4498 0
-4612 -57 0
-4612 4498 0
-4613 -4614 -4618 0
-4613 4614 4618 0
4613 4614 -4618 0
4613 -4614 4618 0
-4614 4394 4615 0
-4614 -4394 -4615 0
4614 -4394 4615 0
4614 4394 -4615 0
-4615 -4616 -4617 0
-4615 4616 4617 0
4615 4616 -4617 0
4615 -4616 4617 0
4616 -9885 -4490 0
-4616 9885 0
-4616 4490 0
4617 -9884 -4498 0
-4617 9884 0
-4617 4498 0
4618 -4394 -4619 4620 0
4618 -4394 4619 -4620 0
-4618 4394 0
-4618 -4619 -4620 0
-4618 4619 4620 0
4619 55 -4490 0
-4619 -55 0
-4619 4490 0
4620 56 -4498 0
-4620 -56 0
-4620 4498 0
-4621 -4622 -4626 0
-4621 4622 4626 0
4621 4622 -4626 0
4621 -4622 4626 0
-4622 4394 4623 0
-4622 -4394 -4623 0
4622 -4394 4623 0
4622 4394 -4623 0
-4623 -4624 -4625 0
-4623 4624 4625 0
4623 4624 -4625 0
4623 -4624 4625 0
4624 -9886 -4490 0
-4624 9886 0
-4624 4490 0
4625 -9885 -4498 0
-4625 9885 0
-4625 4498 0
4626 -4394 -4627 4628 0
4626 -4394 4627 -4628 0
-4626 4394 0
-4626 -4627 -4628 0
-4626 4627 4628 0
4627 54 -4490 0
-4627 -54 0
-4627 4490 0
4628 55 -4498 0
-4628 -55 0
-4628 4498 0
-4629 -4630 -4634 0
-4629 4630 4634 0
4629 4630 -4634 0
4629 -4630 4634 0
-4630 4394 4631 0
-4630 -4394 -4631 0
4630 -4394 4631 0
4630 4394 -4631 0
-4631 -4632 -4633 0
-4631 4632 4633 0
4631 4632 -4633 0
4631 -4632 4633 0
4632 -9887 -4490 0
-4632 9887 0
-4632 4490 0
4633 -9886 -4498 0
-4633 9886 0
-4633 4498 0
4634 -4394 -4635 4636 0
4634 -4394 4635 -4636 0
-4634 4394 0
-4634 -4635 -4636 0
-4634 4635 4636 0
4635 53 -4490 0
-4635 -53 0
-4635 4490 0
4636 54 -4498 0
-4636 -54 0
-4636 4498 0
-4637 -4638 -4642 0
-4637 4638 4642 0
4637 4638 -4642 0
4637 -4638 4642 0
-4638 4394 4639 0
-4638 -4394 -4639 0
4638 -4394 4639 0
4638 4394 -4639 0
-4639 -4640 -4641 0
-4639 4640 4641 0
4639 4640 -4641 0
4639 -4640 4641 0
4640 -9888 -4490 0
-4640 9888 0
-4640 4490 0
4641 -9887 -4498 0
-4641 9887 0
-4641 4498 0
4642 -4394 -4643 4644 0
4642 -4394 4643 -4644 0
-4642 4394 0
-4642 -4643 -4644 0
-4642 4643 4644 0
4643 52 -4490 0
-4643 -52 0
-4643 4490 0
4644 53 -4498 0
-4644 -53 0
-4644 4498 0
-4645 -4646 -4650 0
-4645 4646 4650 0
4645 4646 -4650 0
4645 -4646 4650 0
-4646 4394 4647 0
-4646 -4394 -4647 0
4646 -4394 4647 0
4646 4394 -4647 0
-4647 -4648 -4649 0
-4647 4648 4649 0
4647 4648 -4649 0
4647 -4648 4649 0
4648 -9889 -4490 0
-4648 9889 0
-4648 4490 0
4649 -9888 -4498 0
-4649 9888 0
-4649 4498 0
4650 -4394 -4651 4652 0
4650 -4394 4651 -4652 0
-4650 4394 0
-4650 -4651 -4652 0
-4650 4651 4652 0
4651 51 -4490 0
-4651 -51 0
-4651 4490 0
4652 52 -4498 0
-4652 -52 0
-4652 4498 0
-4653 -4654 -4658 0
-4653 4654 4658 0
4653 4654 -4658 0
4653 -4654 4658 0
-4654 4394 4655 0
-4654 -4394 -4655 0
4654 -4394 4655 0
4654 4394 -4655 0
-4655 -4656 -4657 0
-4655 4656 4657 0
4655 4656 -4657 0
4655 -4656 4657 0
4656 -9890 -4490 0
-4656 9890 0
-4656 4490 0
4657 -9889 -4498 0
-4657 9889 0
-4657 4498 0
4658 -4394 -4659 4660 0
4658 -4394 4659 -4660 0
-4658 4394 0
-4658 -4659 -4660 0
-4658 4659 4660 0
4659 50 -4490 0
-4659 -50 0
-4659 4490 0
4660 51 -4498 0
-4660 -51 0
-4660 4498 0
-4661 -4662 -4666 0
-4661 4662 4666 0
4661 4662 -4666 0
4661 -4662 4666 0
-4662 4394 4663 0
-4662 -4394 -4663 0
4662 -4394 4663 0
4662 4394 -4663 0
-4663 -4664 -4665 0
-4663 4664 4665 0
4663 4664 -4665 0
4663 -4664 4665 0
4664 -9891 -4490 0
-4664 9891 0
-4664 4490 0
4665 -9890 -4498 0
-4665 9890 0
-4665 4498 0
4666 -4394 -4667 4668 0
4666 -4394 4667 -4668 0
-4666 4394 0
-4666 -4667 -4668 0
-4666 4667 4668 0
4667 49 -4490 0
-4667 -49 0
-4667 4490 0
4668 50 -4498 0
-4668 -50 0
-4668 4498 0
-4669 -4670 -4674 0
-4669 4670 4674 0
4669 4670 -4674 0
4669 -4670 4674 0
-4670 4394 4671 0
-4670 -4394 -4671 0
4670 -4394 4671 0
4670 4394 -4671 0
-4671 -4672 -4673 0
-4671 4672 4673 0
4671 4672 -4673 0
4671 -4672 4673 0
4672 -9892 -4490 0
-4672 9892 0
-4672 4490 0
4673 -9891 -4498 0
-4673 9891 0
-4673 4498 0
4674 -4394 -4675 4676 0
4674 -4394 4675 -4676 0
-4674 4394 0
-4674 -4675 -4676 0
-4674 4675 4676 0
4675 48 -4490 0
-4675 -48 0
-4675 4490 0
4676 49 -4498 0
-4676 -49 0
-4676 4498 0
-4677 -4678 -4682 0
-4677 4678 4682 0
4677 4678 -4682 0
4677 -4678 4682 0
-4678 4394 4679 0
-4678 -4394 -4679 0
4678 -4394 4679 0
4678 4394 -4679 0
-4679 -4680 -4681 0
-4679 4680 4681 0
4679 4680 -4681 0
4679 -4680 4681 0
4680 -9893 -4490 0
-4680 9893 0
-4680 4490 0
4681 -9892 -4498 0
-4681 9892 0
-4681 4498 0
4682 -4394 -4683 4684 0
4682 -4394 4683 -4684 0
-4682 4394 0
-4682 -4683 -4684 0
-4682 4683 4684 0
4683 47 -4490 0
-4683 -47 0
-4683 4490 0
4684 48 -4498 0
-4684 -48 0
-4684 4498 0
-4685 -4686 -4690 0
-4685 4686 4690 0
4685 4686 -4690 0
4685 -4686 4690 0
-4686 4394 4687 0
-4686 -4394 -4687 0
4686 -4394 4687 0
4686 4394 -4687 0
-4687 -4688 -4689 0
-4687 4688 4689 0
4687 4688 -4689 0
4687 -4688 4689 0
4688 -9894 -4490 0
-4688 9894 0
-4688 4490 0
4689 -9893 -4498 0
-4689 9893 0
-4689 4498 0
4690 -4394 -4691 4692 0
4690 -4394 4691 -4692 0
-4690 4394 0
-4690 -4691 -4692 0
-4690 4691 4692 0
4691 46 -4490 0
-4691 -46 0
-4691 4490 0
4692 47 -4498 0
-4692 -47 0
-4692 4498 0
-4693 -4694 -4698 0
-4693 4694 4698 0
4693 4694 -4698 0
4693 -4694 4698 0
-4694 4394 4695 0
-4694 -4394 -4695 0
4694 -4394 4695 0
4694 4394 -4695 0
-4695 -4696 -4697 0
-4695 4696 4697 0
4695 4696 -4697 0
4695 -4696 4697 0
4696 -9895 -4490 0
-4696 9895 0
-4696 4490 0
4697 -9894 -4498 0
-4697 9894 0
-4697 4498 0
4698 -4394 -4699 4700 0
4698 -4394 4699 -4700 0
-4698 4394 0
-4698 -4699 -4700 0
-4698 4699 4700 0
4699 45 -4490 0
-4699 -45 0
-4699 4490 0
4700 46 -4498 0
-4700 -46 0
-4700 4498 0
-4701 -4702 -4706 0
-4701 4702 4706 0
4701 4702 -4706 0
4701 -4702 4706 0
-4702 4394 4703 0
-4702 -4394 -4703 0
4702 -4394 4703 0
4702 4394 -4703 0
-4703 -4704 -4705 0
-4703 4704 4705 0
4703 4704 -4705 0
4703 -4704 4705 0
4704 -9896 -4490 0
-4704 9896 0
-4704 4490 0
4705 -9895 -4498 0
-4705 9895 0
-4705 4498 0
4706 -4394 -4707 4708 0
4706 -4394 4707 -4708 0
-4706 4394 0
-4706 -4707 -4708 0
-4706 4707 4708 0
4707 44 -4490 0
-4707 -44 0
-4707 4490 0
4708 45 -4498 0
-4708 -45 0
-4708 4498 0
-4709 -4710 -4714 0
-4709 4710 4714 0
4709 4710 -4714 0
4709 -4710 4714 0
-4710 4394 4711 0
-4710 -4394 -4711 0
4710 -4394 4711 0
4710 4394 -4711 0
-4711 -4712 -4713 0
-4711 4712 4713 0
4711 4712 -4713 0
4711 -4712 4713 0
4712 -9897 -4490 0
-4712 9897 0
-4712 4490 0
4713 -9896 -4498 0
-4713 9896 0
-4713 4498 0
4714 -4394 -4715 4716 0
4714 -4394 4715 -4716 0
-4714 4394 0
-4714 -4715 -4716 0
-4714 4715 4716 0
4715 43 -4490 0
-4715 -43 0
-4715 4490 0
4716 44 -4498 0
-4716 -44 0
-4716 4498 0
-4717 -4718 -4722 0
-4717 4718 4722 0
4717 4718 -4722 0
4717 -4718 4722 0
-4718 4394 4719 0
-4718 -4394 -4719 0
4718 -4394 4719 0
4718 4394 -4719 0
-4719 -4720 -4721 0
-4719 4720 4721 0
4719 4720 -4721 0
4719 -4720 4721 0
4720 -9898 -4490 0
-4720 9898 0
-4720 4490 0
4721 -9897 -4498 0
-4721 9897 0
-4721 4498 0
4722 -4394 -4723 4724 0
4722 -4394 4723 -4724 0
-4722 4394 0
-4722 -4723 -4724 0
-4722 4723 4724 0
4723 42 -4490 0
-4723 -42 0
-4723 4490 0
4724 43 -4498 0
-4724 -43 0
-4724 4498 0
-4725 -4726 -4730 0
-4725 4726 4730 0
4725 4726 -4730 0
4725 -4726 4730 0
-4726 4394 4727 0
-4726 -4394 -4727 0
4726 -4394 4727 0
4726 4394 -4727 0
-4727 -4728 -4729 0
-4727 4728 4729 0
4727 4728 -4729 0
4727 -4728 4729 0
4728 -9899 -4490 0
-4728 9899 0
-4728 4490 0
4729 -9898 -4498 0
-4729 9898 0
-4729 4498 0
4730 -4394 -4731 4732 0
4730 -4394 4731 -4732 0
-4730 4394 0
-4730 -4731 -4732 0
-4730 4731 4732 0
4731 41 -4490 0
-4731 -41 0
-4731 4490 0
4732 42 -4498 0
-4732 -42 0
-4732 4498 0
-4733 -4734 -4738 0
-4733 4734 4738 0
4733 4734 -4738 0
4733 -4734 4738 0
-4734 4394 4735 0
-4734 -4394 -4735 0
4734 -4394 4735 0
4734 4394 -4735 0
-4735 -4736 -4737 0
-4735 4736 4737 0
4735 4736 -4737 0
4735 -4736 4737 0
4736 -9900 -4490 0
-4736 9900 0
-4736 4490 0
4737 -9899 -4498 0
-4737 9899 0
-4737 4498 0
4738 -4394 -4739 4740 0
4738 -4394 4739 -4740 0
-4738 4394 0
-4738 -4739 -4740 0
-4738 4739 4740 0
4739 40 -4490 0
-4739 -40 0
-4739 4490 0
4740 41 -4498 0
-4740 -41 0
-4740 4498 0
-4741 -4742 -4744 0
-4741 4742 4744 0
4741 4742 -4744 0
4741 -4742 4744 0
-4742 -4394 -4743 0
-4742 4394 4743 0
4742 4394 -4743 0
4742 -4394 4743 0
4743 -9900 -4498 0
-4743 9900 0
-4743 4498 0
4744 -4394 -4745 4746 0
4744 -4394 4745 -4746 0
-4744 4394 0
-4744 -4745 -4746 0
-4744 4745 4746 0
4745 39 -4490 0
-4745 -39 0
-4745 4490 0
4746 40 -4498 0
-4746 -40 0
-4746 4498 0
-4747 4748 0
4747 -4748 0
4748 -39 -4749 0
-4748 39 0
-4748 4749 0
-4749 4750 0
4749 -4750 0
4750 9929 -9930 0
4750 9928 -9930 0
-4750 9930 0
-4750 -9928 -9929 0
-4751 11 4752 0
-4751 4752 5096 0
-4751 11 5096 0
4751 -11 -5096 0
4751 -4752 -5096 0
4751 -11 -4752 0
-4752 11 4753 0
-4752 4753 5088 0
-4752 11 5088 0
4752 -11 -5088 0
4752 -4753 -5088 0
4752 -11 -4753 0
-4753 4754 4756 0
-4753 4756 5080 0
-4753 4754 5080 0
4753 -4754 -5080 0
4753 -4756 -5080 0
4753 -4754 -4756 0
-4754 4397 4755 0
-4754 -4397 -4755 0
4754 -4397 4755 0
4754 4397 -4755 0
-4755 13 4741 0
-4755 -13 -4741 0
4755 -13 4741 0
4755 13 -4741 0
-4756 4757 4759 0
-4756 4759 5072 0
-4756 4757 5072 0
4756 -4757 -5072 0
4756 -4759 -5072 0
4756 -4757 -4759 0
-4757 4398 4758 0
-4757 -4398 -4758 0
4757 -4398 4758 0
4757 4398 -4758 0
-4758 13 4733 0
-4758 -13 -4733 0
4758 -13 4733 0
4758 13 -4733 0
-4759 4760 4762 0
-4759 4762 5064 0
-4759 4760 5064 0
4759 -4760 -5064 0
4759 -4762 -5064 0
4759 -4760 -4762 0
-4760 4401 4761 0
-4760 -4401 -4761 0
4760 -4401 4761 0
4760 4401 -4761 0
-4761 4399 4725 0
-4761 -4399 -4725 0
4761 -4399 4725 0
4761 4399 -4725 0
-4762 4763 4765 0
-4762 4765 5056 0
-4762 4763 5056 0
4762 -4763 -5056 0
4762 -4765 -5056 0
4762 -4763 -4765 0
-4763 4404 4764 0
-4763 -4404 -4764 0
4763 -4404 4764 0
4763 4404 -4764 0
-4764 4402 4717 0
-4764 -4402 -4717 0
4764 -4402 4717 0
4764 4402 -4717 0
-4765 4766 4768 0
-4765 4768 5048 0
-4765 4766 5048 0
4765 -4766 -5048 0
4765 -4768 -5048 0
4765 -4766 -4768 0
-4766 4407 4767 0
-4766 -4407 -4767 0
4766 -4407 4767 0
4766 4407 -4767 0
-4767 4405 4709 0
-4767 -4405 -4709 0
4767 -4405 4709 0
4767 4405 -4709 0
-4768 4769 4771 0
-4768 4771 5040 0
-4768 4769 5040 0
4768 -4769 -5040 0
4768 -4771 -5040 0
4768 -4769 -4771 0
-4769 4410 4770 0
-4769 -4410 -4770 0
4769 -4410 4770 0
4769 4410 -4770 0
-4770 4408 4701 0
-4770 -4408 -4701 0
4770 -4408 4701 0
4770 4408 -4701 0
-4771 4772 4774 0
-4771 4774 5032 0
-4771 4772 5032 0
4771 -4772 -5032 0
4771 -4774 -5032 0
4771 -4772 -4774 0
-4772 4413 4773 0
-4772 -4413 -4773 0
4772 -4413 4773 0
4772 4413 -4773 0
-4773 4411 4693 0
-4773 -4411 -4693 0
4773 -4411 4693 0
4773 4411 -4693 0
-4774 4775 4777 0
-4774 4777 5024 0
-4774 4775 5024 0
4774 -4775 -5024 0
4774 -4777 -5024 0
4774 -4775 -4777 0
-4775 4416 4776 0
-4775 -4416 -4776 0
4775 -4416 4776 0
4775 4416 -4776 0
-4776 4414 4685 0
-4776 -4414 -4685 0
4776 -4414 4685 0
4776 4414 -4685 0
-4777 4778 4780 0
-4777 4780 5016 0
-4777 4778 5016 0
4777 -4778 -5016 0
4777 -4780 -5016 0
4777 -4778 -4780 0
-4778 4419 4779 0
-4778 -4419 -4779 0
4778 -4419 4779 0
4778 4419 -4779 0
-4779 4417 4677 0
-4779 -4417 -4677 0
4779 -4417 4677 0
4779 4417 -4677 0
-4780 4781 4783 0
-4780 4783 5008 0
-4780 4781 5008 0
4780 -4781 -5008 0
4780 -4783 -5008 0
4780 -4781 -4783 0
-4781 4422 4782 0
-4781 -4422 -4782 0
4781 -4422 4782 0
4781 4422 -4782 0
-4782 4420 4669 0
-4782 -4420 -4669 0
4782 -4420 4669 0
4782 4420 -4669 0
-4783 4784 4786 0
-4783 4786 5000 0
-4783 4784 5000 0
4783 -4784 -5000 0
4783 -4786 -5000 0
4783 -4784 -4786 0
-4784 4425 4785 0
-4784 -4425 -4785 0
4784 -4425 4785 0
4784 4425 -4785 0
-4785 4423 4661 0
-4785 -4423 -4661 0
4785 -4423 4661 0
4785 4423 -4661 0
-4786 4787 4789 0
-4786 4789 4992 0
-4786 4787 4992 0
4786 -4787 -4992 0
4786 -4789 -4992 0
4786 -4787 -4789 0
-4787 4428 4788 0
-4787 -4428 -4788 0
4787 -4428 4788 0
4787 4428 -4788 0
-4788 4426 4653 0
-4788 -4426 -4653 0
4788 -4426 4653 0
4788 4426 -4653 0
-4789 4790 4792 0
-4789 4792 4984 0
-4789 4790 4984 0
4789 -4790 -4984 0
4789 -4792 -4984 0
4789 -4790 -4792 0
-4790 4431 4791 0
-4790 -4431 -4791 0
4790 -4431 4791 0
4790 4431 -4791 0
-4791 4429 4645 0
-4791 -4429 -4645 0
4791 -4429 4645 0
4791 4429 -4645 0
-4792 4793 4795 0
-4792 4795 4976 0
-4792 4793 4976 0
4792 -4793 -4976 0
4792 -4795 -4976 0
4792 -4793 -4795 0
-4793 4434 4794 0
-4793 -4434 -4794 0
4793 -4434 4794 0
4793 4434 -4794 0
-4794 4432 4637 0
-4794 -4432 -4637 0
4794 -4432 4637 0
4794 4432 -4637 0
-4795 4796 4798 0
-4795 4798 4968 0
-4795 4796 4968 0
4795 -4796 -4968 0
4795 -4798 -4968 0
4795 -4796 -4798 0
-4796 4437 4797 0
-4796 -4437 -4797 0
4796 -4437 4797 0
4796 4437 -4797 0
-4797 4435 4629 0
-4797 -4435 -4629 0
4797 -4435 4629 0
4797 4435 -4629 0
-4798 4799 4801 0
-4798 4801 4960 0
-4798 4799 4960 0
4798 -4799 -4960 0
4798 -4801 -4960 0
4798 -4799 -4801 0
-4799 4440 4800 0
-4799 -4440 -4800 0
4799 -4440 4800 0
4799 4440 -4800 0
-4800 4438 4621 0
-4800 -4438 -4621 0
4800 -4438 4621 0
4800 4438 -4621 0
-4801 4802 4804 0
-4801 4804 4952 0
-4801 4802 4952 0
4801 -4802 -4952 0
4801 -4804 -4952 0
4801 -4802 -4804 0
-4802 4443 4803 0
-4802 -4443 -4803 0
4802 -4443 4803 0
4802 4443 -4803 0
-4803 4441 4613 0
-4803 -4441 -4613 0
4803 -4441 4613 0
4803 4441 -4613 0
-4804 4805 4807 0
-4804 4807 4944 0
-4804 4805 4944 0
4804 -4805 -4944 0
4804 -4807 -4944 0
4804 -4805 -4807 0
-4805 4446 4806 0
-4805 -4446 -4806 0
4805 -4446 4806 0
4805 4446 -4806 0
-4806 4444 4605 0
-4806 -4444 -4605 0
4806 -4444 4605 0
4806 4444 -4605 0
-4807 4808 4810 0
-4807 4810 4936 0
-4807 4808 4936 0
4807 -4808 -4936 0
4807 -4810 -4936 0
4807 -4808 -4810 0
-4808 4449 4809 0
-4808 -4449 -4809 0
4808 -4449 4809 0
4808 4449 -4809 0
-4809 4447 4597 0
-4809 -4447 -4597 0
4809 -4447 4597 0
4809 4447 -4597 0
-4810 4811 4813 0
-4810 4813 4928 0
-4810 4811 4928 0
4810 -4811 -4928 0
4810 -4813 -4928 0
4810 -4811 -4813 0
-4811 4452 4812 0
-4811 -4452 -4812 0
4811 -4452 4812 0
4811 4452 -4812 0
-4812 4450 4589 0
-4812 -4450 -4589 0
4812 -4450 4589 0
4812 4450 -4589 0
-4813 4814 4816 0
-4813 4816 4920 0
-4813 4814 4920 0
4813 -4814 -4920 0
4813 -4816 -4920 0
4813 -4814 -4816 0
-4814 4455 4815 0
-4814 -4455 -4815 0
4814 -4455 4815 0
4814 4455 -4815 0
-4815 4453 4581 0
-4815 -4453 -4581 0
4815 -4453 4581 0
4815 4453 -4581 0
-4816 4817 4819 0
-4816 4819 4912 0
-4816 4817 4912 0
4816 -4817 -4912 0
4816 -4819 -4912 0
4816 -4817 -4819 0
-4817 4458 4818 0
-4817 -4458 -4818 0
4817 -4458 4818 0
4817 4458 -4818 0
-4818 4456 4573 0
-4818 -4456 -4573 0
4818 -4456 4573 0
4818 4456 -4573 0
-4819 4820 4822 0
-4819 4822 4904 0
-4819 4820 4904 0
4819 -4820 -4904 0
4819 -4822 -4904 0
4819 -4820 -4822 0
-4820 4461 4821 0
-4820 -4461 -4821 0
4820 -4461 4821 0
4820 4461 -4821 0
-4821 4459 4565 0
-4821 -4459 -4565 0
4821 -4459 4565 0
4821 4459 -4565 0
-4822 4823 4825 0
-4822 4825 4896 0
-4822 4823 4896 0
4822 -4823 -4896 0
4822 -4825 -4896 0
4822 -4823 -4825 0
-4823 4464 4824 0
-4823 -4464 -4824 0
4823 -4464 4824 0
4823 4464 -4824 0
-4824 4462 4557 0
-4824 -4462 -4557 0
4824 -4462 4557 0
4824 4462 -4557 0
-4825 4826 4828 0
-4825 4828 4888 0
-4825 4826 4888 0
4825 -4826 -4888 0
4825 -4828 -4888 0
4825 -4826 -4828 0
-4826 4467 4827 0
-4826 -4467 -4827 0
4826 -4467 4827 0
4826 4467 -4827 0
-4827 4465 4549 0
-4827 -4465 -4549 0
4827 -4465 4549 0
4827 4465 -4549 0
-4828 4829 4831 0
-4828 4831 4880 0
-4828 4829 4880 0
4828 -4829 -4880 0
4828 -4831 -4880 0
4828 -4829 -4831 0
-4829 4470 4830 0
-4829 -4470 -4830 0
4829 -4470 4830 0
4829 4470 -4830 0
-4830 4468 4541 0
-4830 -4468 -4541 0
4830 -4468 4541 0
4830 4468 -4541 0
-4831 4832 4834 0
-4831 4834 4872 0
-4831 4832 4872 0
4831 -4832 -4872 0
4831 -4834 -4872 0
4831 -4832 -4834 0
-4832 4473 4833 0
-4832 -4473 -4833 0
4832 -4473 4833 0
4832 4473 -4833 0
-4833 4471 4533 0
-4833 -4471 -4533 0
4833 -4471 4533 0
4833 4471 -4533 0
-4834 4835 4837 0
-4834 4837 4864 0
-4834 4835 4864 0
4834 -4835 -4864 0
4834 -4837 -4864 0
4834 -4835 -4837 0
-4835 4476 4836 0
-4835 -4476 -4836 0
4835 -4476 4836 0
4835 4476 -4836 0
-4836 4474 4525 0
-4836 -4474 -4525 0
4836 -4474 4525 0
4836 4474 -4525 0
-4837 4838 4840 0
-4837 4840 4856 0
-4837 4838 4856 0
4837 -4838 -4856 0
4837 -4840 -4856 0
4837 -4838 -4840 0
-4838 4479 4839 0
-4838 -4479 -4839 0
4838 -4479 4839 0
4838 4479 -4839 0
-4839 4477 4517 0
-4839 -4477 -4517 0
4839 -4477 4517 0
4839 4477 -4517 0
-4840 4841 4848 0
-4840 4841 4843 0
-4840 4843 4848 0
4840 -4843 -4848 0
4840 -4841 -4848 0
4840 -4841 -4843 0
-4841 4482 4842 0
-4841 -4482 -4842 0
4841 -4482 4842 0
4841 4482 -4842 0
-4842 4480 4509 0
-4842 -4480 -4509 0
4842 -4480 4509 0
4842 4480 -4509 0
4843 -4844 -4846 0
-4843 4844 0
-4843 4846 0
4844 -9869 -4845 0
-4844 9869 0
-4844 4845 0
-4845 -9928 -9929 0
-4845 9928 9929 0
4845 9928 -9929 0
4845 -9928 9929 0
-4846 4485 4847 0
-4846 -4485 -4847 0
4846 -4485 4847 0
4846 4485 -4847 0
-4847 4483 4501 0
-4847 -4483 -4501 0
4847 -4483 4501 0
4847 4483 -4501 0
-4848 -4849 -4854 0
-4848 4849 4854 0
4848 4849 -4854 0
4848 -4849 4854 0
-4849 4749 4850 0
-4849 -4749 -4850 0
4849 -4749 4850 0
4849 4749 -4850 0
-4850 -4851 -4852 0
-4850 4851 4852 0
4850 4851 -4852 0
4850 -4851 4852 0
4851 -9870 -4845 0
-4851 9870 0
-4851 4845 0
4852 -9869 -4853 0
-4852 9869 0
-4852 4853 0
-4853 -9928 -9930 0
-4853 9929 9930 0
-4853 9928 -9929 0
4853 -9928 -9929 9930 0
4853 9928 9929 -9930 0
4854 -4749 4853 -4855 0
4854 -4749 -4853 4855 0
-4854 4749 0
-4854 4853 4855 0
-4854 -4853 -4855 0
4855 9869 -4845 0
-4855 -9869 0
-4855 4845 0
-4856 -4857 -4861 0
-4856 4857 4861 0
4856 4857 -4861 0
4856 -4857 4861 0
-4857 4749 4858 0
-4857 -4749 -4858 0
4857 -4749 4858 0
4857 4749 -4858 0
-4858 -4859 -4860 0
-4858 4859 4860 0
4858 4859 -4860 0
4858 -4859 4860 0
4859 -9871 -4845 0
-4859 9871 0
-4859 4845 0
4860 -9870 -4853 0
-4860 9870 0
-4860 4853 0
4861 -4749 -4862 4863 0
4861 -4749 4862 -4863 0
-4861 4749 0
-4861 -4862 -4863 0
-4861 4862 4863 0
4862 69 -4845 0
-4862 -69 0
-4862 4845 0
4863 9869 -4853 0
-4863 -9869 0
-4863 4853 0
-4864 -4865 -4869 0
-4864 4865 4869 0
4864 4865 -4869 0
4864 -4865 4869 0
-4865 4749 4866 0
-4865 -4749 -4866 0
4865 -4749 4866 0
4865 4749 -4866 0
-4866 -4867 -4868 0
-4866 4867 4868 0
4866 4867 -4868 0
4866 -4867 4868 0
4867 -9872 -4845 0
-4867 9872 0
-4867 4845 0
4868 -9871 -4853 0
-4868 9871 0
-4868 4853 0
4869 -4749 -4870 4871 0
4869 -4749 4870 -4871 0
-4869 4749 0
-4869 -4870 -4871 0
-4869 4870 4871 0
4870 68 -4845 0
-4870 -68 0
-4870 4845 0
4871 69 -4853 0
-4871 -69 0
-4871 4853 0
-4872 -4873 -4877 0
-4872 4873 4877 0
4872 4873 -4877 0
4872 -4873 4877 0
-4873 4749 4874 0
-4873 -4749 -4874 0
4873 -4749 4874 0
4873 4749 -4874 0
-4874 -4875 -4876 0
-4874 4875 4876 0
4874 4875 -4876 0
4874 -4875 4876 0
4875 -9873 -4845 0
-4875 9873 0
-4875 4845 0
4876 -9872 -4853 0
-4876 9872 0
-4876 4853 0
4877 -4749 -4878 4879 0
4877 -4749 4878 -4879 0
-4877 4749 0
-4877 -4878 -4879 0
-4877 4878 4879 0
4878 67 -4845 0
-4878 -67 0
-4878 4845 0
4879 68 -4853 0
-4879 -68 0
-4879 4853 0
-4880 -4881 -4885 0
-4880 4881 4885 0
4880 4881 -4885 0
4880 -4881 4885 0
-4881 4749 4882 0
-4881 -4749 -4882 0
4881 -4749 4882 0
4881 4749 -4882 0
-4882 -4883 -4884 0
-4882 4883 4884 0
4882 4883 -4884 0
4882 -4883 4884 0
4883 -9874 -4845 0
-4883 9874 0
-4883 4845 0
4884 -9873 -4853 0
-4884 9873 0
-4884 4853 0
4885 -4749 -4886 4887 0
4885 -4749 4886 -4887 0
-4885 4749 0
-4885 -4886 -4887 0
-4885 4886 4887 0
4886 66 -4845 0
-4886 -66 0
-4886 4845 0
4887 67 -4853 0
-4887 -67 0
-4887 4853 0
-4888 -4889 -4893 0
-4888 4889 4893 0
4888 4889 -4893 0
4888 -4889 4893 0
-4889 4749 4890 0
-4889 -4749 -4890 0
4889 -4749 4890 0
4889 4749 -4890 0
-4890 -4891 -4892 0
-4890 4891 4892 0
4890 4891 -4892 0
4890 -4891 4892 0
4891 -9875 -4845 0
-4891 9875 0
-4891 4845 0
4892 -9874 -4853 0
-4892 9874 0
-4892 4853 0
4893 -4749 -4894 4895 0
4893 -4749 4894 -4895 0
-4893 4749 0
-4893 -4894 -4895 0
-4893 4894 4895 0
4894 65 -4845 0
-4894 -65 0
-4894 4845 0
4895 66 -4853 0
-4895 -66 0
-4895 4853 0
-4896 -4897 -4901 0
-4896 4897 4901 0
4896 4897 -4901 0
4896 -4897 4901 0
-4897 4749 4898 0
-4897 -4749 -4898 0
4897 -4749 4898 0
4897 4749 -4898 0
-4898 -4899 -4900 0
-4898 4899 4900 0
4898 4899 -4900 0
4898 -4899 4900 0
4899 -9876 -4845 0
-4899 9876 0
-4899 4845 0
4900 -9875 -4853 0
-4900 9875 0
-4900 4853 0
4901 -4749 -4902 4903 0
4901 -4749 4902 -4903 0
-4901 4749 0
-4901 -4902 -4903 0
-4901 4902 4903 0
4902 64 -4845 0
-4902 -64 0
-4902 4845 0
4903 65 -4853 0
-4903 -65 0
-4903 4853 0
-4904 -4905 -4909 0
-4904 4905 4909 0
4904 4905 -4909 0
4904 -4905 4909 0
-4905 4749 4906 0
-4905 -4749 -4906 0
4905 -4749 4906 0
4905 4749 -4906 0
-4906 -4907 -4908 0
-4906 4907 4908 0
4906 4907 -4908 0
4906 -4907 4908 0
4907 -9877 -4845 0
-4907 9877 0
-4907 4845 0
4908 -9876 -4853 0
-4908 9876 0
-4908 4853 0
4909 -4749 -4910 4911 0
4909 -4749 4910 -4911 0
-4909 4749 0
-4909 -4910 -4911 0
-4909 4910 4911 0
4910 63 -4845 0
-4910 -63 0
-4910 4845 0
4911 64 -4853 0
-4911 -64 0
-4911 4853 0
-4912 -4913 -4917 0
-4912 4913 4917 0
4912 4913 -4917 0
4912 -4913 4917 0
-4913 4749 4914 0
-4913 -4749 -4914 0
4913 -4749 4914 0
4913 4749 -4914 0
-4914 -4915 -4916 0
-4914 4915 4916 0
4914 4915 -4916 0
4914 -4915 4916 0
4915 -9878 -4845 0
-4915 9878 0
-4915 4845 0
4916 -9877 -4853 0
-4916 9877 0
-4916 4853 0
4917 -4749 -4918 4919 0
4917 -4749 4918 -4919 0
-4917 4749 0
-4917 -4918 -4919 0
-4917 4918 4919 0
4918 62 -4845 0
-4918 -62 0
-4918 4845 0
4919 63 -4853 0
-4919 -63 0
-4919 4853 0
-4920 -4921 -4925 0
-4920 4921 4925 0
4920 4921 -4925 0
4920 -4921 4925 0
-4921 4749 4922 0
-4921 -4749 -4922 0
4921 -4749 4922 0
4921 4749 -4922 0
-4922 -4923 -4924 0
-4922 4923 4924 0
4922 4923 -4924 0
4922 -4923 4924 0
4923 -9879 -4845 0
-4923 9879 0
-4923 4845 0
4924 -9878 -4853 0
-4924 9878 0
-4924 4853 0
4925 -4749 -4926 4927 0
4925 -4749 4926 -4927 0
-4925 4749 0
-4925 -4926 -4927 0
-4925 4926 4927 0
4926 61 -4845 0
-4926 -61 0
-4926 4845 0
4927 62 -4853 0
-4927 -62 0
-4927 4853 0
-4928 -4929 -4933 0
-4928 4929 4933 0
4928 4929 -4933 0
4928 -4929 4933 0
-4929 4749 4930 0
-4929 -4749 -4930 0
4929 -4749 4930 0
4929 4749 -4930 0
-4930 -4931 -4932 0
-4930 4931 4932 0
4930 4931 -4932 0
4930 -4931 4932 0
4931 -9880 -4845 0
-4931 9880 0
-4931 4845 0
4932 -9879 -4853 0
-4932 9879 0
-4932 4853 0
4933 -4749 -4934 4935 0
4933 -4749 4934 -4935 0
-4933 4749 0
-4933 -4934 -4935 0
-4933 4934 4935 0
4934 60 -4845 0
-4934 -60 0
-4934 4845 0
4935 61 -4853 0
-4935 -61 0
-4935 4853 0
-4936 -4937 -4941 0
-4936 4937 4941 0
4936 4937 -4941 0
4936 -4937 4941 0
-4937 4749 4938 0
-4937 -4749 -4938 0
4937 -4749 4938 0
4937 4749 -4938 0
-4938 -4939 -4940 0
-4938 4939 4940 0
4938 4939 -4940 0
4938 -4939 4940 0
4939 -9881 -4845 0
-4939 9881 0
-4939 4845 0
4940 -9880 -4853 0
-4940 9880 0
-4940 4853 0
4941 -4749 -4942 4943 0
4941 -4749 4942 -4943 0
-4941 4749 0
-4941 -4942 -4943 0
-4941 4942 4943 0
4942 59 -4845 0
-4942 -59 0
-4942 4845 0
4943 60 -4853 0
-4943 -60 0
-4943 4853 0
-4944 -4945 -4949 0
-4944 4945 4949 0
4944 4945 -4949 0
4944 -4945 4949 0
-4945 4749 4946 0
-4945 -4749 -4946 0
4945 -4749 4946 0
4945 4749 -4946 0
-4946 -4947 -4948 0
-4946 4947 4948 0
4946 4947 -4948 0
4946 -4947 4948 0
4947 -9882 -4845 0
-4947 9882 0
-4947 4845 0
4948 -9881 -4853 0
-4948 9881 0
-4948 4853 0
4949 -4749 -4950 4951 0
4949 -4749 4950 -4951 0
-4949 4749 0
-4949 -4950 -4951 0
-4949 4950 4951 0
4950 58 -4845 0
-4950 -58 0
-4950 4845 0
4951 59 -4853 0
-4951 -59 0
-4951 4853 0
-4952 -4953 -4957 0
-4952 4953 4957 0
4952 4953 -4957 0
4952 -4953 4957 0
-4953 4749 4954 0
-4953 -4749 -4954 0
4953 -4749 4954 0
4953 4749 -4954 0
-4954 -4955 -4956 0
-4954 4955 4956 0
4954 4955 -4956 0
4954 -4955 4956 0
4955 -9883 -4845 0
-4955 9883 0
-4955 4845 0
4956 -9882 -4853 0
-4956 9882 0
-4956 4853 0
4957 -4749 -4958 4959 0
4957 -4749 4958 -4959 0
-4957 4749 0
-4957 -4958 -4959 0
-4957 4958 4959 0
4958 57 -4845 0
-4958 -57 0
-4958 4845 0
4959 58 -4853 0
-4959 -58 0
-4959 4853 0
-4960 -4961 -4965 0
-4960 4961 4965 0
4960 4961 -4965 0
4960 -4961 4965 0
-4961 4749 4962 0
-4961 -4749 -4962 0
4961 -4749 4962 0
4961 4749 -4962 0
-4962 -4963 -4964 0
-4962 4963 4964 0
4962 4963 -4964 0
4962 -4963 4964 0
4963 -9884 -4845 0
-4963 9884 0
-4963 4845 0
4964 -9883 -4853 0
-4964 9883 0
-4964 4853 0
4965 -4749 -4966 4967 0
4965 -4749 4966 -4967 0
-4965 4749 0
-4965 -4966 -4967 0
-4965 4966 4967 0
4966 56 -4845 0
-4966 -56 0
-4966 4845 0
4967 57 -4853 0
-4967 -57 0
-4967 4853 0
-4968 -4969 -4973 0
-4968 4969 4973 0
4968 4969 -4973 0
4968 -4969 4973 0
-4969 4749 4970 0
-4969 -4749 -4970 0
4969 -4749 4970 0
4969 4749 -4970 0
-4970 -4971 -4972 0
-4970 4971 4972 0
4970 4971 -4972 0
4970 -4971 4972 0
4971 -9885 -4845 0
-4971 9885 0
-4971 4845 0
4972 -9884 -4853 0
-4972 9884 0
-4972 4853 0
4973 -4749 -4974 4975 0
4973 -4749 4974 -4975 0
-4973 4749 0
-4973 -4974 -4975 0
-4973 4974 4975 0
4974 55 -4845 0
-4974 -55 0
-4974 4845 0
4975 56 -4853 0
-4975 -56 0
-4975 4853 0
-4976 -4977 -4981 0
-4976 4977 4981 0
4976 4977 -4981 0
4976 -4977 4981 0
-4977 4749 4978 0
-4977 -4749 -4978 0
4977 -4749 4978 0
4977 4749 -4978 0
-4978 -4979 -4980 0
-4978 4979 4980 0
4978 4979 -4980 0
4978 -4979 4980 0
4979 -9886 -4845 0
-4979 9886 0
-4979 4845 0
4980 -9885 -4853 0
-4980 9885 0
-4980 4853 0
4981 -4749 -4982 4983 0
4981 -4749 4982 -4983 0
-4981 4749 0
-4981 -4982 -4983 0
-4981 4982 4983 0
4982 54 -4845 0
-4982 -54 0
-4982 4845 0
4983 55 -4853 0
-4983 -55 0
-4983 4853 0
-4984 -4985 -4989 0
-4984 4985 4989 0
4984 4985 -4989 0
4984 -4985 4989 0
-4985 4749 4986 0
-4985 -4749 -4986 0
4985 -4749 4986 0
4985 4749 -4986 0
-4986 -4987 -4988 0
-4986 4987 4988 0
4986 4987 -4988 0
4986 -4987 4988 0
4987 -9887 -4845 0
-4987 9887 0
-4987 4845 0
4988 -9886 -4853 0
-4988 9886 0
-4988 4853 0
4989 -4749 -4990 4991 0
4989 -4749 4990 -4991 0
-4989 4749 0
-4989 -4990 -4991 0
-4989 4990 4991 0
4990 53 -4845 0
-4990 -53 0
-4990 4845 0
4991 54 -4853 0
-4991 -54 0
-4991 4853 0
-4992 -4993 -4997 0
-4992 4993 4997 0
4992 4993 -4997 0
4992 -4993 4997 0
-4993 4749 4994 0
-4993 -4749 -4994 0
4993 -4749 4994 0
4993 4749 -4994 0
-4994 -4995 -4996 0
-4994 4995 4996 0
4994 4995 -4996 0
4994 -4995 4996 0
4995 -9888 -4845 0
-4995 9888 0
-4995 4845 0
4996 -9887 -4853 0
-4996 9887 0
-4996 4853 0
4997 -4749 -4998 4999 0
4997 -4749 4998 -4999 0
-4997 4749 0
-4997 -4998 -4999 0
-4997 4998 4999 0
4998 52 -4845 0
-4998 -52 0
-4998 4845 0
4999 53 -4853 0
-4999 -53 0
-4999 4853 0
-5000 -5001 -5005 0
-5000 5001 5005 0
5000 5001 -5005 0
5000 -5001 5005 0
-5001 4749 5002 0
-5001 -4749 -5002 0
5001 -4749 5002 0
5001 4749 -5002 0
-5002 -5003 -5004 0
-5002 5003 5004 0
5002 5003 -5004 0
5002 -5003 5004 0
5003 -9889 -4845 0
-5003 9889 0
-5003 4845 0
5004 -9888 -4853 0
-5004 9888 0
-5004 4853 0
5005 -4749 -5006 5007 0
5005 -4749 5006 -5007 0
-5005 4749 0
-5005 -5006 -5007 0
-5005 5006 5007 0
5006 51 -4845 0
-5006 -51 0
-5006 4845 0
5007 52 -4853 0
-5007 -52 0
-5007 4853 0
-5008 -5009 -5013 0
-5008 5009 5013 0
5008 5009 -5013 0
5008 -5009 5013 0
-5009 4749 5010 0
-5009 -4749 -5010 0
5009 -4749 5010 0
5009 4749 -5010 0
-5010 -5011 -5012 0
-5010 5011 5012 0
5010 5011 -5012 0
5010 -5011 5012 0
5011 -9890 -4845 0
-5011 9890 0
-5011 4845 0
5012 -9889 -4853 0
-5012 9889 0
-5012 4853 0
5013 -4749 -5014 5015 0
5013 -4749 5014 -5015 0
-5013 4749 0
-5013 -5014 -5015 0
-5013 5014 5015 0
5014 50 -4845 0
-5014 -50 0
-5014 4845 0
5015 51 -4853 0
-5015 -51 0
-5015 4853 0
-5016 -5017 -5021 0
-5016 5017 5021 0
5016 5017 -5021 0
5016 -5017 5021 0
-5017 4749 5018 0
-5017 -4749 -5018 0
5017 -4749 5018 0
5017 4749 -5018 0
-5018 -5019 -5020 0
-5018 5019 5020 0
5018 5019 -5020 0
5018 -5019 5020 0
5019 -9891 -4845 0
-5019 9891 0
-5019 4845 0
5020 -9890 -4853 0
-5020 9890 0
-5020 4853 0
5021 -4749 -5022 5023 0
5021 -4749 5022 -5023 0
-5021 4749 0
-5021 -5022 -5023 0
-5021 5022 5023 0
5022 49 -4845 0
-5022 -49 0
-5022 4845 0
5023 50 -4853 0
-5023 -50 0
-5023 4853 0
-5024 -5025 -5029 0
-5024 5025 5029 0
5024 5025 -5029 0
5024 -5025 5029 0
-5025 4749 5026 0
-5025 -4749 -5026 0
5025 -4749 5026 0
5025 4749 -5026 0
-5026 -5027 -5028 0
-5026 5027 5028 0
5026 5027 -5028 0
5026 -5027 5028 0
5027 -9892 -4845 0
-5027 9892 0
-5027 4845 0
5028 -9891 -4853 0
-5028 9891 0
-5028 4853 0
5029 -4749 -5030 5031 0
5029 -4749 5030 -5031 0
-5029 4749 0
-5029 -5030 -5031 0
-5029 5030 5031 0
5030 48 -4845 0
-5030 -48 0
-5030 4845 0
5031 49 -4853 0
-5031 -49 0
-5031 4853 0
-5032 -5033 -5037 0
-5032 5033 5037 0
5032 5033 -5037 0
5032 -5033 5037 0
-5033 4749 5034 0
-5033 -4749 -5034 0
5033 -4749 5034 0
5033 4749 -5034 0
-5034 -5035 -5036 0
-5034 5035 5036 0
5034 5035 -5036 0
5034 -5035 5036 0
5035 -9893 -4845 0
-5035 9893 0
-5035 4845 0
5036 -9892 -4853 0
-5036 9892 0
-5036 4853 0
5037 -4749 -5038 5039 0
5037 -4749 5038 -5039 0
-5037 4749 0
-5037 -5038 -5039 0
-5037 5038 5039 0
5038 47 -4845 0
-5038 -47 0
-5038 4845 0
5039 48 -4853 0
-5039 -48 0
-5039 4853 0
-5040 -5041 -5045 0
-5040 5041 5045 0
5040 5041 -5045 0
5040 -5041 5045 0
-5041 4749 5042 0
-5041 -4749 -5042 0
5041 -4749 5042 0
5041 4749 -5042 0
-5042 -5043 -5044 0
-5042 5043 5044 0
5042 5043 -5044 0
5042 -5043 5044 0
5043 -9894 -4845 0
-5043 9894 0
-5043 4845 0
5044 -9893 -4853 0
-5044 9893 0
-5044 4853 0
5045 -4749 -5046 5047 0
5045 -4749 5046 -5047 0
-5045 4749 0
-5045 -5046 -5047 0
-5045 5046 5047 0
5046 46 -4845 0
-5046 -46 0
-5046 4845 0
5047 47 -4853 0
-5047 -47 0
-5047 4853 0
-5048 -5049 -5053 0
-5048 5049 5053 0
5048 5049 -5053 0
5048 -5049 5053 0
-5049 4749 5050 0
-5049 -4749 -5050 0
5049 -4749 5050 0
5049 4749 -5050 0
-5050 -5051 -5052 0
-5050 5051 5052 0
5050 5051 -5052 0
5050 -5051 5052 0
5051 -9895 -4845 0
-5051 9895 0
-5051 4845 0
5052 -9894 -4853 0
-5052 9894 0
-5052 4853 0
5053 -4749 -5054 5055 0
5053 -4749 5054 -5055 0
-5053 4749 0
-5053 -5054 -5055 0
-5053 5054 5055 0
5054 45 -4845 0
-5054 -45 0
-5054 4845 0
5055 46 -4853 0
-5055 -46 0
-5055 4853 0
-5056 -5057 -5061 0
-5056 5057 5061 0
5056 5057 -5061 0
5056 -5057 5061 0
-5057 4749 5058 0
-5057 -4749 -5058 0
5057 -4749 5058 0
5057 4749 -5058 0
-5058 -5059 -5060 0
-5058 5059 5060 0
5058 5059 -5060 0
5058 -5059 5060 0
5059 -9896 -4845 0
-5059 9896 0
-5059 4845 0
5060 -9895 -4853 0
-5060 9895 0
-5060 4853 0
5061 -4749 -5062 5063 0
5061 -4749 5062 -5063 0
-5061 4749 0
-5061 -5062 -5063 0
-5061 5062 5063 0
5062 44 -4845 0
-5062 -44 0
-5062 4845 0
5063 45 -4853 0
-5063 -45 0
-5063 4853 0
-5064 -5065 -5069 0
-5064 5065 5069 0
5064 5065 -5069 0
5064 -5065 5069 0
-5065 4749 5066 0
-5065 -4749 -5066 0
5065 -4749 5066 0
5065 4749 -5066 0
-5066 -5067 -5068 0
-5066 5067 5068 0
5066 5067 -5068 0
5066 -5067 5068 0
5067 -9897 -4845 0
-5067 9897 0
-5067 4845 0
5068 -9896 -4853 0
-5068 9896 0
-5068 4853 0
5069 -4749 -5070 5071 0
5069 -4749 5070 -5071 0
-5069 4749 0
-5069 -5070 -5071 0
-5069 5070 5071 0
5070 43 -4845 0
-5070 -43 0
-5070 4845 0
5071 44 -4853 0
-5071 -44 0
-5071 4853 0
-5072 -5073 -5077 0
-5072 5073 5077 0
5072 5073 -5077 0
5072 -5073 5077 0
-5073 4749 5074 0
-5073 -4749 -5074 0
5073 -4749 5074 0
5073 4749 -5074 0
-5074 -5075 -5076 0
-5074 5075 5076 0
5074 5075 -5076 0
5074 -5075 5076 0
5075 -9898 -4845 0
-5075 9898 0
-5075 4845 0
5076 -9897 -4853 0
-5076 9897 0
-5076 4853 0
5077 -4749 -5078 5079 0
5077 -4749 5078 -5079 0
-5077 4749 0
-5077 -5078 -5079 0
-5077 5078 5079 0
5078 42 -4845 0
-5078 -42 0
-5078 4845 0
5079 43 -4853 0
-5079 -43 0
-5079 4853 0
-5080 -5081 -5085 0
-5080 5081 5085 0
5080 5081 -5085 0
5080 -5081 5085 0
-5081 4749 5082 0
-5081 -4749 -5082 0
5081 -4749 5082 0
5081 4749 -5082 0
-5082 -5083 -5084 0
-5082 5083 5084 0
5082 5083 -5084 0
5082 -5083 5084 0
5083 -9899 -4845 0
-5083 9899 0
-5083 4845 0
5084 -9898 -4853 0
-5084 9898 0
-5084 4853 0
5085 -4749 -5086 5087 0
5085 -4749 5086 -5087 0
-5085 4749 0
-5085 -5086 -5087 0
-5085 5086 5087 0
5086 41 -4845 0
-5086 -41 0
-5086 4845 0
5087 42 -4853 0
-5087 -42 0
-5087 4853 0
-5088 -5089 -5093 0
-5088 5089 5093 0
5088 5089 -5093 0
5088 -5089 5093 0
-5089 4749 5090 0
-5089 -4749 -5090 0
5089 -4749 5090 0
5089 4749 -5090 0
-5090 -5091 -5092 0
-5090 5091 5092 0
5090 5091 -5092 0
5090 -5091 5092 0
5091 -9900 -4845 0
-5091 9900 0
-5091 4845 0
5092 -9899 -4853 0
-5092 9899 0
-5092 4853 0
5093 -4749 -5094 5095 0
5093 -4749 5094 -5095 0
-5093 4749 0
-5093 -5094 -5095 0
-5093 5094 5095 0
5094 40 -4845 0
-5094 -40 0
-5094 4845 0
5095 41 -4853 0
-5095 -41 0
-5095 4853 0
-5096 -5097 -5099 0
-5096 5097 5099 0
5096 5097 -5099 0
5096 -5097 5099 0
-5097 -4749 -5098 0
-5097 4749 5098 0
5097 4749 -5098 0
5097 -4749 5098 0
5098 -9900 -4853 0
-5098 9900 0
-5098 4853 0
5099 -4749 -5100 5101 0
5099 -4749 5100 -5101 0
-5099 4749 0
-5099 -5100 -5101 0
-5099 5100 5101 0
5100 39 -4845 0
-5100 -39 0
-5100 4845 0
5101 40 -4853 0
-5101 -40 0
-5101 4853 0
-5102 5103 0
5102 -5103 0
5103 -39 -5104 0
-5103 39 0
-5103 5104 0
-5104 5105 0
5104 -5105 0
5105 9931 -9932 0
5105 9930 -9932 0
-5105 9932 0
-5105 -9930 -9931 0
-5106 9 5107 0
-5106 5107 5451 0
-5106 9 5451 0
5106 -9 -5451 0
5106 -5107 -5451 0
5106 -9 -5107 0
-5107 9 5108 0
-5107 5108 5443 0
-5107 9 5443 0
5107 -9 -5443 0
5107 -5108 -5443 0
5107 -9 -5108 0
-5108 5109 5111 0
-5108 5111 5435 0
-5108 5109 5435 0
5108 -5109 -5435 0
5108 -5111 -5435 0
5108 -5109 -5111 0
-5109 4752 5110 0
-5109 -4752 -5110 0
5109 -4752 5110 0
5109 4752 -5110 0
-5110 11 5096 0
-5110 -11 -5096 0
5110 -11 5096 0
5110 11 -5096 0
-5111 5112 5114 0
-5111 5114 5427 0
-5111 5112 5427 0
5111 -5112 -5427 0
5111 -5114 -5427 0
5111 -5112 -5114 0
-5112 4753 5113 0
-5112 -4753 -5113 0
5112 -4753 5113 0
5112 4753 -5113 0
-5113 11 5088 0
-5113 -11 -5088 0
5113 -11 5088 0
5113 11 -5088 0
-5114 5115 5117 0
-5114 5117 5419 0
-5114 5115 5419 0
5114 -5115 -5419 0
5114 -5117 -5419 0
5114 -5115 -5117 0
-5115 4756 5116 0
-5115 -4756 -5116 0
5115 -4756 5116 0
5115 4756 -5116 0
-5116 4754 5080 0
-5116 -4754 -5080 0
5116 -4754 5080 0
5116 4754 -5080 0
-5117 5118 5120 0
-5117 5120 5411 0
-5117 5118 5411 0
5117 -5118 -5411 0
5117 -5120 -5411 0
5117 -5118 -5120 0
-5118 4759 5119 0
-5118 -4759 -5119 0
5118 -4759 5119 0
5118 4759 -5119 0
-5119 4757 5072 0
-5119 -4757 -5072 0
5119 -4757 5072 0
5119 4757 -5072 0
-5120 5121 5123 0
-5120 5123 5403 0
-5120 5121 5403 0
5120 -5121 -5403 0
5120 -5123 -5403 0
5120 -5121 -5123 0
-5121 4762 5122 0
-5121 -4762 -5122 0
5121 -4762 5122 0
5121 4762 -5122 0
-5122 4760 5064 0
-5122 -4760 -5064 0
5122 -4760 5064 0
5122 4760 -5064 0
-5123 5124 5126 0
-5123 5126 5395 0
-5123 5124 5395 0
5123 -5124 -5395 0
5123 -5126 -5395 0
5123 -5124 -5126 0
-5124 4765 5125 0
-5124 -4765 -5125 0
5124 -4765 5125 0
5124 4765 -5125 0
-5125 4763 5056 0
-5125 -4763 -5056 0
5125 -4763 5056 0
5125 4763 -5056 0
-5126 5127 5129 0
-5126 5129 5387 0
-5126 5127 5387 0
5126 -5127 -5387 0
5126 -5129 -5387 0
5126 -5127 -5129 0
-5127 4768 5128 0
-5127 -4768 -5128 0
5127 -4768 5128 0
5127 4768 -5128 0
-5128 4766 5048 0
-5128 -4766 -5048 0
5128 -4766 5048 0
5128 4766 -5048 0
-5129 5130 5132 0
-5129 5132 5379 0
-5129 5130 5379 0
5129 -5130 -5379 0
5129 -5132 -5379 0
5129 -5130 -5132 0
-5130 4771 5131 0
-5130 -4771 -5131 0
5130 -4771 5131 0
5130 4771 -5131 0
-5131 4769 5040 0
-5131 -4769 -5040 0
5131 -4769 5040 0
5131 4769 -5040 0
-5132 5133 5135 0
-5132 5135 5371 0
-5132 5133 5371 0
5132 -5133 -5371 0
5132 -5135 -5371 0
5132 -5133 -5135 0
-5133 4774 5134 0
-5133 -4774 -5134 0
5133 -4774 5134 0
5133 4774 -5134 0
-5134 4772 5032 0
-5134 -4772 -5032 0
5134 -4772 5032 0
5134 4772 -5032 0
-5135 5136 5138 0
-5135 5138 5363 0
-5135 5136 5363 0
5135 -5136 -5363 0
5135 -5138 -5363 0
5135 -5136 -5138 0
-5136 4777 5137 0
-5136 -4777 -5137 0
5136 -4777 5137 0
5136 4777 -5137 0
-5137 4775 5024 0
-5137 -4775 -5024 0
5137 -4775 5024 0
5137 4775 -5024 0
-5138 5139 5141 0
-5138 5141 5355 0
-5138 5139 5355 0
5138 -5139 -5355 0
5138 -5141 -5355 0
5138 -5139 -5141 0
-5139 4780 5140 0
-5139 -4780 -5140 0
5139 -4780 5140 0
5139 4780 -5140 0
-5140 4778 5016 0
-5140 -4778 -5016 0
5140 -4778 5016 0
5140 4778 -5016 0
-5141 5142 5144 0
-5141 5144 5347 0
-5141 5142 5347 0
5141 -5142 -5347 0
5141 -5144 -5347 0
5141 -5142 -5144 0
-5142 4783 5143 0
-5142 -4783 -5143 0
5142 -4783 5143 0
5142 4783 -5143 0
-5143 4781 5008 0
-5143 -4781 -5008 0
5143 -4781 5008 0
5143 4781 -5008 0
-5144 5145 5147 0
-5144 5147 5339 0
-5144 5145 5339 0
5144 -5145 -5339 0
5144 -5147 -5339 0
5144 -5145 -5147 0
-5145 4786 5146 0
-5145 -4786 -5146 0
5145 -4786 5146 0
5145 4786 -5146 0
-5146 4784 5000 0
-5146 -4784 -5000 0
5146 -4784 5000 0
5146 4784 -5000 0
-5147 5148 5150 0
-5147 5150 5331 0
-5147 5148 5331 0
5147 -5148 -5331 0
5147 -5150 -5331 0
5147 -5148 -5150 0
-5148 4789 5149 0
-5148 -4789 -5149 0
5148 -4789 5149 0
5148 4789 -5149 0
-5149 4787 4992 0
-5149 -4787 -4992 0
5149 -4787 4992 0
5149 4787 -4992 0
-5150 5151 5153 0
-5150 5153 5323 0
-5150 5151 5323 0
5150 -5151 -5323 0
5150 -5153 -5323 0
5150 -5151 -5153 0
-5151 4792 5152 0
-5151 -4792 -5152 0
5151 -4792 5152 0
5151 4792 -5152 0
-5152 4790 4984 0
-5152 -4790 -4984 0
5152 -4790 4984 0
5152 4790 -4984 0
-5153 5154 5156 0
-5153 5156 5315 0
-5153 5154 5315 0
5153 -5154 -5315 0
5153 -5156 -5315 0
5153 -5154 -5156 0
-5154 4795 5155 0
-5154 -4795 -5155 0
5154 -4795 5155 0
5154 4795 -5155 0
-5155 4793 4976 0
-5155 -4793 -4976 0
5155 -4793 4976 0
5155 4793 -4976 0
-5156 5157 5159 0
-5156 5159 5307 0
-5156 5157 5307 0
5156 -5157 -5307 0
5156 -5159 -5307 0
5156 -5157 -5159 0
-5157 4798 5158 0
-5157 -4798 -5158 0
5157 -4798 5158 0
5157 4798 -5158 0
-5158 4796 4968 0
-5158 -4796 -4968 0
5158 -4796 4968 0
5158 4796 -4968 0
-5159 5160 5162 0
-5159 5162 5299 0
-5159 5160 5299 0
5159 -5160 -5299 0
5159 -5162 -5299 0
5159 -5160 -5162 0
-5160 4801 5161 0
-5160 -4801 -5161 0
5160 -4801 5161 0
5160 4801 -5161 0
-5161 4799 4960 0
-5161 -4799 -4960 0
5161 -4799 4960 0
5161 4799 -4960 0
-5162 5163 5165 0
-5162 5165 5291 0
-5162 5163 5291 0
5162 -5163 -5291 0
5162 -5165 -5291 0
5162 -5163 -5165 0
-5163 4804 5164 0
-5163 -4804 -5164 0
5163 -4804 5164 0
5163 4804 -5164 0
-5164 4802 4952 0
-5164 -4802 -4952 0
5164 -4802 4952 0
5164 4802 -4952 0
-5165 5166 5168 0
-5165 5168 5283 0
-5165 5166 5283 0
5165 -5166 -5283 0
5165 -5168 -5283 0
5165 -5166 -5168 0
-5166 4807 5167 0
-5166 -4807 -5167 0
5166 -4807 5167 0
5166 4807 -5167 0
-5167 4805 4944 0
-5167 -4805 -4944 0
5167 -4805 4944 0
5167 4805 -4944 0
-5168 5169 5171 0
-5168 5171 5275 0
-5168 5169 5275 0
5168 -5169 -5275 0
5168 -5171 -5275 0
5168 -5169 -5171 0
-5169 4810 5170 0
-5169 -4810 -5170 0
5169 -4810 5170 0
5169 4810 -5170 0
-5170 4808 4936 0
-5170 -4808 -4936 0
5170 -4808 4936 0
5170 4808 -4936 0
-5171 5172 5174 0
-5171 5174 5267 0
-5171 5172 5267 0
5171 -5172 -5267 0
5171 -5174 -5267 0
5171 -5172 -5174 0
-5172 4813 5173 0
-5172 -4813 -5173 0
5172 -4813 5173 0
5172 4813 -5173 0
-5173 4811 4928 0
-5173 -4811 -4928 0
5173 -4811 4928 0
5173 4811 -4928 0
-5174 5175 5177 0
-5174 5177 5259 0
-5174 5175 5259 0
5174 -5175 -5259 0
5174 -5177 -5259 0
5174 -5175 -5177 0
-5175 4816 5176 0
-5175 -4816 -5176 0
5175 -4816 5176 0
5175 4816 -5176 0
-5176 4814 4920 0
-5176 -4814 -4920 0
5176 -4814 4920 0
5176 4814 -4920 0
-5177 5178 5180 0
-5177 5180 5251 0
-5177 5178 5251 0
5177 -5178 -5251 0
5177 -5180 -5251 0
5177 -5178 -5180 0
-5178 4819 5179 0
-5178 -4819 -5179 0
5178 -4819 5179 0
5178 4819 -5179 0
-5179 4817 4912 0
-5179 -4817 -4912 0
5179 -4817 4912 0
5179 4817 -4912 0
-5180 5181 5183 0
-5180 5183 5243 0
-5180 5181 5243 0
5180 -5181 -5243 0
5180 -5183 -5243 0
5180 -5181 -5183 0
-5181 4822 5182 0
-5181 -4822 -5182 0
5181 -4822 5182 0
5181 4822 -5182 0
-5182 4820 4904 0
-5182 -4820 -4904 0
5182 -4820 4904 0
5182 4820 -4904 0
-5183 5184 5186 0
-5183 5186 5235 0
-5183 5184 5235 0
5183 -5184 -5235 0
5183 -5186 -5235 0
5183 -5184 -5186 0
-5184 4825 5185 0
-5184 -4825 -5185 0
5184 -4825 5185 0
5184 4825 -5185 0
-5185 4823 4896 0
-5185 -4823 -4896 0
5185 -4823 4896 0
5185 4823 -4896 0
-5186 5187 5189 0
-5186 5189 5227 0
-5186 5187 5227 0
5186 -5187 -5227 0
5186 -5189 -5227 0
5186 -5187 -5189 0
-5187 4828 5188 0
-5187 -4828 -5188 0
5187 -4828 5188 0
5187 4828 -5188 0
-5188 4826 4888 0
-5188 -4826 -4888 0
5188 -4826 4888 0
5188 4826 -4888 0
-5189 5190 5192 0
-5189 5192 5219 0
-5189 5190 5219 0
5189 -5190 -5219 0
5189 -5192 -5219 0
5189 -5190 -5192 0
-5190 4831 5191 0
-5190 -4831 -5191 0
5190 -4831 5191 0
5190 4831 -5191 0
-5191 4829 4880 0
-5191 -4829 -4880 0
5191 -4829 4880 0
5191 4829 -4880 0
-5192 5193 5195 0
-5192 5195 5211 0
-5192 5193 5211 0
5192 -5193 -5211 0
5192 -5195 -5211 0
5192 -5193 -5195 0
-5193 4834 5194 0
-5193 -4834 -5194 0
5193 -4834 5194 0
5193 4834 -5194 0
-5194 4832 4872 0
-5194 -4832 -4872 0
5194 -4832 4872 0
5194 4832 -4872 0
-5195 5196 5203 0
-5195 5196 5198 0
-5195 5198 5203 0
5195 -5198 -5203 0
5195 -5196 -5203 0
5195 -5196 -5198 0
-5196 4837 5197 0
-5196 -4837 -5197 0
5196 -4837 5197 0
5196 4837 -5197 0
-5197 4835 4864 0
-5197 -4835 -4864 0
5197 -4835 4864 0
5197 4835 -4864 0
5198 -5199 -5201 0
-5198 5199 0
-5198 5201 0
5199 -9869 -5200 0
-5199 9869 0
-5199 5200 0
-5200 -9930 -9931 0
-5200 9930 9931 0
5200 9930 -9931 0
5200 -9930 9931 0
-5201 4840 5202 0
-5201 -4840 -5202 0
5201 -4840 5202 0
5201 4840 -5202 0
-5202 4838 4856 0
-5202 -4838 -4856 0
5202 -4838 4856 0
5202 4838 -4856 0
-5203 -5204 -5209 0
-5203 5204 5209 0
5203 5204 -5209 0
5203 -5204 5209 0
-5204 5104 5205 0
-5204 -5104 -5205 0
5204 -5104 5205 0
5204 5104 -5205 0
-5205 -5206 -5207 0
-5205 5206 5207 0
5205 5206 -5207 0
5205 -5206 5207 0
5206 -9870 -5200 0
-5206 9870 0
-5206 5200 0
5207 -9869 -5208 0
-5207 9869 0
-5207 5208 0
-5208 -9930 -9932 0
-5208 9931 9932 0
-5208 9930 -9931 0
5208 -9930 -9931 9932 0
5208 9930 9931 -9932 0
5209 -5104 5208 -5210 0
5209 -5104 -5208 5210 0
-5209 5104 0
-5209 5208 5210 0
-5209 -5208 -5210 0
5210 9869 -5200 0
-5210 -9869 0
-5210 5200 0
-5211 -5212 -5216 0
-5211 5212 5216 0
5211 5212 -5216 0
5211 -5212 5216 0
-5212 5104 5213 0
-5212 -5104 -5213 0
5212 -5104 5213 0
5212 5104 -5213 0
-5213 -5214 -5215 0
-5213 5214 5215 0
5213 5214 -5215 0
5213 -5214 5215 0
5214 -9871 -5200 0
-5214 9871 0
-5214 5200 0
5215 -9870 -5208 0
-5215 9870 0
-5215 5208 0
5216 -5104 -5217 5218 0
5216 -5104 5217 -5218 0
-5216 5104 0
-5216 -5217 -5218 0
-5216 5217 5218 0
5217 69 -5200 0
-5217 -69 0
-5217 5200 0
5218 9869 -5208 0
-5218 -9869 0
-5218 5208 0
-5219 -5220 -5224 0
-5219 5220 5224 0
5219 5220 -5224 0
5219 -5220 5224 0
-5220 5104 5221 0
-5220 -5104 -5221 0
5220 -5104 5221 0
5220 5104 -5221 0
-5221 -5222 -5223 0
-5221 5222 5223 0
5221 5222 -5223 0
5221 -5222 5223 0
5222 -9872 -5200 0
-5222 9872 0
-5222 5200 0
5223 -9871 -5208 0
-5223 9871 0
-5223 5208 0
5224 -5104 -5225 5226 0
5224 -5104 5225 -5226 0
-5224 5104 0
-5224 -5225 -5226 0
-5224 5225 5226 0
5225 68 -5200 0
-5225 -68 0
-5225 5200 0
5226 69 -5208 0
-5226 -69 0
-5226 5208 0
-5227 -5228 -5232 0
-5227 5228 5232 0
5227 5228 -5232 0
5227 -5228 5232 0
-5228 5104 5229 0
-5228 -5104 -5229 0
5228 -5104 5229 0
5228 5104 -5229 0
-5229 -5230 -5231 0
-5229 5230 5231 0
5229 5230 -5231 0
5229 -5230 5231 0
5230 -9873 -5200 0
-5230 9873 0
-5230 5200 0
5231 -9872 -5208 0
-5231 9872 0
-5231 5208 0
5232 -5104 -5233 5234 0
5232 -5104 5233 -5234 0
-5232 5104 0
-5232 -5233 -5234 0
-5232 5233 5234 0
5233 67 -5200 0
-5233 -67 0
-5233 5200 0
5234 68 -5208 0
-5234 -68 0
-5234 5208 0
-5235 -5236 -5240 0
-5235 5236 5240 0
5235 5236 -5240 0
5235 -5236 5240 0
-5236 5104 5237 0
-5236 -5104 -5237 0
5236 -5104 5237 0
5236 5104 -5237 0
-5237 -5238 -5239 0
-5237 5238 5239 0
5237 5238 -5239 0
5237 -5238 5239 0
5238 -9874 -5200 0
-5238 9874 0
-5238 5200 0
5239 -9873 -5208 0
-5239 9873 0
-5239 5208 0
5240 -5104 -5241 5242 0
5240 -5104 5241 -5242 0
-5240 5104 0
-5240 -5241 -5242 0
-5240 5241 5242 0
5241 66 -5200 0
-5241 -66 0
-5241 5200 0
5242 67 -5208 0
-5242 -67 0
-5242 5208 0
-5243 -5244 -5248 0
-5243 5244 5248 0
5243 5244 -5248 0
5243 -5244 5248 0
-5244 5104 5245 0
-5244 -5104 -5245 0
5244 -5104 5245 0
5244 5104 -5245 0
-5245 -5246 -5247 0
-5245 5246 5247 0
5245 5246 -5247 0
5245 -5246 5247 0
5246 -9875 -5200 0
-5246 9875 0
-5246 5200 0
5247 -9874 -5208 0
-5247 9874 0
-5247 5208 0
5248 -5104 -5249 5250 0
5248 -5104 5249 -5250 0
-5248 5104 0
-5248 -5249 -5250 0
-5248 5249 5250 0
5249 65 -5200 0
-5249 -65 0
-5249 5200 0
5250 66 -5208 0
-5250 -66 0
-5250 5208 0
-5251 -5252 -5256 0
-5251 5252 5256 0
5251 5252 -5256 0
5251 -5252 5256 0
-5252 5104 5253 0
-5252 -5104 -5253 0
5252 -5104 5253 0
5252 5104 -5253 0
-5253 -5254 -5255 0
-5253 5254 5255 0
5253 5254 -5255 0
5253 -5254 5255 0
5254 -9876 -5200 0
-5254 9876 0
-5254 5200 0
5255 -9875 -5208 0
-5255 9875 0
-5255 5208 0
5256 -5104 -5257 5258 0
5256 -5104 5257 -5258 0
-5256 5104 0
-5256 -5257 -5258 0
-5256 5257 5258 0
5257 64 -5200 0
-5257 -64 0
-5257 5200 0
5258 65 -5208 0
-5258 -65 0
-5258 5208 0
-5259 -5260 -5264 0
-5259 5260 5264 0
5259 5260 -5264 0
5259 -5260 5264 0
-5260 5104 5261 0
-5260 -5104 -5261 0
5260 -5104 5261 0
5260 5104 -5261 0
-5261 -5262 -5263 0
-5261 5262 5263 0
5261 5262 -5263 0
5261 -5262 5263 0
5262 -9877 -5200 0
-5262 9877 0
-5262 5200 0
5263 -9876 -5208 0
-5263 9876 0
-5263 5208 0
5264 -5104 -5265 5266 0
5264 -5104 5265 -5266 0
-5264 5104 0
-5264 -5265 -5266 0
-5264 5265 5266 0
5265 63 -5200 0
-5265 -63 0
-5265 5200 0
5266 64 -5208 0
-5266 -64 0
-5266 5208 0
-5267 -5268 -5272 0
-5267 5268 5272 0
5267 5268 -5272 0
5267 -5268 5272 0
-5268 5104 5269 0
-5268 -5104 -5269 0
5268 -5104 5269 0
5268 5104 -5269 0
-5269 -5270 -5271 0
-5269 5270 5271 0
5269 5270 -5271 0
5269 -5270 5271 0
5270 -9878 -5200 0
-5270 9878 0
-5270 5200 0
5271 -9877 -5208 0
-5271 9877 0
-5271 5208 0
5272 -5104 -5273 5274 0
5272 -5104 5273 -5274 0
-5272 5104 0
-5272 -5273 -5274 0
-5272 5273 5274 0
5273 62 -5200 0
-5273 -62 0
-5273 5200 0
5274 63 -5208 0
-5274 -63 0
-5274 5208 0
-5275 -5276 -5280 0
-5275 5276 5280 0
5275 5276 -5280 0
5275 -5276 5280 0
-5276 5104 5277 0
-5276 -5104 -5277 0
5276 -5104 5277 0
5276 5104 -5277 0
-5277 -5278 -5279 0
-5277 5278 5279 0
5277 5278 -5279 0
5277 -5278 5279 0
5278 -9879 -5200 0
-5278 9879 0
-5278 5200 0
5279 -9878 -5208 0
-5279 9878 0
-5279 5208 0
5280 -5104 -5281 5282 0
5280 -5104 5281 -5282 0
-5280 5104 0
-5280 -5281 -5282 0
-5280 5281 5282 0
5281 61 -5200 0
-5281 -61 0
-5281 5200 0
5282 62 -5208 0
-5282 -62 0
-5282 5208 0
-5283 -5284 -5288 0
-5283 5284 5288 0
5283 5284 -5288 0
5283 -5284 5288 0
-5284 5104 5285 0
-5284 -5104 -5285 0
5284 -5104 5285 0
5284 5104 -5285 0
-5285 -5286 -5287 0
-5285 5286 5287 0
5285 5286 -5287 0
5285 -5286 5287 0
5286 -9880 -5200 0
-5286 9880 0
-5286 5200 0
5287 -9879 -5208 0
-5287 9879 0
-5287 5208 0
5288 -5104 -5289 5290 0
5288 -5104 5289 -5290 0
-5288 5104 0
-5288 -5289 -5290 0
-5288 5289 5290 0
5289 60 -5200 0
-5289 -60 0
-5289 5200 0
5290 61 -5208 0
-5290 -61 0
-5290 5208 0
-5291 -5292 -5296 0
-5291 5292 5296 0
5291 5292 -5296 0
5291 -5292 5296 0
-5292 5104 5293 0
-5292 -5104 -5293 0
5292 -5104 5293 0
5292 5104 -5293 0
-5293 -5294 -5295 0
-5293 5294 5295 0
5293 5294 -5295 0
5293 -5294 5295 0
5294 -9881 -5200 0
-5294 9881 0
-5294 5200 0
5295 -9880 -5208 0
-5295 9880 0
-5295 5208 0
5296 -5104 -5297 5298 0
5296 -5104 5297 -5298 0
-5296 5104 0
-5296 -5297 -5298 0
-5296 5297 5298 0
5297 59 -5200 0
-5297 -59 0
-5297 5200 0
5298 60 -5208 0
-5298 -60 0
-5298 5208 0
-5299 -5300 -5304 0
-5299 5300 5304 0
5299 5300 -5304 0
5299 -5300 5304 0
-5300 5104 5301 0
-5300 -5104 -5301 0
5300 -5104 5301 0
5300 5104 -5301 0
-5301 -5302 -5303 0
-5301 5302 5303 0
5301 5302 -5303 0
5301 -5302 5303 0
5302 -9882 -5200 0
-5302 9882 0
-5302 5200 0
5303 -9881 -5208 0
-5303 9881 0
-5303 5208 0
5304 -5104 -5305 5306 0
5304 -5104 5305 -5306 0
-5304 5104 0
-5304 -5305 -5306 0
-5304 5305 5306 0
5305 58 -5200 0
-5305 -58 0
-5305 5200 0
5306 59 -5208 0
-5306 -59 0
-5306 5208 0
-5307 -5308 -5312 0
-5307 5308 5312 0
5307 5308 -5312 0
5307 -5308 5312 0
-5308 5104 5309 0
-5308 -5104 -5309 0
5308 -5104 5309 0
5308 5104 -5309 0
-5309 -5310 -5311 0
-5309 5310 5311 0
5309 5310 -5311 0
5309 -5310 5311 0
5310 -9883 -5200 0
-5310 9883 0
-5310 5200 0
5311 -9882 -5208 0
-5311 9882 0
-5311 5208 0
5312 -5104 -5313 5314 0
5312 -5104 5313 -5314 0
-5312 5104 0
-5312 -5313 -5314 0
-5312 5313 5314 0
5313 57 -5200 0
-5313 -57 0
-5313 5200 0
5314 58 -5208 0
-5314 -58 0
-5314 5208 0
-5315 -5316 -5320 0
-5315 5316 5320 0
5315 5316 -5320 0
5315 -5316 5320 0
-5316 5104 5317 0
-5316 -5104 -5317 0
5316 -5104 5317 0
5316 5104 -5317 0
-5317 -5318 -5319 0
-5317 5318 5319 0
5317 5318 -5319 0
5317 -5318 5319 0
5318 -9884 -5200 0
-5318 9884 0
-5318 5200 0
5319 -9883 -5208 0
-5319 9883 0
-5319 5208 0
5320 -5104 -5321 5322 0
5320 -5104 5321 -5322 0
-5320 5104 0
-5320 -5321 -5322 0
-5320 5321 5322 0
5321 56 -5200 0
-5321 -56 0
-5321 5200 0
5322 57 -5208 0
-5322 -57 0
-5322 5208 0
-5323 -5324 -5328 0
-5323 5324 5328 0
5323 5324 -5328 0
5323 -5324 5328 0
-5324 5104 5325 0
-5324 -5104 -5325 0
5324 -5104 5325 0
5324 5104 -5325 0
-5325 -5326 -5327 0
-5325 5326 5327 0
5325 5326 -5327 0
5325 -5326 5327 0
5326 -9885 -5200 0
-5326 9885 0
-5326 5200 0
5327 -9884 -5208 0
-5327 9884 0
-5327 5208 0
5328 -5104 -5329 5330 0
5328 -5104 5329 -5330 0
-5328 5104 0
-5328 -5329 -5330 0
-5328 5329 5330 0
5329 55 -5200 0
-5329 -55 0
-5329 5200 0
5330 56 -5208 0
-5330 -56 0
-5330 5208 0
-5331 -5332 -5336 0
-5331 5332 5336 0
5331 5332 -5336 0
5331 -5332 5336 0
-5332 5104 5333 0
-5332 -5104 -5333 0
5332 -5104 5333 0
5332 5104 -5333 0
-5333 -5334 -5335 0
-5333 5334 5335 0
5333 5334 -5335 0
5333 -5334 5335 0
5334 -9886 -5200 0
-5334 9886 0
-5334 5200 0
5335 -9885 -5208 0
-5335 9885 0
-5335 5208 0
5336 -5104 -5337 5338 0
5336 -5104 5337 -5338 0
-5336 5104 0
-5336 -5337 -5338 0
-5336 5337 5338 0
5337 54 -5200 0
-5337 -54 0
-5337 5200 0
5338 55 -5208 0
-5338 -55 0
-5338 5208 0
-5339 -5340 -5344 0
-5339 5340 5344 0
5339 5340 -5344 0
5339 -5340 5344 0
-5340 5104 5341 0
-5340 -5104 -5341 0
5340 -5104 5341 0
5340 5104 -5341 0
-5341 -5342 -5343 0
-5341 5342 5343 0
5341 5342 -5343 0
5341 -5342 5343 0
5342 -9887 -5200 0
-5342 9887 0
-5342 5200 0
5343 -9886 -5208 0
-5343 9886 0
-5343 5208 0
5344 -5104 -5345 5346 0
5344 -5104 5345 -5346 0
-5344 5104 0
-5344 -5345 -5346 0
-5344 5345 5346 0
5345 53 -5200 0
-5345 -53 0
-5345 5200 0
5346 54 -5208 0
-5346 -54 0
-5346 5208 0
-5347 -5348 -5352 0
-5347 5348 5352 0
5347 5348 -5352 0
5347 -5348 5352 0
-5348 5104 5349 0
-5348 -5104 -5349 0
5348 -5104 5349 0
5348 5104 -5349 0
-5349 -5350 -5351 0
-5349 5350 5351 0
5349 5350 -5351 0
5349 -5350 5351 0
5350 -9888 -5200 0
-5350 9888 0
-5350 5200 0
5351 -9887 -5208 0
-5351 9887 0
-5351 5208 0
5352 -5104 -5353 5354 0
5352 -5104 5353 -5354 0
-5352 5104 0
-5352 -5353 -5354 0
-5352 5353 5354 0
5353 52 -5200 0
-5353 -52 0
-5353 5200 0
5354 53 -5208 0
-5354 -53 0
-5354 5208 0
-5355 -5356 -5360 0
-5355 5356 5360 0
5355 5356 -5360 0
5355 -5356 5360 0
-5356 5104 5357 0
-5356 -5104 -5357 0
5356 -5104 5357 0
5356 5104 -5357 0
-5357 -5358 -5359 0
-5357 5358 5359 0
5357 5358 -5359 0
5357 -5358 5359 0
5358 -9889 -5200 0
-5358 9889 0
-5358 5200 0
5359 -9888 -5208 0
-5359 9888 0
-5359 5208 0
5360 -5104 -5361 5362 0
5360 -5104 5361 -5362 0
-5360 5104 0
-5360 -5361 -5362 0
-5360 5361 5362 0
5361 51 -5200 0
-5361 -51 0
-5361 5200 0
5362 52 -5208 0
-5362 -52 0
-5362 5208 0
-5363 -5364 -5368 0
-5363 5364 5368 0
5363 5364 -5368 0
5363 -5364 5368 0
-5364 5104 5365 0
-5364 -5104 -5365 0
5364 -5104 5365 0
5364 5104 -5365 0
-5365 -5366 -5367 0
-5365 5366 5367 0
5365 5366 -5367 0
5365 -5366 5367 0
5366 -9890 -5200 0
-5366 9890 0
-5366 5200 0
5367 -9889 -5208 0
-5367 9889 0
-5367 5208 0
5368 -5104 -5369 5370 0
5368 -5104 5369 -5370 0
-5368 5104 0
-5368 -5369 -5370 0
-5368 5369 5370 0
5369 50 -5200 0
-5369 -50 0
-5369 5200 0
5370 51 -5208 0
-5370 -51 0
-5370 5208 0
-5371 -5372 -5376 0
-5371 5372 5376 0
5371 5372 -5376 0
5371 -5372 5376 0
-5372 5104 5373 0
-5372 -5104 -5373 0
5372 -5104 5373 0
5372 5104 -5373 0
-5373 -5374 -5375 0
-5373 5374 5375 0
5373 5374 -5375 0
5373 -5374 5375 0
5374 -9891 -5200 0
-5374 9891 0
-5374 5200 0
5375 -9890 -5208 0
-5375 9890 0
-5375 5208 0
5376 -5104 -5377 5378 0
5376 -5104 5377 -5378 0
-5376 5104 0
-5376 -5377 -5378 0
-5376 5377 5378 0
5377 49 -5200 0
-5377 -49 0
-5377 5200 0
5378 50 -5208 0
-5378 -50 0
-5378 5208 0
-5379 -5380 -5384 0
-5379 5380 5384 0
5379 5380 -5384 0
5379 -5380 5384 0
-5380 5104 5381 0
-5380 -5104 -5381 0
5380 -5104 5381 0
5380 5104 -5381 0
-5381 -5382 -5383 0
-5381 5382 5383 0
5381 5382 -5383 0
5381 -5382 5383 0
5382 -9892 -5200 0
-5382 9892 0
-5382 5200 0
5383 -9891 -5208 0
-5383 9891 0
-5383 5208 0
5384 -5104 -5385 5386 0
5384 -5104 5385 -5386 0
-5384 5104 0
-5384 -5385 -5386 0
-5384 5385 5386 0
5385 48 -5200 0
-5385 -48 0
-5385 5200 0
5386 49 -5208 0
-5386 -49 0
-5386 5208 0
-5387 -5388 -5392 0
-5387 5388 5392 0
5387 5388 -5392 0
5387 -5388 5392 0
-5388 5104 5389 0
-5388 -5104 -5389 0
5388 -5104 5389 0
5388 5104 -5389 0
-5389 -5390 -5391 0
-5389 5390 5391 0
5389 5390 -5391 0
5389 -5390 5391 0
5390 -9893 -5200 0
-5390 9893 0
-5390 5200 0
5391 -9892 -5208 0
-5391 9892 0
-5391 5208 0
5392 -5104 -5393 5394 0
5392 -5104 5393 -5394 0
-5392 5104 0
-5392 -5393 -5394 0
-5392 5393 5394 0
5393 47 -5200 0
-5393 -47 0
-5393 5200 0
5394 48 -5208 0
-5394 -48 0
-5394 5208 0
-5395 -5396 -5400 0
-5395 5396 5400 0
5395 5396 -5400 0
5395 -5396 5400 0
-5396 5104 5397 0
-5396 -5104 -5397 0
5396 -5104 5397 0
5396 5104 -5397 0
-5397 -5398 -5399 0
-5397 5398 5399 0
5397 5398 -5399 0
5397 -5398 5399 0
5398 -9894 -5200 0
-5398 9894 0
-5398 5200 0
5399 -9893 -5208 0
-5399 9893 0
-5399 5208 0
5400 -5104 -5401 5402 0
5400 -5104 5401 -5402 0
-5400 5104 0
-5400 -5401 -5402 0
-5400 5401 5402 0
5401 46 -5200 0
-5401 -46 0
-5401 5200 0
5402 47 -5208 0
-5402 -47 0
-5402 5208 0
-5403 -5404 -5408 0
-5403 5404 5408 0
5403 5404 -5408 0
5403 -5404 5408 0
-5404 5104 5405 0
-5404 -5104 -5405 0
5404 -5104 5405 0
5404 5104 -5405 0
-5405 -5406 -5407 0
-5405 5406 5407 0
5405 5406 -5407 0
5405 -5406 5407 0
5406 -9895 -5200 0
-5406 9895 0
-5406 5200 0
5407 -9894 -5208 0
-5407 9894 0
-5407 5208 0
5408 -5104 -5409 5410 0
5408 -5104 5409 -5410 0
-5408 5104 0
-5408 -5409 -5410 0
-5408 5409 5410 0
5409 45 -5200 0
-5409 -45 0
-5409 5200 0
5410 46 -5208 0
-5410 -46 0
-5410 5208 0
-5411 -5412 -5416 0
-5411 5412 5416 0
5411 5412 -5416 0
5411 -5412 5416 0
-5412 5104 5413 0
-5412 -5104 -5413 0
5412 -5104 5413 0
5412 5104 -5413 0
-5413 -5414 -5415 0
-5413 5414 5415 0
5413 5414 -5415 0
5413 -5414 5415 0
5414 -9896 -5200 0
-5414 9896 0
-5414 5200 0
5415 -9895 -5208 0
-5415 9895 0
-5415 5208 0
5416 -5104 -5417 5418 0
5416 -5104 5417 -5418 0
-5416 5104 0
-5416 -5417 -5418 0
-5416 5417 5418 0
5417 44 -5200 0
-5417 -44 0
-5417 5200 0
5418 45 -5208 0
-5418 -45 0
-5418 5208 0
-5419 -5420 -5424 0
-5419 5420 5424 0
5419 5420 -5424 0
5419 -5420 5424 0
-5420 5104 5421 0
-5420 -5104 -5421 0
5420 -5104 5421 0
5420 5104 -5421 0
-5421 -5422 -5423 0
-5421 5422 5423 0
5421 5422 -5423 0
5421 -5422 5423 0
5422 -9897 -5200 0
-5422 9897 0
-5422 5200 0
5423 -9896 -5208 0
-5423 9896 0
-5423 5208 0
5424 -5104 -5425 5426 0
5424 -5104 5425 -5426 0
-5424 5104 0
-5424 -5425 -5426 0
-5424 5425 5426 0
5425 43 -5200 0
-5425 -43 0
-5425 5200 0
5426 44 -5208 0
-5426 -44 0
-5426 5208 0
-5427 -5428 -5432 0
-5427 5428 5432 0
5427 5428 -5432 0
5427 -5428 5432 0
-5428 5104 5429 0
-5428 -5104 -5429 0
5428 -5104 5429 0
5428 5104 -5429 0
-5429 -5430 -5431 0
-5429 5430 5431 0
5429 5430 -5431 0
5429 -5430 5431 0
5430 -9898 -5200 0
-5430 9898 0
-5430 5200 0
5431 -9897 -5208 0
-5431 9897 0
-5431 5208 0
5432 -5104 -5433 5434 0
5432 -5104 5433 -5434 0
-5432 5104 0
-5432 -5433 -5434 0
-5432 5433 5434 0
5433 42 -5200 0
-5433 -42 0
-5433 5200 0
5434 43 -5208 0
-5434 -43 0
-5434 5208 0
-5435 -5436 -5440 0
-5435 5436 5440 0
5435 5436 -5440 0
5435 -5436 5440 0
-5436 5104 5437 0
-5436 -5104 -5437 0
5436 -5104 5437 0
5436 5104 -5437 0
-5437 -5438 -5439 0
-5437 5438 5439 0
5437 5438 -5439 0
5437 -5438 5439 0
5438 -9899 -5200 0
-5438 9899 0
-5438 5200 0
5439 -9898 -5208 0
-5439 9898 0
-5439 5208 0
5440 -5104 -5441 5442 0
5440 -5104 5441 -5442 0
-5440 5104 0
-5440 -5441 -5442 0
-5440 5441 5442 0
5441 41 -5200 0
-5441 -41 0
-5441 5200 0
5442 42 -5208 0
-5442 -42 0
-5442 5208 0
-5443 -5444 -5448 0
-5443 5444 5448 0
5443 5444 -5448 0
5443 -5444 5448 0
-5444 5104 5445 0
-5444 -5104 -5445 0
5444 -5104 5445 0
5444 5104 -5445 0
-5445 -5446 -5447 0
-5445 5446 5447 0
5445 5446 -5447 0
5445 -5446 5447 0
5446 -9900 -5200 0
-5446 9900 0
-5446 5200 0
5447 -9899 -5208 0
-5447 9899 0
-5447 5208 0
5448 -5104 -5449 5450 0
5448 -5104 5449 -5450 0
-5448 5104 0
-5448 -5449 -5450 0
-5448 5449 5450 0
5449 40 -5200 0
-5449 -40 0
-5449 5200 0
5450 41 -5208 0
-5450 -41 0
-5450 5208 0
-5451 -5452 -5454 0
-5451 5452 5454 0
5451 5452 -5454 0
5451 -5452 5454 0
-5452 -5104 -5453 0
-5452 5104 5453 0
5452 5104 -5453 0
5452 -5104 5453 0
5453 -9900 -5208 0
-5453 9900 0
-5453 5208 0
5454 -5104 -5455 5456 0
5454 -5104 5455 -5456 0
-5454 5104 0
-5454 -5455 -5456 0
-5454 5455 5456 0
5455 39 -5200 0
-5455 -39 0
-5455 5200 0
5456 40 -5208 0
-5456 -40 0
-5456 5208 0
-5457 5458 5460 0
-5457 5460 5580 0
-5457 5458 5580 0
5457 -5460 -5580 0
5457 -5458 -5460 0
5457 -5458 -5580 0
-5458 5107 5459 0
-5458 -5107 -5459 0
5458 -5107 5459 0
5458 5107 -5459 0
-5459 9 5451 0
-5459 -9 -5451 0
5459 -9 5451 0
5459 9 -5451 0
-5460 5461 5463 0
-5460 5463 5579 0
-5460 5461 5579 0
5460 -5463 -5579 0
5460 -5461 -5463 0
5460 -5461 -5579 0
-5461 5108 5462 0
-5461 -5108 -5462 0
5461 -5108 5462 0
5461 5108 -5462 0
-5462 9 5443 0
-5462 -9 -5443 0
5462 -9 5443 0
5462 9 -5443 0
-5463 5464 5466 0
-5463 5466 5578 0
-5463 5464 5578 0
5463 -5466 -5578 0
5463 -5464 -5466 0
5463 -5464 -5578 0
-5464 5111 5465 0
-5464 -5111 -5465 0
5464 -5111 5465 0
5464 5111 -5465 0
-5465 5109 5435 0
-5465 -5109 -5435 0
5465 -5109 5435 0
5465 5109 -5435 0
-5466 5467 5469 0
-5466 5469 5577 0
-5466 5467 5577 0
5466 -5469 -5577 0
5466 -5467 -5469 0
5466 -5467 -5577 0
-5467 5114 5468 0
-5467 -5114 -5468 0
5467 -5114 5468 0
5467 5114 -5468 0
-5468 5112 5427 0
-5468 -5112 -5427 0
5468 -5112 5427 0
5468 5112 -5427 0
-5469 5470 5472 0
-5469 5472 5576 0
-5469 5470 5576 0
5469 -5472 -5576 0
5469 -5470 -5472 0
5469 -5470 -5576 0
-5470 5117 5471 0
-5470 -5117 -5471 0
5470 -5117 5471 0
5470 5117 -5471 0
-5471 5115 5419 0
-5471 -5115 -5419 0
5471 -5115 5419 0
5471 5115 -5419 0
-5472 5473 5475 0
-5472 5475 5575 0
-5472 5473 5575 0
5472 -5475 -5575 0
5472 -5473 -5475 0
5472 -5473 -5575 0
-5473 5120 5474 0
-5473 -5120 -5474 0
5473 -5120 5474 0
5473 5120 -5474 0
-5474 5118 5411 0
-5474 -5118 -5411 0
5474 -5118 5411 0
5474 5118 -5411 0
-5475 5476 5478 0
-5475 5478 5574 0
-5475 5476 5574 0
5475 -5478 -5574 0
5475 -5476 -5478 0
5475 -5476 -5574 0
-5476 5123 5477 0
-5476 -5123 -5477 0
5476 -5123 5477 0
5476 5123 -5477 0
-5477 5121 5403 0
-5477 -5121 -5403 0
5477 -5121 5403 0
5477 5121 -5403 0
-5478 5479 5481 0
-5478 5481 5573 0
-5478 5479 5573 0
5478 -5481 -5573 0
5478 -5479 -5481 0
5478 -5479 -5573 0
-5479 5126 5480 0
-5479 -5126 -5480 0
5479 -5126 5480 0
5479 5126 -5480 0
-5480 5124 5395 0
-5480 -5124 -5395 0
5480 -5124 5395 0
5480 5124 -5395 0
-5481 5482 5484 0
-5481 5484 5572 0
-5481 5482 5572 0
5481 -5484 -5572 0
5481 -5482 -5484 0
5481 -5482 -5572 0
-5482 5129 5483 0
-5482 -5129 -5483 0
5482 -5129 5483 0
5482 5129 -5483 0
-5483 5127 5387 0
-5483 -5127 -5387 0
5483 -5127 5387 0
5483 5127 -5387 0
-5484 5485 5487 0
-5484 5487 5571 0
-5484 5485 5571 0
5484 -5487 -5571 0
5484 -5485 -5487 0
5484 -5485 -5571 0
-5485 5132 5486 0
-5485 -5132 -5486 0
5485 -5132 5486 0
5485 5132 -5486 0
-5486 5130 5379 0
-5486 -5130 -5379 0
5486 -5130 5379 0
5486 5130 -5379 0
-5487 5488 5490 0
-5487 5490 5570 0
-5487 5488 5570 0
5487 -5490 -5570 0
5487 -5488 -5490 0
5487 -5488 -5570 0
-5488 5135 5489 0
-5488 -5135 -5489 0
5488 -5135 5489 0
5488 5135 -5489 0
-5489 5133 5371 0
-5489 -5133 -5371 0
5489 -5133 5371 0
5489 5133 -5371 0
-5490 5491 5493 0
-5490 5493 5569 0
-5490 5491 5569 0
5490 -5493 -5569 0
5490 -5491 -5493 0
5490 -5491 -5569 0
-5491 5138 5492 0
-5491 -5138 -5492 0
5491 -5138 5492 0
5491 5138 -5492 0
-5492 5136 5363 0
-5492 -5136 -5363 0
5492 -5136 5363 0
5492 5136 -5363 0
-5493 5494 5496 0
-5493 5496 5568 0
-5493 5494 5568 0
5493 -5496 -5568 0
5493 -5494 -5496 0
5493 -5494 -5568 0
-5494 5141 5495 0
-5494 -5141 -5495 0
5494 -5141 5495 0
5494 5141 -5495 0
-5495 5139 5355 0
-5495 -5139 -5355 0
5495 -5139 5355 0
5495 5139 -5355 0
-5496 5497 5499 0
-5496 5499 5567 0
-5496 5497 5567 0
5496 -5499 -5567 0
5496 -5497 -5499 0
5496 -5497 -5567 0
-5497 5144 5498 0
-5497 -5144 -5498 0
5497 -5144 5498 0
5497 5144 -5498 0
-5498 5142 5347 0
-5498 -5142 -5347 0
5498 -5142 5347 0
5498 5142 -5347 0
-5499 5500 5502 0
-5499 5502 5566 0
-5499 5500 5566 0
5499 -5502 -5566 0
5499 -5500 -5502 0
5499 -5500 -5566 0
-5500 5147 5501 0
-5500 -5147 -5501 0
5500 -5147 5501 0
5500 5147 -5501 0
-5501 5145 5339 0
-5501 -5145 -5339 0
5501 -5145 5339 0
5501 5145 -5339 0
-5502 5503 5505 0
-5502 5505 5565 0
-5502 5503 5565 0
5502 -5505 -5565 0
5502 -5503 -5505 0
5502 -5503 -5565 0
-5503 5150 5504 0
-5503 -5150 -5504 0
5503 -5150 5504 0
5503 5150 -5504 0
-5504 5148 5331 0
-5504 -5148 -5331 0
5504 -5148 5331 0
5504 5148 -5331 0
-5505 5506 5508 0
-5505 5508 5564 0
-5505 5506 5564 0
5505 -5508 -5564 0
5505 -5506 -5508 0
5505 -5506 -5564 0
-5506 5153 5507 0
-5506 -5153 -5507 0
5506 -5153 5507 0
5506 5153 -5507 0
-5507 5151 5323 0
-5507 -5151 -5323 0
5507 -5151 5323 0
5507 5151 -5323 0
-5508 5509 5511 0
-5508 5511 5563 0
-5508 5509 5563 0
5508 -5511 -5563 0
5508 -5509 -5511 0
5508 -5509 -5563 0
-5509 5156 5510 0
-5509 -5156 -5510 0
5509 -5156 5510 0
5509 5156 -5510 0
-5510 5154 5315 0
-5510 -5154 -5315 0
5510 -5154 5315 0
5510 5154 -5315 0
-5511 5512 5514 0
-5511 5514 5562 0
-5511 5512 5562 0
5511 -5514 -5562 0
5511 -5512 -5514 0
5511 -5512 -5562 0
-5512 5159 5513 0
-5512 -5159 -5513 0
5512 -5159 5513 0
5512 5159 -5513 0
-5513 5157 5307 0
-5513 -5157 -5307 0
5513 -5157 5307 0
5513 5157 -5307 0
-5514 5515 5517 0
-5514 5517 5561 0
-5514 5515 5561 0
5514 -5517 -5561 0
5514 -5515 -5517 0
5514 -5515 -5561 0
-5515 5162 5516 0
-5515 -5162 -5516 0
5515 -5162 5516 0
5515 5162 -5516 0
-5516 5160 5299 0
-5516 -5160 -5299 0
5516 -5160 5299 0
5516 5160 -5299 0
-5517 5518 5520 0
-5517 5520 5560 0
-5517 5518 5560 0
5517 -5520 -5560 0
5517 -5518 -5520 0
5517 -5518 -5560 0
-5518 5165 5519 0
-5518 -5165 -5519 0
5518 -5165 5519 0
5518 5165 -5519 0
-5519 5163 5291 0
-5519 -5163 -5291 0
5519 -5163 5291 0
5519 5163 -5291 0
-5520 5521 5523 0
-5520 5523 5559 0
-5520 5521 5559 0
5520 -5523 -5559 0
5520 -5521 -5523 0
5520 -5521 -5559 0
-5521 5168 5522 0
-5521 -5168 -5522 0
5521 -5168 5522 0
5521 5168 -5522 0
-5522 5166 5283 0
-5522 -5166 -5283 0
5522 -5166 5283 0
5522 5166 -5283 0
-5523 5524 5526 0
-5523 5526 5558 0
-5523 5524 5558 0
5523 -5526 -5558 0
5523 -5524 -5526 0
5523 -5524 -5558 0
-5524 5171 5525 0
-5524 -5171 -5525 0
5524 -5171 5525 0
5524 5171 -5525 0
-5525 5169 5275 0
-5525 -5169 -5275 0
5525 -5169 5275 0
5525 5169 -5275 0
-5526 5527 5529 0
-5526 5529 5557 0
-5526 5527 5557 0
5526 -5529 -5557 0
5526 -5527 -5529 0
5526 -5527 -5557 0
-5527 5174 5528 0
-5527 -5174 -5528 0
5527 -5174 5528 0
5527 5174 -5528 0
-5528 5172 5267 0
-5528 -5172 -5267 0
5528 -5172 5267 0
5528 5172 -5267 0
-5529 5530 5532 0
-5529 5532 5556 0
-5529 5530 5556 0
5529 -5532 -5556 0
5529 -5530 -5532 0
5529 -5530 -5556 0
-5530 5177 5531 0
-5530 -5177 -5531 0
5530 -5177 5531 0
5530 5177 -5531 0
-5531 5175 5259 0
-5531 -5175 -5259 0
5531 -5175 5259 0
5531 5175 -5259 0
-5532 5533 5535 0
-5532 5535 5555 0
-5532 5533 5555 0
5532 -5535 -5555 0
5532 -5533 -5535 0
5532 -5533 -5555 0
-5533 5180 5534 0
-5533 -5180 -5534 0
5533 -5180 5534 0
5533 5180 -5534 0
-5534 5178 5251 0
-5534 -5178 -5251 0
5534 -5178 5251 0
5534 5178 -5251 0
-5535 5536 5538 0
-5535 5538 5554 0
-5535 5536 5554 0
5535 -5538 -5554 0
5535 -5536 -5538 0
5535 -5536 -5554 0
-5536 5183 5537 0
-5536 -5183 -5537 0
5536 -5183 5537 0
5536 5183 -5537 0
-5537 5181 5243 0
-5537 -5181 -5243 0
5537 -5181 5243 0
5537 5181 -5243 0
-5538 5539 5541 0
-5538 5541 5553 0
-5538 5539 5553 0
5538 -5541 -5553 0
5538 -5539 -5541 0
5538 -5539 -5553 0
-5539 5186 5540 0
-5539 -5186 -5540 0
5539 -5186 5540 0
5539 5186 -5540 0
-5540 5184 5235 0
-5540 -5184 -5235 0
5540 -5184 5235 0
5540 5184 -5235 0
-5541 5542 5544 0
-5541 5544 5552 0
-5541 5542 5552 0
5541 -5544 -5552 0
5541 -5542 -5544 0
5541 -5542 -5552 0
-5542 5189 5543 0
-5542 -5189 -5543 0
5542 -5189 5543 0
5542 5189 -5543 0
-5543 5187 5227 0
-5543 -5187 -5227 0
5543 -5187 5227 0
5543 5187 -5227 0
-5544 5547 5551 0
-5544 5545 5547 0
-5544 5545 5551 0
5544 -5545 -5547 0
5544 -5547 -5551 0
5544 -5545 -5551 0
-5545 5192 5546 0
-5545 -5192 -5546 0
5545 -5192 5546 0
5545 5192 -5546 0
-5546 5190 5219 0
-5546 -5190 -5219 0
5546 -5190 5219 0
5546 5190 -5219 0
5547 -5548 -5549 0
-5547 5548 0
-5547 5549 0
5548 -9869 -9932 0
-5548 9869 0
-5548 9932 0
-5549 5195 5550 0
-5549 -5195 -5550 0
5549 -5195 5550 0
5549 5195 -5550 0
-5550 5193 5211 0
-5550 -5193 -5211 0
5550 -5193 5211 0
5550 5193 -5211 0
5551 -9870 -9932 0
-5551 9870 0
-5551 9932 0
5552 -9871 -9932 0
-5552 9871 0
-5552 9932 0
5553 -9872 -9932 0
-5553 9872 0
-5553 9932 0
5554 -9873 -9932 0
-5554 9873 0
-5554 9932 0
5555 -9874 -9932 0
-5555 9874 0
-5555 9932 0
5556 -9875 -9932 0
-5556 9875 0
-5556 9932 0
5557 -9876 -9932 0
-5557 9876 0
-5557 9932 0
5558 -9877 -9932 0
-5558 9877 0
-5558 9932 0
5559 -9878 -9932 0
-5559 9878 0
-5559 9932 0
5560 -9879 -9932 0
-5560 9879 0
-5560 9932 0
5561 -9880 -9932 0
-5561 9880 0
-5561 9932 0
5562 -9881 -9932 0
-5562 9881 0
-5562 9932 0
5563 -9882 -9932 0
-5563 9882 0
-5563 9932 0
5564 -9883 -9932 0
-5564 9883 0
-5564 9932 0
5565 -9884 -9932 0
-5565 9884 0
-5565 9932 0
5566 -9885 -9932 0
-5566 9885 0
-5566 9932 0
5567 -9886 -9932 0
-5567 9886 0
-5567 9932 0
5568 -9887 -9932 0
-5568 9887 0
-5568 9932 0
5569 -9888 -9932 0
-5569 9888 0
-5569 9932 0
5570 -9889 -9932 0
-5570 9889 0
-5570 9932 0
5571 -9890 -9932 0
-5571 9890 0
-5571 9932 0
5572 -9891 -9932 0
-5572 9891 0
-5572 9932 0
5573 -9892 -9932 0
-5573 9892 0
-5573 9932 0
5574 -9893 -9932 0
-5574 9893 0
-5574 9932 0
5575 -9894 -9932 0
-5575 9894 0
-5575 9932 0
5576 -9895 -9932 0
-5576 9895 0
-5576 9932 0
5577 -9896 -9932 0
-5577 9896 0
-5577 9932 0
5578 -9897 -9932 0
-5578 9897 0
-5578 9932 0
5579 -9898 -9932 0
-5579 9898 0
-5579 9932 0
5580 -9899 -9932 0
-5580 9899 0
-5580 9932 0
-5581 5582 9551 0
-5581 -5582 -9551 0
5581 -5582 9551 0
5581 5582 -9551 0
-5582 6 5583 0
-5582 -6 -5583 0
5582 -6 5583 0
5582 6 -5583 0
-5583 5584 9424 0
-5583 -5584 -9424 0
5583 -5584 9424 0
5583 5584 -9424 0
-5584 -5585 -9423 0
-5584 5585 9423 0
5584 5585 -9423 0
5584 -5585 9423 0
-5585 5586 9298 0
-5585 -5586 -9298 0
5585 -5586 9298 0
5585 5586 -9298 0
-5586 -5587 -9297 0
-5586 5587 9297 0
5586 5587 -9297 0
5586 -5587 9297 0
-5587 5588 9170 0
-5587 -5588 -9170 0
5587 -5588 9170 0
5587 5588 -9170 0
-5588 -5589 -9169 0
-5588 5589 9169 0
5588 5589 -9169 0
5588 -5589 9169 0
-5589 5590 9044 0
-5589 -5590 -9044 0
5589 -5590 9044 0
5589 5590 -9044 0
-5590 -5591 -9043 0
-5590 5591 9043 0
5590 5591 -9043 0
5590 -5591 9043 0
-5591 5592 8916 0
-5591 -5592 -8916 0
5591 -5592 8916 0
5591 5592 -8916 0
-5592 -5593 -8915 0
-5592 5593 8915 0
5592 5593 -8915 0
5592 -5593 8915 0
-5593 5594 8790 0
-5593 -5594 -8790 0
5593 -5594 8790 0
5593 5594 -8790 0
-5594 -5595 -8789 0
-5594 5595 8789 0
5594 5595 -8789 0
5594 -5595 8789 0
-5595 5596 8662 0
-5595 -5596 -8662 0
5595 -5596 8662 0
5595 5596 -8662 0
-5596 -5597 -8661 0
-5596 5597 8661 0
5596 5597 -8661 0
5596 -5597 8661 0
-5597 5598 8536 0
-5597 -5598 -8536 0
5597 -5598 8536 0
5597 5598 -8536 0
-5598 -5599 -8535 0
-5598 5599 8535 0
5598 5599 -8535 0
5598 -5599 8535 0
-5599 5600 8408 0
-5599 -5600 -8408 0
5599 -5600 8408 0
5599 5600 -8408 0
-5600 -5601 -8407 0
-5600 5601 8407 0
5600 5601 -8407 0
5600 -5601 8407 0
-5601 5602 8282 0
-5601 -5602 -8282 0
5601 -5602 8282 0
5601 5602 -8282 0
-5602 -5603 -8281 0
-5602 5603 8281 0
5602 5603 -8281 0
5602 -5603 8281 0
-5603 5604 8154 0
-5603 -5604 -8154 0
5603 -5604 8154 0
5603 5604 -8154 0
-5604 -5605 -8153 0
-5604 5605 8153 0
5604 5605 -8153 0
5604 -5605 8153 0
-5605 5606 8028 0
-5605 -5606 -8028 0
5605 -5606 8028 0
5605 5606 -8028 0
-5606 -5607 -8027 0
-5606 5607 8027 0
5606 5607 -8027 0
5606 -5607 8027 0
-5607 5608 7900 0
-5607 -5608 -7900 0
5607 -5608 7900 0
5607 5608 -7900 0
-5608 -5609 -7899 0
-5608 5609 7899 0
5608 5609 -7899 0
5608 -5609 7899 0
-5609 5610 7774 0
-5609 -5610 -7774 0
5609 -5610 7774 0
5609 5610 -7774 0
-5610 -5611 -7773 0
-5610 5611 7773 0
5610 5611 -7773 0
5610 -5611 7773 0
-5611 5612 7646 0
-5611 -5612 -7646 0
5611 -5612 7646 0
5611 5612 -7646 0
-5612 -5613 -7645 0
-5612 5613 7645 0
5612 5613 -7645 0
5612 -5613 7645 0
-5613 5614 7520 0
-5613 -5614 -7520 0
5613 -5614 7520 0
5613 5614 -7520 0
-5614 -5615 -7519 0
-5614 5615 7519 0
5614 5615 -7519 0
5614 -5615 7519 0
-5615 5616 7392 0
-5615 -5616 -7392 0
5615 -5616 7392 0
5615 5616 -7392 0
-5616 -5617 -7391 0
-5616 5617 7391 0
5616 5617 -7391 0
5616 -5617 7391 0
-5617 5618 7266 0
-5617 -5618 -7266 0
5617 -5618 7266 0
5617 5618 -7266 0
-5618 -5619 -7265 0
-5618 5619 7265 0
5618 5619 -7265 0
5618 -5619 7265 0
-5619 5620 7138 0
-5619 -5620 -7138 0
5619 -5620 7138 0
5619 5620 -7138 0
-5620 -5621 -7137 0
-5620 5621 7137 0
5620 5621 -7137 0
5620 -5621 7137 0
-5621 5622 7012 0
-5621 -5622 -7012 0
5621 -5622 7012 0
5621 5622 -7012 0
-5622 -5623 -7011 0
-5622 5623 7011 0
5622 5623 -7011 0
5622 -5623 7011 0
-5623 5624 6884 0
-5623 -5624 -6884 0
5623 -5624 6884 0
5623 5624 -6884 0
-5624 -5625 -6883 0
-5624 5625 6883 0
5624 5625 -6883 0
5624 -5625 6883 0
-5625 5626 6758 0
-5625 -5626 -6758 0
5625 -5626 6758 0
5625 5626 -6758 0
-5626 -5627 -6757 0
-5626 5627 6757 0
5626 5627 -6757 0
5626 -5627 6757 0
-5627 5628 6630 0
-5627 -5628 -6630 0
5627 -5628 6630 0
5627 5628 -6630 0
-5628 -5629 -6629 0
-5628 5629 6629 0
5628 5629 -6629 0
5628 -5629 6629 0
-5629 5630 6504 0
-5629 -5630 -6504 0
5629 -5630 6504 0
5629 5630 -6504 0
-5630 -5631 -6503 0
-5630 5631 6503 0
5630 5631 -6503 0
5630 -5631 6503 0
-5631 5632 6376 0
-5631 -5632 -6376 0
5631 -5632 6376 0
5631 5632 -6376 0
-5632 -5633 -6375 0
-5632 5633 6375 0
5632 5633 -6375 0
5632 -5633 6375 0
-5633 5634 6250 0
-5633 -5634 -6250 0
5633 -5634 6250 0
5633 5634 -6250 0
-5634 -5635 -6249 0
-5634 5635 6249 0
5634 5635 -6249 0
5634 -5635 6249 0
-5635 5636 6122 0
-5635 -5636 -6122 0
5635 -5636 6122 0
5635 5636 -6122 0
-5636 -5637 -6121 0
-5636 5637 6121 0
5636 5637 -6121 0
5636 -5637 6121 0
-5637 5638 5996 0
-5637 -5638 -5996 0
5637 -5638 5996 0
5637 5638 -5996 0
-5638 -5639 -5995 0
-5638 5639 5995 0
5638 5639 -5995 0
5638 -5639 5995 0
-5639 5640 5868 0
-5639 -5640 -5868 0
5639 -5640 5868 0
5639 5640 -5868 0
-5640 -5641 -5867 0
-5640 5641 5867 0
5640 5641 -5867 0
5640 -5641 5867 0
-5641 5642 5742 0
-5641 -5642 -5742 0
5641 -5642 5742 0
5641 5642 -5742 0
-5642 -5643 -5741 0
-5642 5643 5741 0
5642 5643 -5741 0
5642 -5643 5741 0
-5643 5644 5645 0
-5643 -5644 -5645 0
5643 -5644 5645 0
5643 5644 -5645 0
-5644 39 0
-5644 9901 9902 0
5644 -9901 -39 0
5644 -9902 -39 0
-5645 5647 5740 0
-5645 5646 5740 0
-5645 5646 5647 0
5645 -5646 -5740 0
5645 -5646 -5647 0
5645 -5647 -5740 0
5646 -9901 -39 0
-5646 9901 0
-5646 39 0
-5647 5649 5739 0
-5647 5648 5739 0
-5647 5648 5649 0
5647 -5648 -5739 0
5647 -5648 -5649 0
5647 -5649 -5739 0
5648 9900 -9901 -40 0
5648 -9900 -9901 40 0
-5648 9901 0
-5648 -9900 -40 0
-5648 9900 40 0
-5649 5651 5738 0
-5649 5650 5738 0
-5649 5650 5651 0
5649 -5650 -5738 0
5649 -5650 -5651 0
5649 -5651 -5738 0
5650 9899 -9901 -41 0
5650 -9899 -9901 41 0
-5650 9901 0
-5650 -9899 -41 0
-5650 9899 41 0
-5651 5653 5737 0
-5651 5652 5737 0
-5651 5652 5653 0
5651 -5652 -5737 0
5651 -5652 -5653 0
5651 -5653 -5737 0
5652 9898 -9901 -42 0
5652 -9898 -9901 42 0
-5652 9901 0
-5652 -9898 -42 0
-5652 9898 42 0
-5653 5655 5736 0
-5653 5654 5736 0
-5653 5654 5655 0
5653 -5654 -5736 0
5653 -5654 -5655 0
5653 -5655 -5736 0
5654 9897 -9901 -43 0
5654 -9897 -9901 43 0
-5654 9901 0
-5654 -9897 -43 0
-5654 9897 43 0
-5655 5657 5735 0
-5655 5656 5735 0
-5655 5656 5657 0
5655 -5656 -5735 0
5655 -5656 -5657 0
5655 -5657 -5735 0
5656 9896 -9901 -44 0
5656 -9896 -9901 44 0
-5656 9901 0
-5656 -9896 -44 0
-5656 9896 44 0
-5657 5659 5734 0
-5657 5658 5734 0
-5657 5658 5659 0
5657 -5658 -5734 0
5657 -5658 -5659 0
5657 -5659 -5734 0
5658 9895 -9901 -45 0
5658 -9895 -9901 45 0
-5658 9901 0
-5658 -9895 -45 0
-5658 9895 45 0
-5659 5661 5733 0
-5659 5660 5733 0
-5659 5660 5661 0
5659 -5660 -5733 0
5659 -5660 -5661 0
5659 -5661 -5733 0
5660 9894 -9901 -46 0
5660 -9894 -9901 46 0
-5660 9901 0
-5660 -9894 -46 0
-5660 9894 46 0
-5661 5663 5732 0
-5661 5662 5732 0
-5661 5662 5663 0
5661 -5662 -5732 0
5661 -5662 -5663 0
5661 -5663 -5732 0
5662 9893 -9901 -47 0
5662 -9893 -9901 47 0
-5662 9901 0
-5662 -9893 -47 0
-5662 9893 47 0
-5663 5665 5731 0
-5663 5664 5731 0
-5663 5664 5665 0
5663 -5664 -5731 0
5663 -5664 -5665 0
5663 -5665 -5731 0
5664 9892 -9901 -48 0
5664 -9892 -9901 48 0
-5664 9901 0
-5664 -9892 -48 0
-5664 9892 48 0
-5665 5667 5730 0
-5665 5666 5730 0
-5665 5666 5667 0
5665 -5666 -5730 0
5665 -5666 -5667 0
5665 -5667 -5730 0
5666 9891 -9901 -49 0
5666 -9891 -9901 49 0
-5666 9901 0
-5666 -9891 -49 0
-5666 9891 49 0
-5667 5669 5729 0
-5667 5668 5729 0
-5667 5668 5669 0
5667 -5668 -5729 0
5667 -5668 -5669 0
5667 -5669 -5729 0
5668 9890 -9901 -50 0
5668 -9890 -9901 50 0
-5668 9901 0
-5668 -9890 -50 0
-5668 9890 50 0
-5669 5671 5728 0
-5669 5670 5728 0
-5669 5670 5671 0
5669 -5670 -5728 0
5669 -5670 -5671 0
5669 -5671 -5728 0
5670 9889 -9901 -51 0
5670 -9889 -9901 51 0
-5670 9901 0
-5670 -9889 -51 0
-5670 9889 51 0
-5671 5673 5727 0
-5671 5672 5727 0
-5671 5672 5673 0
5671 -5672 -5727 0
5671 -5672 -5673 0
5671 -5673 -5727 0
5672 9888 -9901 -52 0
5672 -9888 -9901 52 0
-5672 9901 0
-5672 -9888 -52 0
-5672 9888 52 0
-5673 5675 5726 0
-5673 5674 5726 0
-5673 5674 5675 0
5673 -5674 -5726 0
5673 -5674 -5675 0
5673 -5675 -5726 0
5674 9887 -9901 -53 0
5674 -9887 -9901 53 0
-5674 9901 0
-5674 -9887 -53 0
-5674 9887 53 0
-5675 5677 5725 0
-5675 5676 5725 0
-5675 5676 5677 0
5675 -5676 -5725 0
5675 -5676 -5677 0
5675 -5677 -5725 0
5676 9886 -9901 -54 0
5676 -9886 -9901 54 0
-5676 9901 0
-5676 -9886 -54 0
-5676 9886 54 0
-5677 5679 5724 0
-5677 5678 5724 0
-5677 5678 5679 0
5677 -5678 -5724 0
5677 -5678 -5679 0
5677 -5679 -5724 0
5678 9885 -9901 -55 0
5678 -9885 -9901 55 0
-5678 9901 0
-5678 -9885 -55 0
-5678 9885 55 0
-5679 5681 5723 0
-5679 5680 5723 0
-5679 5680 5681 0
5679 -5680 -5723 0
5679 -5680 -5681 0
5679 -5681 -5723 0
5680 9884 -9901 -56 0
5680 -9884 -9901 56 0
-5680 9901 0
-5680 -9884 -56 0
-5680 9884 56 0
-5681 5683 5722 0
-5681 5682 5722 0
-5681 5682 5683 0
5681 -5682 -5722 0
5681 -5682 -5683 0
5681 -5683 -5722 0
5682 9883 -9901 -57 0
5682 -9883 -9901 57 0
-5682 9901 0
-5682 -9883 -57 0
-5682 9883 57 0
-5683 5685 5721 0
-5683 5684 5721 0
-5683 5684 5685 0
5683 -5684 -5721 0
5683 -5684 -5685 0
5683 -5685 -5721 0
5684 9882 -9901 -58 0
5684 -9882 -9901 58 0
-5684 9901 0
-5684 -9882 -58 0
-5684 9882 58 0
-5685 5687 5720 0
-5685 5686 5720 0
-5685 5686 5687 0
5685 -5686 -5720 0
5685 -5686 -5687 0
5685 -5687 -5720 0
5686 9881 -9901 -59 0
5686 -9881 -9901 59 0
-5686 9901 0
-5686 -9881 -59 0
-5686 9881 59 0
-5687 5689 5719 0
-5687 5688 5719 0
-5687 5688 5689 0
5687 -5688 -5719 0
5687 -5688 -5689 0
5687 -5689 -5719 0
5688 9880 -9901 -60 0
5688 -9880 -9901 60 0
-5688 9901 0
-5688 -9880 -60 0
-5688 9880 60 0
-5689 5691 5718 0
-5689 5690 5718 0
-5689 5690 5691 0
5689 -5690 -5718 0
5689 -5690 -5691 0
5689 -5691 -5718 0
5690 9879 -9901 -61 0
5690 -9879 -9901 61 0
-5690 9901 0
-5690 -9879 -61 0
-5690 9879 61 0
-5691 5693 5717 0
-5691 5692 5717 0
-5691 5692 5693 0
5691 -5692 -5717 0
5691 -5692 -5693 0
5691 -5693 -5717 0
5692 9878 -9901 -62 0
5692 -9878 -9901 62 0
-5692 9901 0
-5692 -9878 -62 0
-5692 9878 62 0
-5693 5695 5716 0
-5693 5694 5716 0
-5693 5694 5695 0
5693 -5694 -5716 0
5693 -5694 -5695 0
5693 -5695 -5716 0
5694 9877 -9901 -63 0
5694 -9877 -9901 63 0
-5694 9901 0
-5694 -9877 -63 0
-5694 9877 63 0
-5695 5697 5715 0
-5695 5696 5715 0
-5695 5696 5697 0
5695 -5696 -5715 0
5695 -5696 -5697 0
5695 -5697 -5715 0
5696 9876 -9901 -64 0
5696 -9876 -9901 64 0
-5696 9901 0
-5696 -9876 -64 0
-5696 9876 64 0
-5697 5699 5714 0
-5697 5698 5714 0
-5697 5698 5699 0
5697 -5698 -5714 0
5697 -5698 -5699 0
5697 -5699 -5714 0
5698 9875 -9901 -65 0
5698 -9875 -9901 65 0
-5698 9901 0
-5698 -9875 -65 0
-5698 9875 65 0
-5699 5701 5713 0
-5699 5700 5713 0
-5699 5700 5701 0
5699 -5700 -5713 0
5699 -5700 -5701 0
5699 -5701 -5713 0
5700 9874 -9901 -66 0
5700 -9874 -9901 66 0
-5700 9901 0
-5700 -9874 -66 0
-5700 9874 66 0
-5701 5703 5712 0
-5701 5702 5712 0
-5701 5702 5703 0
5701 -5702 -5712 0
5701 -5702 -5703 0
5701 -5703 -5712 0
5702 9873 -9901 -67 0
5702 -9873 -9901 67 0
-5702 9901 0
-5702 -9873 -67 0
-5702 9873 67 0
-5703 5705 5711 0
-5703 5704 5711 0
-5703 5704 5705 0
5703 -5704 -5711 0
5703 -5704 -5705 0
5703 -5705 -5711 0
5704 9872 -9901 -68 0
5704 -9872 -9901 68 0
-5704 9901 0
-5704 -9872 -68 0
-5704 9872 68 0
-5705 5706 5708 0
-5705 5707 5708 0
5705 -5708 0
5705 -5706 -5707 0
5706 9871 -9901 -69 0
5706 -9871 -9901 69 0
-5706 9901 0
-5706 -9871 -69 0
-5706 9871 69 0
5707 -9869 9870 -9901 9902 0
-5707 9901 0
-5707 -9902 0
-5707 9869 0
-5707 -9870 0
5708 -5706 -5709 0
-5708 5706 0
-5708 5709 0
5709 9869 -9870 -5710 0
5709 -9870 9902 -5710 0
5709 -9869 9870 -9902 -5710 0
-5709 9870 9902 0
-5709 9869 9870 0
-5709 5710 0
-5709 -9869 -9870 -9902 0
-5710 -9901 -9902 0
-5710 9901 9902 0
5710 9901 -9902 0
5710 -9901 9902 0
5711 -9871 9902 -5710 0
5711 -9871 69 -5710 0
5711 9871 -9902 -69 -5710 0
-5711 9871 69 0
-5711 -9871 -9902 -69 0
-5711 5710 0
-5711 9871 9902 0
5712 -9872 9902 -5710 0
5712 -9872 68 -5710 0
5712 9872 -9902 -68 -5710 0
-5712 9872 68 0
-5712 -9872 -9902 -68 0
-5712 5710 0
-5712 9872 9902 0
5713 -9873 9902 -5710 0
5713 -9873 67 -5710 0
5713 9873 -9902 -67 -5710 0
-5713 9873 67 0
-5713 -9873 -9902 -67 0
-5713 5710 0
-5713 9873 9902 0
5714 -9874 9902 -5710 0
5714 -9874 66 -5710 0
5714 9874 -9902 -66 -5710 0
-5714 9874 66 0
-5714 -9874 -9902 -66 0
-5714 5710 0
-5714 9874 9902 0
5715 -9875 9902 -5710 0
5715 -9875 65 -5710 0
5715 9875 -9902 -65 -5710 0
-5715 9875 65 0
-5715 -9875 -9902 -65 0
-5715 5710 0
-5715 9875 9902 0
5716 -9876 9902 -5710 0
5716 -9876 64 -5710 0
5716 9876 -9902 -64 -5710 0
-5716 9876 64 0
-5716 -9876 -9902 -64 0
-5716 5710 0
-5716 9876 9902 0
5717 -9877 9902 -5710 0
5717 -9877 63 -5710 0
5717 9877 -9902 -63 -5710 0
-5717 9877 63 0
-5717 -9877 -9902 -63 0
-5717 5710 0
-5717 9877 9902 0
5718 -9878 9902 -5710 0
5718 -9878 62 -5710 0
5718 9878 -9902 -62 -5710 0
-5718 9878 62 0
-5718 -9878 -9902 -62 0
-5718 5710 0
-5718 9878 9902 0
5719 -9879 9902 -5710 0
5719 -9879 61 -5710 0
5719 9879 -9902 -61 -5710 0
-5719 9879 61 0
-5719 -9879 -9902 -61 0
-5719 5710 0
-5719 9879 9902 0
5720 -9880 9902 -5710 0
5720 -9880 60 -5710 0
5720 9880 -9902 -60 -5710 0
-5720 9880 60 0
-5720 -9880 -9902 -60 0
-5720 5710 0
-5720 9880 9902 0
5721 -9881 9902 -5710 0
5721 -9881 59 -5710 0
5721 9881 -9902 -59 -5710 0
-5721 9881 59 0
-5721 -9881 -9902 -59 0
-5721 5710 0
-5721 9881 9902 0
5722 -9882 9902 -5710 0
5722 -9882 58 -5710 0
5722 9882 -9902 -58 -5710 0
-5722 9882 58 0
-5722 -9882 -9902 -58 0
-5722 5710 0
-5722 9882 9902 0
5723 -9883 9902 -5710 0
5723 -9883 57 -5710 0
5723 9883 -9902 -57 -5710 0
-5723 9883 57 0
-5723 -9883 -9902 -57 0
-5723 5710 0
-5723 9883 9902 0
5724 -9884 9902 -5710 0
5724 -9884 56 -5710 0
5724 9884 -9902 -56 -5710 0
-5724 9884 56 0
-5724 -9884 -9902 -56 0
-5724 5710 0
-5724 9884 9902 0
5725 -9885 9902 -5710 0
5725 -9885 55 -5710 0
5725 9885 -9902 -55 -5710 0
-5725 9885 55 0
-5725 -9885 -9902 -55 0
-5725 5710 0
-5725 9885 9902 0
5726 -9886 9902 -5710 0
5726 -9886 54 -5710 0
5726 9886 -9902 -54 -5710 0
-5726 9886 54 0
-5726 -9886 -9902 -54 0
-5726 5710 0
-5726 9886 9902 0
5727 -9887 9902 -5710 0
5727 -9887 53 -5710 0
5727 9887 -9902 -53 -5710 0
-5727 9887 53 0
-5727 -9887 -9902 -53 0
-5727 5710 0
-5727 9887 9902 0
5728 -9888 9902 -5710 0
5728 -9888 52 -5710 0
5728 9888 -9902 -52 -5710 0
-5728 9888 52 0
-5728 -9888 -9902 -52 0
-5728 5710 0
-5728 9888 9902 0
5729 -9889 9902 -5710 0
5729 -9889 51 -5710 0
5729 9889 -9902 -51 -5710 0
-5729 9889 51 0
-5729 -9889 -9902 -51 0
-5729 5710 0
-5729 9889 9902 0
5730 -9890 9902 -5710 0
5730 -9890 50 -5710 0
5730 9890 -9902 -50 -5710 0
-5730 9890 50 0
-5730 -9890 -9902 -50 0
-5730 5710 0
-5730 9890 9902 0
5731 -9891 9902 -5710 0
5731 -9891 49 -5710 0
5731 9891 -9902 -49 -5710 0
-5731 9891 49 0
-5731 -9891 -9902 -49 0
-5731 5710 0
-5731 9891 9902 0
5732 -9892 9902 -5710 0
5732 -9892 48 -5710 0
5732 9892 -9902 -48 -5710 0
-5732 9892 48 0
-5732 -9892 -9902 -48 0
-5732 5710 0
-5732 9892 9902 0
5733 -9893 9902 -5710 0
5733 -9893 47 -5710 0
5733 9893 -9902 -47 -5710 0
-5733 9893 47 0
-5733 -9893 -9902 -47 0
-5733 5710 0
-5733 9893 9902 0
5734 -9894 9902 -5710 0
5734 -9894 46 -5710 0
5734 9894 -9902 -46 -5710 0
-5734 9894 46 0
-5734 -9894 -9902 -46 0
-5734 5710 0
-5734 9894 9902 0
5735 -9895 9902 -5710 0
5735 -9895 45 -5710 0
5735 9895 -9902 -45 -5710 0
-5735 9895 45 0
-5735 -9895 -9902 -45 0
-5735 5710 0
-5735 9895 9902 0
5736 -9896 9902 -5710 0
5736 -9896 44 -5710 0
5736 9896 -9902 -44 -5710 0
-5736 9896 44 0
-5736 -9896 -9902 -44 0
-5736 5710 0
-5736 9896 9902 0
5737 -9897 9902 -5710 0
5737 -9897 43 -5710 0
5737 9897 -9902 -43 -5710 0
-5737 9897 43 0
-5737 -9897 -9902 -43 0
-5737 5710 0
-5737 9897 9902 0
5738 -9898 9902 -5710 0
5738 -9898 42 -5710 0
5738 9898 -9902 -42 -5710 0
-5738 9898 42 0
-5738 -9898 -9902 -42 0
-5738 5710 0
-5738 9898 9902 0
5739 -9899 9902 -5710 0
5739 -9899 41 -5710 0
5739 9899 -9902 -41 -5710 0
-5739 9899 41 0
-5739 -9899 -9902 -41 0
-5739 5710 0
-5739 9899 9902 0
5740 -9900 9902 -5710 0
5740 -9900 40 -5710 0
5740 9900 -9902 -40 -5710 0
-5740 9900 40 0
-5740 -9900 -9902 -40 0
-5740 5710 0
-5740 9900 9902 0
5741 9902 -9903 -39 0
-5741 -9902 0
-5741 9903 0
-5741 39 0
-5742 5643 5743 0
-5742 5743 5866 0
-5742 5643 5866 0
5742 -5743 -5866 0
5742 -5643 -5743 0
5742 -5643 -5866 0
-5743 5744 5746 0
-5743 5746 5865 0
-5743 5744 5865 0
5743 -5746 -5865 0
5743 -5744 -5746 0
5743 -5744 -5865 0
-5744 5647 5745 0
-5744 -5647 -5745 0
5744 -5647 5745 0
5744 5647 -5745 0
-5745 -5646 -5740 0
-5745 5646 5740 0
5745 5646 -5740 0
5745 -5646 5740 0
-5746 5747 5749 0
-5746 5749 5864 0
-5746 5747 5864 0
5746 -5749 -5864 0
5746 -5747 -5749 0
5746 -5747 -5864 0
-5747 5649 5748 0
-5747 -5649 -5748 0
5747 -5649 5748 0
5747 5649 -5748 0
-5748 -5648 -5739 0
-5748 5648 5739 0
5748 5648 -5739 0
5748 -5648 5739 0
-5749 5750 5752 0
-5749 5752 5863 0
-5749 5750 5863 0
5749 -5752 -5863 0
5749 -5750 -5752 0
5749 -5750 -5863 0
-5750 5651 5751 0
-5750 -5651 -5751 0
5750 -5651 5751 0
5750 5651 -5751 0
-5751 -5650 -5738 0
-5751 5650 5738 0
5751 5650 -5738 0
5751 -5650 5738 0
-5752 5753 5755 0
-5752 5755 5862 0
-5752 5753 5862 0
5752 -5755 -5862 0
5752 -5753 -5755 0
5752 -5753 -5862 0
-5753 5653 5754 0
-5753 -5653 -5754 0
5753 -5653 5754 0
5753 5653 -5754 0
-5754 -5652 -5737 0
-5754 5652 5737 0
5754 5652 -5737 0
5754 -5652 5737 0
-5755 5756 5758 0
-5755 5758 5861 0
-5755 5756 5861 0
5755 -5758 -5861 0
5755 -5756 -5758 0
5755 -5756 -5861 0
-5756 5655 5757 0
-5756 -5655 -5757 0
5756 -5655 5757 0
5756 5655 -5757 0
-5757 -5654 -5736 0
-5757 5654 5736 0
5757 5654 -5736 0
5757 -5654 5736 0
-5758 5759 5761 0
-5758 5761 5860 0
-5758 5759 5860 0
5758 -5761 -5860 0
5758 -5759 -5761 0
5758 -5759 -5860 0
-5759 5657 5760 0
-5759 -5657 -5760 0
5759 -5657 5760 0
5759 5657 -5760 0
-5760 -5656 -5735 0
-5760 5656 5735 0
5760 5656 -5735 0
5760 -5656 5735 0
-5761 5762 5764 0
-5761 5764 5859 0
-5761 5762 5859 0
5761 -5764 -5859 0
5761 -5762 -5764 0
5761 -5762 -5859 0
-5762 5659 5763 0
-5762 -5659 -5763 0
5762 -5659 5763 0
5762 5659 -5763 0
-5763 -5658 -5734 0
-5763 5658 5734 0
5763 5658 -5734 0
5763 -5658 5734 0
-5764 5765 5767 0
-5764 5767 5858 0
-5764 5765 5858 0
5764 -5767 -5858 0
5764 -5765 -5767 0
5764 -5765 -5858 0
-5765 5661 5766 0
-5765 -5661 -5766 0
5765 -5661 5766 0
5765 5661 -5766 0
-5766 -5660 -5733 0
-5766 5660 5733 0
5766 5660 -5733 0
5766 -5660 5733 0
-5767 5768 5770 0
-5767 5770 5857 0
-5767 5768 5857 0
5767 -5770 -5857 0
5767 -5768 -5770 0
5767 -5768 -5857 0
-5768 5663 5769 0
-5768 -5663 -5769 0
5768 -5663 5769 0
5768 5663 -5769 0
-5769 -5662 -5732 0
-5769 5662 5732 0
5769 5662 -5732 0
5769 -5662 5732 0
-5770 5771 5773 0
-5770 5773 5856 0
-5770 5771 5856 0
5770 -5773 -5856 0
5770 -5771 -5773 0
5770 -5771 -5856 0
-5771 5665 5772 0
-5771 -5665 -5772 0
5771 -5665 5772 0
5771 5665 -5772 0
-5772 -5664 -5731 0
-5772 5664 5731 0
5772 5664 -5731 0
5772 -5664 5731 0
-5773 5774 5776 0
-5773 5776 5855 0
-5773 5774 5855 0
5773 -5776 -5855 0
5773 -5774 -5776 0
5773 -5774 -5855 0
-5774 5667 5775 0
-5774 -5667 -5775 0
5774 -5667 5775 0
5774 5667 -5775 0
-5775 -5666 -5730 0
-5775 5666 5730 0
5775 5666 -5730 0
5775 -5666 5730 0
-5776 5777 5779 0
-5776 5779 5854 0
-5776 5777 5854 0
5776 -5779 -5854 0
5776 -5777 -5779 0
5776 -5777 -5854 0
-5777 5669 5778 0
-5777 -5669 -5778 0
5777 -5669 5778 0
5777 5669 -5778 0
-5778 -5668 -5729 0
-5778 5668 5729 0
5778 5668 -5729 0
5778 -5668 5729 0
-5779 5780 5782 0
-5779 5782 5853 0
-5779 5780 5853 0
5779 -5782 -5853 0
5779 -5780 -5782 0
5779 -5780 -5853 0
-5780 5671 5781 0
-5780 -5671 -5781 0
5780 -5671 5781 0
5780 5671 -5781 0
-5781 -5670 -5728 0
-5781 5670 5728 0
5781 5670 -5728 0
5781 -5670 5728 0
-5782 5783 5785 0
-5782 5785 5852 0
-5782 5783 5852 0
5782 -5785 -5852 0
5782 -5783 -5785 0
5782 -5783 -5852 0
-5783 5673 5784 0
-5783 -5673 -5784 0
5783 -5673 5784 0
5783 5673 -5784 0
-5784 -5672 -5727 0
-5784 5672 5727 0
5784 5672 -5727 0
5784 -5672 5727 0
-5785 5786 5788 0
-5785 5788 5851 0
-5785 5786 5851 0
5785 -5788 -5851 0
5785 -5786 -5788 0
5785 -5786 -5851 0
-5786 5675 5787 0
-5786 -5675 -5787 0
5786 -5675 5787 0
5786 5675 -5787 0
-5787 -5674 -5726 0
-5787 5674 5726 0
5787 5674 -5726 0
5787 -5674 5726 0
-5788 5789 5791 0
-5788 5791 5850 0
-5788 5789 5850 0
5788 -5791 -5850 0
5788 -5789 -5791 0
5788 -5789 -5850 0
-5789 5677 5790 0
-5789 -5677 -5790 0
5789 -5677 5790 0
5789 5677 -5790 0
-5790 -5676 -5725 0
-5790 5676 5725 0
5790 5676 -5725 0
5790 -5676 5725 0
-5791 5792 5794 0
-5791 5794 5849 0
-5791 5792 5849 0
5791 -5794 -5849 0
5791 -5792 -5794 0
5791 -5792 -5849 0
-5792 5679 5793 0
-5792 -5679 -5793 0
5792 -5679 5793 0
5792 5679 -5793 0
-5793 -5678 -5724 0
-5793 5678 5724 0
5793 5678 -5724 0
5793 -5678 5724 0
-5794 5795 5797 0
-5794 5797 5848 0
-5794 5795 5848 0
5794 -5797 -5848 0
5794 -5795 -5797 0
5794 -5795 -5848 0
-5795 5681 5796 0
-5795 -5681 -5796 0
5795 -5681 5796 0
5795 5681 -5796 0
-5796 -5680 -5723 0
-5796 5680 5723 0
5796 5680 -5723 0
5796 -5680 5723 0
-5797 5798 5800 0
-5797 5800 5847 0
-5797 5798 5847 0
5797 -5800 -5847 0
5797 -5798 -5800 0
5797 -5798 -5847 0
-5798 5683 5799 0
-5798 -5683 -5799 0
5798 -5683 5799 0
5798 5683 -5799 0
-5799 -5682 -5722 0
-5799 5682 5722 0
5799 5682 -5722 0
5799 -5682 5722 0
-5800 5801 5803 0
-5800 5803 5846 0
-5800 5801 5846 0
5800 -5803 -5846 0
5800 -5801 -5803 0
5800 -5801 -5846 0
-5801 5685 5802 0
-5801 -5685 -5802 0
5801 -5685 5802 0
5801 5685 -5802 0
-5802 -5684 -5721 0
-5802 5684 5721 0
5802 5684 -5721 0
5802 -5684 5721 0
-5803 5804 5806 0
-5803 5806 5845 0
-5803 5804 5845 0
5803 -5806 -5845 0
5803 -5804 -5806 0
5803 -5804 -5845 0
-5804 5687 5805 0
-5804 -5687 -5805 0
5804 -5687 5805 0
5804 5687 -5805 0
-5805 -5686 -5720 0
-5805 5686 5720 0
5805 5686 -5720 0
5805 -5686 5720 0
-5806 5807 5809 0
-5806 5809 5844 0
-5806 5807 5844 0
5806 -5809 -5844 0
5806 -5807 -5809 0
5806 -5807 -5844 0
-5807 5689 5808 0
-5807 -5689 -5808 0
5807 -5689 5808 0
5807 5689 -5808 0
-5808 -5688 -5719 0
-5808 5688 5719 0
5808 5688 -5719 0
5808 -5688 5719 0
-5809 5810 5812 0
-5809 5812 5843 0
-5809 5810 5843 0
5809 -5812 -5843 0
5809 -5810 -5812 0
5809 -5810 -5843 0
-5810 5691 5811 0
-5810 -5691 -5811 0
5810 -5691 5811 0
5810 5691 -5811 0
-5811 -5690 -5718 0
-5811 5690 5718 0
5811 5690 -5718 0
5811 -5690 5718 0
-5812 5813 5815 0
-5812 5815 5842 0
-5812 5813 5842 0
5812 -5815 -5842 0
5812 -5813 -5815 0
5812 -5813 -5842 0
-5813 5693 5814 0
-5813 -5693 -5814 0
5813 -5693 5814 0
5813 5693 -5814 0
-5814 -5692 -5717 0
-5814 5692 5717 0
5814 5692 -5717 0
5814 -5692 5717 0
-5815 5816 5818 0
-5815 5818 5841 0
-5815 5816 5841 0
5815 -5818 -5841 0
5815 -5816 -5818 0
5815 -5816 -5841 0
-5816 5695 5817 0
-5816 -5695 -5817 0
5816 -5695 5817 0
5816 5695 -5817 0
-5817 -5694 -5716 0
-5817 5694 5716 0
5817 5694 -5716 0
5817 -5694 5716 0
-5818 5819 5821 0
-5818 5821 5840 0
-5818 5819 5840 0
5818 -5821 -5840 0
5818 -5819 -5821 0
5818 -5819 -5840 0
-5819 5697 5820 0
-5819 -5697 -5820 0
5819 -5697 5820 0
5819 5697 -5820 0
-5820 -5696 -5715 0
-5820 5696 5715 0
5820 5696 -5715 0
5820 -5696 5715 0
-5821 5822 5824 0
-5821 5824 5839 0
-5821 5822 5839 0
5821 -5824 -5839 0
5821 -5822 -5824 0
5821 -5822 -5839 0
-5822 5699 5823 0
-5822 -5699 -5823 0
5822 -5699 5823 0
5822 5699 -5823 0
-5823 -5698 -5714 0
-5823 5698 5714 0
5823 5698 -5714 0
5823 -5698 5714 0
-5824 5825 5827 0
-5824 5827 5838 0
-5824 5825 5838 0
5824 -5827 -5838 0
5824 -5825 -5827 0
5824 -5825 -5838 0
-5825 5701 5826 0
-5825 -5701 -5826 0
5825 -5701 5826 0
5825 5701 -5826 0
-5826 -5700 -5713 0
-5826 5700 5713 0
5826 5700 -5713 0
5826 -5700 5713 0
-5827 5828 5830 0
-5827 5830 5837 0
-5827 5828 5837 0
5827 -5830 -5837 0
5827 -5828 -5830 0
5827 -5828 -5837 0
-5828 5703 5829 0
-5828 -5703 -5829 0
5828 -5703 5829 0
5828 5703 -5829 0
-5829 -5702 -5712 0
-5829 5702 5712 0
5829 5702 -5712 0
5829 -5702 5712 0
-5830 5833 5836 0
-5830 5831 5833 0
-5830 5831 5836 0
5830 -5831 -5833 0
5830 -5833 -5836 0
5830 -5831 -5836 0
-5831 5705 5832 0
-5831 -5705 -5832 0
5831 -5705 5832 0
5831 5705 -5832 0
-5832 -5704 -5711 0
-5832 5704 5711 0
5832 5704 -5711 0
5832 -5704 5711 0
5833 -227 -5834 0
-5833 227 0
-5833 5834 0
-5834 5707 5835 0
-5834 -5707 -5835 0
5834 -5707 5835 0
5834 5707 -5835 0
-5835 -5706 -5709 0
-5835 5706 5709 0
5835 5706 -5709 0
5835 -5706 5709 0
5836 9869 -9870 -228 0
5836 -9870 9903 -228 0
5836 -9869 9870 -9903 -228 0
-5836 9870 9903 0
-5836 9869 9870 0
-5836 228 0
-5836 -9869 -9870 -9903 0
5837 -9871 9903 -228 0
5837 -9871 69 -228 0
5837 9871 -9903 -69 -228 0
-5837 9871 69 0
-5837 -9871 -9903 -69 0
-5837 228 0
-5837 9871 9903 0
5838 -9872 9903 -228 0
5838 -9872 68 -228 0
5838 9872 -9903 -68 -228 0
-5838 9872 68 0
-5838 -9872 -9903 -68 0
-5838 228 0
-5838 9872 9903 0
5839 -9873 9903 -228 0
5839 -9873 67 -228 0
5839 9873 -9903 -67 -228 0
-5839 9873 67 0
-5839 -9873 -9903 -67 0
-5839 228 0
-5839 9873 9903 0
5840 -9874 9903 -228 0
5840 -9874 66 -228 0
5840 9874 -9903 -66 -228 0
-5840 9874 66 0
-5840 -9874 -9903 -66 0
-5840 228 0
-5840 9874 9903 0
5841 -9875 9903 -228 0
5841 -9875 65 -228 0
5841 9875 -9903 -65 -228 0
-5841 9875 65 0
-5841 -9875 -9903 -65 0
-5841 228 0
-5841 9875 9903 0
5842 -9876 9903 -228 0
5842 -9876 64 -228 0
5842 9876 -9903 -64 -228 0
-5842 9876 64 0
-5842 -9876 -9903 -64 0
-5842 228 0
-5842 9876 9903 0
5843 -9877 9903 -228 0
5843 -9877 63 -228 0
5843 9877 -9903 -63 -228 0
-5843 9877 63 0
-5843 -9877 -9903 -63 0
-5843 228 0
-5843 9877 9903 0
5844 -9878 9903 -228 0
5844 -9878 62 -228 0
5844 9878 -9903 -62 -228 0
-5844 9878 62 0
-5844 -9878 -9903 -62 0
-5844 228 0
-5844 9878 9903 0
5845 -9879 9903 -228 0
5845 -9879 61 -228 0
5845 9879 -9903 -61 -228 0
-5845 9879 61 0
-5845 -9879 -9903 -61 0
-5845 228 0
-5845 9879 9903 0
5846 -9880 9903 -228 0
5846 -9880 60 -228 0
5846 9880 -9903 -60 -228 0
-5846 9880 60 0
-5846 -9880 -9903 -60 0
-5846 228 0
-5846 9880 9903 0
5847 -9881 9903 -228 0
5847 -9881 59 -228 0
5847 9881 -9903 -59 -228 0
-5847 9881 59 0
-5847 -9881 -9903 -59 0
-5847 228 0
-5847 9881 9903 0
5848 -9882 9903 -228 0
5848 -9882 58 -228 0
5848 9882 -9903 -58 -228 0
-5848 9882 58 0
-5848 -9882 -9903 -58 0
-5848 228 0
-5848 9882 9903 0
5849 -9883 9903 -228 0
5849 -9883 57 -228 0
5849 9883 -9903 -57 -228 0
-5849 9883 57 0
-5849 -9883 -9903 -57 0
-5849 228 0
-5849 9883 9903 0
5850 -9884 9903 -228 0
5850 -9884 56 -228 0
5850 9884 -9903 -56 -228 0
-5850 9884 56 0
-5850 -9884 -9903 -56 0
-5850 228 0
-5850 9884 9903 0
5851 -9885 9903 -228 0
5851 -9885 55 -228 0
5851 9885 -9903 -55 -228 0
-5851 9885 55 0
-5851 -9885 -9903 -55 0
-5851 228 0
-5851 9885 9903 0
5852 -9886 9903 -228 0
5852 -9886 54 -228 0
5852 9886 -9903 -54 -228 0
-5852 9886 54 0
-5852 -9886 -9903 -54 0
-5852 228 0
-5852 9886 9903 0
5853 -9887 9903 -228 0
5853 -9887 53 -228 0
5853 9887 -9903 -53 -228 0
-5853 9887 53 0
-5853 -9887 -9903 -53 0
-5853 228 0
-5853 9887 9903 0
5854 -9888 9903 -228 0
5854 -9888 52 -228 0
5854 9888 -9903 -52 -228 0
-5854 9888 52 0
-5854 -9888 -9903 -52 0
-5854 228 0
-5854 9888 9903 0
5855 -9889 9903 -228 0
5855 -9889 51 -228 0
5855 9889 -9903 -51 -228 0
-5855 9889 51 0
-5855 -9889 -9903 -51 0
-5855 228 0
-5855 9889 9903 0
5856 -9890 9903 -228 0
5856 -9890 50 -228 0
5856 9890 -9903 -50 -228 0
-5856 9890 50 0
-5856 -9890 -9903 -50 0
-5856 228 0
-5856 9890 9903 0
5857 -9891 9903 -228 0
5857 -9891 49 -228 0
5857 9891 -9903 -49 -228 0
-5857 9891 49 0
-5857 -9891 -9903 -49 0
-5857 228 0
-5857 9891 9903 0
5858 -9892 9903 -228 0
5858 -9892 48 -228 0
5858 9892 -9903 -48 -228 0
-5858 9892 48 0
-5858 -9892 -9903 -48 0
-5858 228 0
-5858 9892 9903 0
5859 -9893 9903 -228 0
5859 -9893 47 -228 0
5859 9893 -9903 -47 -228 0
-5859 9893 47 0
-5859 -9893 -9903 -47 0
-5859 228 0
-5859 9893 9903 0
5860 -9894 9903 -228 0
5860 -9894 46 -228 0
5860 9894 -9903 -46 -228 0
-5860 9894 46 0
-5860 -9894 -9903 -46 0
-5860 228 0
-5860 9894 9903 0
5861 -9895 9903 -228 0
5861 -9895 45 -228 0
5861 9895 -9903 -45 -228 0
-5861 9895 45 0
-5861 -9895 -9903 -45 0
-5861 228 0
-5861 9895 9903 0
5862 -9896 9903 -228 0
5862 -9896 44 -228 0
5862 9896 -9903 -44 -228 0
-5862 9896 44 0
-5862 -9896 -9903 -44 0
-5862 228 0
-5862 9896 9903 0
5863 -9897 9903 -228 0
5863 -9897 43 -228 0
5863 9897 -9903 -43 -228 0
-5863 9897 43 0
-5863 -9897 -9903 -43 0
-5863 228 0
-5863 9897 9903 0
5864 -9898 9903 -228 0
5864 -9898 42 -228 0
5864 9898 -9903 -42 -228 0
-5864 9898 42 0
-5864 -9898 -9903 -42 0
-5864 228 0
-5864 9898 9903 0
5865 -9899 9903 -228 0
5865 -9899 41 -228 0
5865 9899 -9903 -41 -228 0
-5865 9899 41 0
-5865 -9899 -9903 -41 0
-5865 228 0
-5865 9899 9903 0
5866 -9900 9903 -228 0
5866 -9900 40 -228 0
5866 9900 -9903 -40 -228 0
-5866 9900 40 0
-5866 -9900 -9903 -40 0
-5866 228 0
-5866 9900 9903 0
5867 9903 -9904 -39 0
-5867 -9903 0
-5867 9904 0
-5867 39 0
-5868 5641 5869 0
-5868 5869 5994 0
-5868 5641 5994 0
5868 -5869 -5994 0
5868 -5641 -5869 0
5868 -5641 -5994 0
-5869 5870 5872 0
-5869 5872 5993 0
-5869 5870 5993 0
5869 -5872 -5993 0
5869 -5870 -5872 0
5869 -5870 -5993 0
-5870 5743 5871 0
-5870 -5743 -5871 0
5870 -5743 5871 0
5870 5743 -5871 0
-5871 -5643 -5866 0
-5871 5643 5866 0
5871 5643 -5866 0
5871 -5643 5866 0
-5872 5873 5875 0
-5872 5875 5992 0
-5872 5873 5992 0
5872 -5875 -5992 0
5872 -5873 -5875 0
5872 -5873 -5992 0
-5873 5746 5874 0
-5873 -5746 -5874 0
5873 -5746 5874 0
5873 5746 -5874 0
-5874 -5744 -5865 0
-5874 5744 5865 0
5874 5744 -5865 0
5874 -5744 5865 0
-5875 5876 5878 0
-5875 5878 5991 0
-5875 5876 5991 0
5875 -5878 -5991 0
5875 -5876 -5878 0
5875 -5876 -5991 0
-5876 5749 5877 0
-5876 -5749 -5877 0
5876 -5749 5877 0
5876 5749 -5877 0
-5877 -5747 -5864 0
-5877 5747 5864 0
5877 5747 -5864 0
5877 -5747 5864 0
-5878 5879 5881 0
-5878 5881 5990 0
-5878 5879 5990 0
5878 -5881 -5990 0
5878 -5879 -5881 0
5878 -5879 -5990 0
-5879 5752 5880 0
-5879 -5752 -5880 0
5879 -5752 5880 0
5879 5752 -5880 0
-5880 -5750 -5863 0
-5880 5750 5863 0
5880 5750 -5863 0
5880 -5750 5863 0
-5881 5882 5884 0
-5881 5884 5989 0
-5881 5882 5989 0
5881 -5884 -5989 0
5881 -5882 -5884 0
5881 -5882 -5989 0
-5882 5755 5883 0
-5882 -5755 -5883 0
5882 -5755 5883 0
5882 5755 -5883 0
-5883 -5753 -5862 0
-5883 5753 5862 0
5883 5753 -5862 0
5883 -5753 5862 0
-5884 5885 5887 0
-5884 5887 5988 0
-5884 5885 5988 0
5884 -5887 -5988 0
5884 -5885 -5887 0
5884 -5885 -5988 0
-5885 5758 5886 0
-5885 -5758 -5886 0
5885 -5758 5886 0
5885 5758 -5886 0
-5886 -5756 -5861 0
-5886 5756 5861 0
5886 5756 -5861 0
5886 -5756 5861 0
-5887 5888 5890 0
-5887 5890 5987 0
-5887 5888 5987 0
5887 -5890 -5987 0
5887 -5888 -5890 0
5887 -5888 -5987 0
-5888 5761 5889 0
-5888 -5761 -5889 0
5888 -5761 5889 0
5888 5761 -5889 0
-5889 -5759 -5860 0
-5889 5759 5860 0
5889 5759 -5860 0
5889 -5759 5860 0
-5890 5891 5893 0
-5890 5893 5986 0
-5890 5891 5986 0
5890 -5893 -5986 0
5890 -5891 -5893 0
5890 -5891 -5986 0
-5891 5764 5892 0
-5891 -5764 -5892 0
5891 -5764 5892 0
5891 5764 -5892 0
-5892 -5762 -5859 0
-5892 5762 5859 0
5892 5762 -5859 0
5892 -5762 5859 0
-5893 5894 5896 0
-5893 5896 5985 0
-5893 5894 5985 0
5893 -5896 -5985 0
5893 -5894 -5896 0
5893 -5894 -5985 0
-5894 5767 5895 0
-5894 -5767 -5895 0
5894 -5767 5895 0
5894 5767 -5895 0
-5895 -5765 -5858 0
-5895 5765 5858 0
5895 5765 -5858 0
5895 -5765 5858 0
-5896 5897 5899 0
-5896 5899 5984 0
-5896 5897 5984 0
5896 -5899 -5984 0
5896 -5897 -5899 0
5896 -5897 -5984 0
-5897 5770 5898 0
-5897 -5770 -5898 0
5897 -5770 5898 0
5897 5770 -5898 0
-5898 -5768 -5857 0
-5898 5768 5857 0
5898 5768 -5857 0
5898 -5768 5857 0
-5899 5900 5902 0
-5899 5902 5983 0
-5899 5900 5983 0
5899 -5902 -5983 0
5899 -5900 -5902 0
5899 -5900 -5983 0
-5900 5773 5901 0
-5900 -5773 -5901 0
5900 -5773 5901 0
5900 5773 -5901 0
-5901 -5771 -5856 0
-5901 5771 5856 0
5901 5771 -5856 0
5901 -5771 5856 0
-5902 5903 5905 0
-5902 5905 5982 0
-5902 5903 5982 0
5902 -5905 -5982 0
5902 -5903 -5905 0
5902 -5903 -5982 0
-5903 5776 5904 0
-5903 -5776 -5904 0
5903 -5776 5904 0
5903 5776 -5904 0
-5904 -5774 -5855 0
-5904 5774 5855 0
5904 5774 -5855 0
5904 -5774 5855 0
-5905 5906 5908 0
-5905 5908 5981 0
-5905 5906 5981 0
5905 -5908 -5981 0
5905 -5906 -5908 0
5905 -5906 -5981 0
-5906 5779 5907 0
-5906 -5779 -5907 0
5906 -5779 5907 0
5906 5779 -5907 0
-5907 -5777 -5854 0
-5907 5777 5854 0
5907 5777 -5854 0
5907 -5777 5854 0
-5908 5909 5911 0
-5908 5911 5980 0
-5908 5909 5980 0
5908 -5911 -5980 0
5908 -5909 -5911 0
5908 -5909 -5980 0
-5909 5782 5910 0
-5909 -5782 -5910 0
5909 -5782 5910 0
5909 5782 -5910 0
-5910 -5780 -5853 0
-5910 5780 5853 0
5910 5780 -5853 0
5910 -5780 5853 0
-5911 5912 5914 0
-5911 5914 5979 0
-5911 5912 5979 0
5911 -5914 -5979 0
5911 -5912 -5914 0
5911 -5912 -5979 0
-5912 5785 5913 0
-5912 -5785 -5913 0
5912 -5785 5913 0
5912 5785 -5913 0
-5913 -5783 -5852 0
-5913 5783 5852 0
5913 5783 -5852 0
5913 -5783 5852 0
-5914 5915 5917 0
-5914 5917 5978 0
-5914 5915 5978 0
5914 -5917 -5978 0
5914 -5915 -5917 0
5914 -5915 -5978 0
-5915 5788 5916 0
-5915 -5788 -5916 0
5915 -5788 5916 0
5915 5788 -5916 0
-5916 -5786 -5851 0
-5916 5786 5851 0
5916 5786 -5851 0
5916 -5786 5851 0
-5917 5918 5920 0
-5917 5920 5977 0
-5917 5918 5977 0
5917 -5920 -5977 0
5917 -5918 -5920 0
5917 -5918 -5977 0
-5918 5791 5919 0
-5918 -5791 -5919 0
5918 -5791 5919 0
5918 5791 -5919 0
-5919 -5789 -5850 0
-5919 5789 5850 0
5919 5789 -5850 0
5919 -5789 5850 0
-5920 5921 5923 0
-5920 5923 5976 0
-5920 5921 5976 0
5920 -5923 -5976 0
5920 -5921 -5923 0
5920 -5921 -5976 0
-5921 5794 5922 0
-5921 -5794 -5922 0
5921 -5794 5922 0
5921 5794 -5922 0
-5922 -5792 -5849 0
-5922 5792 5849 0
5922 5792 -5849 0
5922 -5792 5849 0
-5923 5924 5926 0
-5923 5926 5975 0
-5923 5924 5975 0
5923 -5926 -5975 0
5923 -5924 -5926 0
5923 -5924 -5975 0
-5924 5797 5925 0
-5924 -5797 -5925 0
5924 -5797 5925 0
5924 5797 -5925 0
-5925 -5795 -5848 0
-5925 5795 5848 0
5925 5795 -5848 0
5925 -5795 5848 0
-5926 5927 5929 0
-5926 5929 5974 0
-5926 5927 5974 0
5926 -5929 -5974 0
5926 -5927 -5929 0
5926 -5927 -5974 0
-5927 5800 5928 0
-5927 -5800 -5928 0
5927 -5800 5928 0
5927 5800 -5928 0
-5928 -5798 -5847 0
-5928 5798 5847 0
5928 5798 -5847 0
5928 -5798 5847 0
-5929 5930 5932 0
-5929 5932 5973 0
-5929 5930 5973 0
5929 -5932 -5973 0
5929 -5930 -5932 0
5929 -5930 -5973 0
-5930 5803 5931 0
-5930 -5803 -5931 0
5930 -5803 5931 0
5930 5803 -5931 0
-5931 -5801 -5846 0
-5931 5801 5846 0
5931 5801 -5846 0
5931 -5801 5846 0
-5932 5933 5935 0
-5932 5935 5972 0
-5932 5933 5972 0
5932 -5935 -5972 0
5932 -5933 -5935 0
5932 -5933 -5972 0
-5933 5806 5934 0
-5933 -5806 -5934 0
5933 -5806 5934 0
5933 5806 -5934 0
-5934 -5804 -5845 0
-5934 5804 5845 0
5934 5804 -5845 0
5934 -5804 5845 0
-5935 5936 5938 0
-5935 5938 5971 0
-5935 5936 5971 0
5935 -5938 -5971 0
5935 -5936 -5938 0
5935 -5936 -5971 0
-5936 5809 5937 0
-5936 -5809 -5937 0
5936 -5809 5937 0
5936 5809 -5937 0
-5937 -5807 -5844 0
-5937 5807 5844 0
5937 5807 -5844 0
5937 -5807 5844 0
-5938 5939 5941 0
-5938 5941 5970 0
-5938 5939 5970 0
5938 -5941 -5970 0
5938 -5939 -5941 0
5938 -5939 -5970 0
-5939 5812 5940 0
-5939 -5812 -5940 0
5939 -5812 5940 0
5939 5812 -5940 0
-5940 -5810 -5843 0
-5940 5810 5843 0
5940 5810 -5843 0
5940 -5810 5843 0
-5941 5942 5944 0
-5941 5944 5969 0
-5941 5942 5969 0
5941 -5944 -5969 0
5941 -5942 -5944 0
5941 -5942 -5969 0
-5942 5815 5943 0
-5942 -5815 -5943 0
5942 -5815 5943 0
5942 5815 -5943 0
-5943 -5813 -5842 0
-5943 5813 5842 0
5943 5813 -5842 0
5943 -5813 5842 0
-5944 5945 5947 0
-5944 5947 5968 0
-5944 5945 5968 0
5944 -5947 -5968 0
5944 -5945 -5947 0
5944 -5945 -5968 0
-5945 5818 5946 0
-5945 -5818 -5946 0
5945 -5818 5946 0
5945 5818 -5946 0
-5946 -5816 -5841 0
-5946 5816 5841 0
5946 5816 -5841 0
5946 -5816 5841 0
-5947 5948 5950 0
-5947 5950 5967 0
-5947 5948 5967 0
5947 -5950 -5967 0
5947 -5948 -5950 0
5947 -5948 -5967 0
-5948 5821 5949 0
-5948 -5821 -5949 0
5948 -5821 5949 0
5948 5821 -5949 0
-5949 -5819 -5840 0
-5949 5819 5840 0
5949 5819 -5840 0
5949 -5819 5840 0
-5950 5951 5953 0
-5950 5953 5966 0
-5950 5951 5966 0
5950 -5953 -5966 0
5950 -5951 -5953 0
5950 -5951 -5966 0
-5951 5824 5952 0
-5951 -5824 -5952 0
5951 -5824 5952 0
5951 5824 -5952 0
-5952 -5822 -5839 0
-5952 5822 5839 0
5952 5822 -5839 0
5952 -5822 5839 0
-5953 5954 5956 0
-5953 5956 5965 0
-5953 5954 5965 0
5953 -5956 -5965 0
5953 -5954 -5956 0
5953 -5954 -5965 0
-5954 5827 5955 0
-5954 -5827 -5955 0
5954 -5827 5955 0
5954 5827 -5955 0
-5955 -5825 -5838 0
-5955 5825 5838 0
5955 5825 -5838 0
5955 -5825 5838 0
-5956 5959 5964 0
-5956 5957 5959 0
-5956 5957 5964 0
5956 -5957 -5959 0
5956 -5959 -5964 0
5956 -5957 -5964 0
-5957 5830 5958 0
-5957 -5830 -5958 0
5957 -5830 5958 0
5957 5830 -5958 0
-5958 -5828 -5837 0
-5958 5828 5837 0
5958 5828 -5837 0
5958 -5828 5837 0
5959 -5960 -5962 0
-5959 5960 0
-5959 5962 0
5960 -9869 -5961 0
-5960 9869 0
-5960 5961 0
-5961 -9903 -9904 0
-5961 9903 9904 0
5961 9903 -9904 0
5961 -9903 9904 0
-5962 5833 5963 0
-5962 -5833 -5963 0
5962 -5833 5963 0
5962 5833 -5963 0
-5963 -5831 -5836 0
-5963 5831 5836 0
5963 5831 -5836 0
5963 -5831 5836 0
5964 9869 -9870 -5961 0
5964 -9870 9904 -5961 0
5964 -9869 9870 -9904 -5961 0
-5964 9870 9904 0
-5964 9869 9870 0
-5964 5961 0
-5964 -9869 -9870 -9904 0
5965 -9871 9904 -5961 0
5965 -9871 69 -5961 0
5965 9871 -9904 -69 -5961 0
-5965 9871 69 0
-5965 -9871 -9904 -69 0
-5965 5961 0
-5965 9871 9904 0
5966 -9872 9904 -5961 0
5966 -9872 68 -5961 0
5966 9872 -9904 -68 -5961 0
-5966 9872 68 0
-5966 -9872 -9904 -68 0
-5966 5961 0
-5966 9872 9904 0
5967 -9873 9904 -5961 0
5967 -9873 67 -5961 0
5967 9873 -9904 -67 -5961 0
-5967 9873 67 0
-5967 -9873 -9904 -67 0
-5967 5961 0
-5967 9873 9904 0
5968 -9874 9904 -5961 0
5968 -9874 66 -5961 0
5968 9874 -9904 -66 -5961 0
-5968 9874 66 0
-5968 -9874 -9904 -66 0
-5968 5961 0
-5968 9874 9904 0
5969 -9875 9904 -5961 0
5969 -9875 65 -5961 0
5969 9875 -9904 -65 -5961 0
-5969 9875 65 0
-5969 -9875 -9904 -65 0
-5969 5961 0
-5969 9875 9904 0
5970 -9876 9904 -5961 0
5970 -9876 64 -5961 0
5970 9876 -9904 -64 -5961 0
-5970 9876 64 0
-5970 -9876 -9904 -64 0
-5970 5961 0
-5970 9876 9904 0
5971 -9877 9904 -5961 0
5971 -9877 63 -5961 0
5971 9877 -9904 -63 -5961 0
-5971 9877 63 0
-5971 -9877 -9904 -63 0
-5971 5961 0
-5971 9877 9904 0
5972 -9878 9904 -5961 0
5972 -9878 62 -5961 0
5972 9878 -9904 -62 -5961 0
-5972 9878 62 0
-5972 -9878 -9904 -62 0
-5972 5961 0
-5972 9878 9904 0
5973 -9879 9904 -5961 0
5973 -9879 61 -5961 0
5973 9879 -9904 -61 -5961 0
-5973 9879 61 0
-5973 -9879 -9904 -61 0
-5973 5961 0
-5973 9879 9904 0
5974 -9880 9904 -5961 0
5974 -9880 60 -5961 0
5974 9880 -9904 -60 -5961 0
-5974 9880 60 0
-5974 -9880 -9904 -60 0
-5974 5961 0
-5974 9880 9904 0
5975 -9881 9904 -5961 0
5975 -9881 59 -5961 0
5975 9881 -9904 -59 -5961 0
-5975 9881 59 0
-5975 -9881 -9904 -59 0
-5975 5961 0
-5975 9881 9904 0
5976 -9882 9904 -5961 0
5976 -9882 58 -5961 0
5976 9882 -9904 -58 -5961 0
-5976 9882 58 0
-5976 -9882 -9904 -58 0
-5976 5961 0
-5976 9882 9904 0
5977 -9883 9904 -5961 0
5977 -9883 57 -5961 0
5977 9883 -9904 -57 -5961 0
-5977 9883 57 0
-5977 -9883 -9904 -57 0
-5977 5961 0
-5977 9883 9904 0
5978 -9884 9904 -5961 0
5978 -9884 56 -5961 0
5978 9884 -9904 -56 -5961 0
-5978 9884 56 0
-5978 -9884 -9904 -56 0
-5978 5961 0
-5978 9884 9904 0
5979 -9885 9904 -5961 0
5979 -9885 55 -5961 0
5979 9885 -9904 -55 -5961 0
-5979 9885 55 0
-5979 -9885 -9904 -55 0
-5979 5961 0
-5979 9885 9904 0
5980 -9886 9904 -5961 0
5980 -9886 54 -5961 0
5980 9886 -9904 -54 -5961 0
-5980 9886 54 0
-5980 -9886 -9904 -54 0
-5980 5961 0
-5980 9886 9904 0
5981 -9887 9904 -5961 0
5981 -9887 53 -5961 0
5981 9887 -9904 -53 -5961 0
-5981 9887 53 0
-5981 -9887 -9904 -53 0
-5981 5961 0
-5981 9887 9904 0
5982 -9888 9904 -5961 0
5982 -9888 52 -5961 0
5982 9888 -9904 -52 -5961 0
-5982 9888 52 0
-5982 -9888 -9904 -52 0
-5982 5961 0
-5982 9888 9904 0
5983 -9889 9904 -5961 0
5983 -9889 51 -5961 0
5983 9889 -9904 -51 -5961 0
-5983 9889 51 0
-5983 -9889 -9904 -51 0
-5983 5961 0
-5983 9889 9904 0
5984 -9890 9904 -5961 0
5984 -9890 50 -5961 0
5984 9890 -9904 -50 -5961 0
-5984 9890 50 0
-5984 -9890 -9904 -50 0
-5984 5961 0
-5984 9890 9904 0
5985 -9891 9904 -5961 0
5985 -9891 49 -5961 0
5985 9891 -9904 -49 -5961 0
-5985 9891 49 0
-5985 -9891 -9904 -49 0
-5985 5961 0
-5985 9891 9904 0
5986 -9892 9904 -5961 0
5986 -9892 48 -5961 0
5986 9892 -9904 -48 -5961 0
-5986 9892 48 0
-5986 -9892 -9904 -48 0
-5986 5961 0
-5986 9892 9904 0
5987 -9893 9904 -5961 0
5987 -9893 47 -5961 0
5987 9893 -9904 -47 -5961 0
-5987 9893 47 0
-5987 -9893 -9904 -47 0
-5987 5961 0
-5987 9893 9904 0
5988 -9894 9904 -5961 0
5988 -9894 46 -5961 0
5988 9894 -9904 -46 -5961 0
-5988 9894 46 0
-5988 -9894 -9904 -46 0
-5988 5961 0
-5988 9894 9904 0
5989 -9895 9904 -5961 0
5989 -9895 45 -5961 0
5989 9895 -9904 -45 -5961 0
-5989 9895 45 0
-5989 -9895 -9904 -45 0
-5989 5961 0
-5989 9895 9904 0
5990 -9896 9904 -5961 0
5990 -9896 44 -5961 0
5990 9896 -9904 -44 -5961 0
-5990 9896 44 0
-5990 -9896 -9904 -44 0
-5990 5961 0
-5990 9896 9904 0
5991 -9897 9904 -5961 0
5991 -9897 43 -5961 0
5991 9897 -9904 -43 -5961 0
-5991 9897 43 0
-5991 -9897 -9904 -43 0
-5991 5961 0
-5991 9897 9904 0
5992 -9898 9904 -5961 0
5992 -9898 42 -5961 0
5992 9898 -9904 -42 -5961 0
-5992 9898 42 0
-5992 -9898 -9904 -42 0
-5992 5961 0
-5992 9898 9904 0
5993 -9899 9904 -5961 0
5993 -9899 41 -5961 0
5993 9899 -9904 -41 -5961 0
-5993 9899 41 0
-5993 -9899 -9904 -41 0
-5993 5961 0
-5993 9899 9904 0
5994 -9900 9904 -5961 0
5994 -9900 40 -5961 0
5994 9900 -9904 -40 -5961 0
-5994 9900 40 0
-5994 -9900 -9904 -40 0
-5994 5961 0
-5994 9900 9904 0
5995 9904 -9905 -39 0
-5995 -9904 0
-5995 9905 0
-5995 39 0
-5996 5639 5997 0
-5996 5997 6120 0
-5996 5639 6120 0
5996 -5997 -6120 0
5996 -5639 -5997 0
5996 -5639 -6120 0
-5997 5998 6000 0
-5997 6000 6119 0
-5997 5998 6119 0
5997 -6000 -6119 0
5997 -5998 -6000 0
5997 -5998 -6119 0
-5998 5869 5999 0
-5998 -5869 -5999 0
5998 -5869 5999 0
5998 5869 -5999 0
-5999 -5641 -5994 0
-5999 5641 5994 0
5999 5641 -5994 0
5999 -5641 5994 0
-6000 6001 6003 0
-6000 6003 6118 0
-6000 6001 6118 0
6000 -6003 -6118 0
6000 -6001 -6003 0
6000 -6001 -6118 0
-6001 5872 6002 0
-6001 -5872 -6002 0
6001 -5872 6002 0
6001 5872 -6002 0
-6002 -5870 -5993 0
-6002 5870 5993 0
6002 5870 -5993 0
6002 -5870 5993 0
-6003 6004 6006 0
-6003 6006 6117 0
-6003 6004 6117 0
6003 -6006 -6117 0
6003 -6004 -6006 0
6003 -6004 -6117 0
-6004 5875 6005 0
-6004 -5875 -6005 0
6004 -5875 6005 0
6004 5875 -6005 0
-6005 -5873 -5992 0
-6005 5873 5992 0
6005 5873 -5992 0
6005 -5873 5992 0
-6006 6007 6009 0
-6006 6009 6116 0
-6006 6007 6116 0
6006 -6009 -6116 0
6006 -6007 -6009 0
6006 -6007 -6116 0
-6007 5878 6008 0
-6007 -5878 -6008 0
6007 -5878 6008 0
6007 5878 -6008 0
-6008 -5876 -5991 0
-6008 5876 5991 0
6008 5876 -5991 0
6008 -5876 5991 0
-6009 6010 6012 0
-6009 6012 6115 0
-6009 6010 6115 0
6009 -6012 -6115 0
6009 -6010 -6012 0
6009 -6010 -6115 0
-6010 5881 6011 0
-6010 -5881 -6011 0
6010 -5881 6011 0
6010 5881 -6011 0
-6011 -5879 -5990 0
-6011 5879 5990 0
6011 5879 -5990 0
6011 -5879 5990 0
-6012 6013 6015 0
-6012 6015 6114 0
-6012 6013 6114 0
6012 -6015 -6114 0
6012 -6013 -6015 0
6012 -6013 -6114 0
-6013 5884 6014 0
-6013 -5884 -6014 0
6013 -5884 6014 0
6013 5884 -6014 0
-6014 -5882 -5989 0
-6014 5882 5989 0
6014 5882 -5989 0
6014 -5882 5989 0
-6015 6016 6018 0
-6015 6018 6113 0
-6015 6016 6113 0
6015 -6018 -6113 0
6015 -6016 -6018 0
6015 -6016 -6113 0
-6016 5887 6017 0
-6016 -5887 -6017 0
6016 -5887 6017 0
6016 5887 -6017 0
-6017 -5885 -5988 0
-6017 5885 5988 0
6017 5885 -5988 0
6017 -5885 5988 0
-6018 6019 6021 0
-6018 6021 6112 0
-6018 6019 6112 0
6018 -6021 -6112 0
6018 -6019 -6021 0
6018 -6019 -6112 0
-6019 5890 6020 0
-6019 -5890 -6020 0
6019 -5890 6020 0
6019 5890 -6020 0
-6020 -5888 -5987 0
-6020 5888 5987 0
6020 5888 -5987 0
6020 -5888 5987 0
-6021 6022 6024 0
-6021 6024 6111 0
-6021 6022 6111 0
6021 -6024 -6111 0
6021 -6022 -6024 0
6021 -6022 -6111 0
-6022 5893 6023 0
-6022 -5893 -6023 0
6022 -5893 6023 0
6022 5893 -6023 0
-6023 -5891 -5986 0
-6023 5891 5986 0
6023 5891 -5986 0
6023 -5891 5986 0
-6024 6025 6027 0
-6024 6027 6110 0
-6024 6025 6110 0
6024 -6027 -6110 0
6024 -6025 -6027 0
6024 -6025 -6110 0
-6025 5896 6026 0
-6025 -5896 -6026 0
6025 -5896 6026 0
6025 5896 -6026 0
-6026 -5894 -5985 0
-6026 5894 5985 0
6026 5894 -5985 0
6026 -5894 5985 0
-6027 6028 6030 0
-6027 6030 6109 0
-6027 6028 6109 0
6027 -6030 -6109 0
6027 -6028 -6030 0
6027 -6028 -6109 0
-6028 5899 6029 0
-6028 -5899 -6029 0
6028 -5899 6029 0
6028 5899 -6029 0
-6029 -5897 -5984 0
-6029 5897 5984 0
6029 5897 -5984 0
6029 -5897 5984 0
-6030 6031 6033 0
-6030 6033 6108 0
-6030 6031 6108 0
6030 -6033 -6108 0
6030 -6031 -6033 0
6030 -6031 -6108 0
-6031 5902 6032 0
-6031 -5902 -6032 0
6031 -5902 6032 0
6031 5902 -6032 0
-6032 -5900 -5983 0
-6032 5900 5983 0
6032 5900 -5983 0
6032 -5900 5983 0
-6033 6034 6036 0
-6033 6036 6107 0
-6033 6034 6107 0
6033 -6036 -6107 0
6033 -6034 -6036 0
6033 -6034 -6107 0
-6034 5905 6035 0
-6034 -5905 -6035 0
6034 -5905 6035 0
6034 5905 -6035 0
-6035 -5903 -5982 0
-6035 5903 5982 0
6035 5903 -5982 0
6035 -5903 5982 0
-6036 6037 6039 0
-6036 6039 6106 0
-6036 6037 6106 0
6036 -6039 -6106 0
6036 -6037 -6039 0
6036 -6037 -6106 0
-6037 5908 6038 0
-6037 -5908 -6038 0
6037 -5908 6038 0
6037 5908 -6038 0
-6038 -5906 -5981 0
-6038 5906 5981 0
6038 5906 -5981 0
6038 -5906 5981 0
-6039 6040 6042 0
-6039 6042 6105 0
-6039 6040 6105 0
6039 -6042 -6105 0
6039 -6040 -6042 0
6039 -6040 -6105 0
-6040 5911 6041 0
-6040 -5911 -6041 0
6040 -5911 6041 0
6040 5911 -6041 0
-6041 -5909 -5980 0
-6041 5909 5980 0
6041 5909 -5980 0
6041 -5909 5980 0
-6042 6043 6045 0
-6042 6045 6104 0
-6042 6043 6104 0
6042 -6045 -6104 0
6042 -6043 -6045 0
6042 -6043 -6104 0
-6043 5914 6044 0
-6043 -5914 -6044 0
6043 -5914 6044 0
6043 5914 -6044 0
-6044 -5912 -5979 0
-6044 5912 5979 0
6044 5912 -5979 0
6044 -5912 5979 0
-6045 6046 6048 0
-6045 6048 6103 0
-6045 6046 6103 0
6045 -6048 -6103 0
6045 -6046 -6048 0
6045 -6046 -6103 0
-6046 5917 6047 0
-6046 -5917 -6047 0
6046 -5917 6047 0
6046 5917 -6047 0
-6047 -5915 -5978 0
-6047 5915 5978 0
6047 5915 -5978 0
6047 -5915 5978 0
-6048 6049 6051 0
-6048 6051 6102 0
-6048 6049 6102 0
6048 -6051 -6102 0
6048 -6049 -6051 0
6048 -6049 -6102 0
-6049 5920 6050 0
-6049 -5920 -6050 0
6049 -5920 6050 0
6049 5920 -6050 0
-6050 -5918 -5977 0
-6050 5918 5977 0
6050 5918 -5977 0
6050 -5918 5977 0
-6051 6052 6054 0
-6051 6054 6101 0
-6051 6052 6101 0
6051 -6054 -6101 0
6051 -6052 -6054 0
6051 -6052 -6101 0
-6052 5923 6053 0
-6052 -5923 -6053 0
6052 -5923 6053 0
6052 5923 -6053 0
-6053 -5921 -5976 0
-6053 5921 5976 0
6053 5921 -5976 0
6053 -5921 5976 0
-6054 6055 6057 0
-6054 6057 6100 0
-6054 6055 6100 0
6054 -6057 -6100 0
6054 -6055 -6057 0
6054 -6055 -6100 0
-6055 5926 6056 0
-6055 -5926 -6056 0
6055 -5926 6056 0
6055 5926 -6056 0
-6056 -5924 -5975 0
-6056 5924 5975 0
6056 5924 -5975 0
6056 -5924 5975 0
-6057 6058 6060 0
-6057 6060 6099 0
-6057 6058 6099 0
6057 -6060 -6099 0
6057 -6058 -6060 0
6057 -6058 -6099 0
-6058 5929 6059 0
-6058 -5929 -6059 0
6058 -5929 6059 0
6058 5929 -6059 0
-6059 -5927 -5974 0
-6059 5927 5974 0
6059 5927 -5974 0
6059 -5927 5974 0
-6060 6061 6063 0
-6060 6063 6098 0
-6060 6061 6098 0
6060 -6063 -6098 0
6060 -6061 -6063 0
6060 -6061 -6098 0
-6061 5932 6062 0
-6061 -5932 -6062 0
6061 -5932 6062 0
6061 5932 -6062 0
-6062 -5930 -5973 0
-6062 5930 5973 0
6062 5930 -5973 0
6062 -5930 5973 0
-6063 6064 6066 0
-6063 6066 6097 0
-6063 6064 6097 0
6063 -6066 -6097 0
6063 -6064 -6066 0
6063 -6064 -6097 0
-6064 5935 6065 0
-6064 -5935 -6065 0
6064 -5935 6065 0
6064 5935 -6065 0
-6065 -5933 -5972 0
-6065 5933 5972 0
6065 5933 -5972 0
6065 -5933 5972 0
-6066 6067 6069 0
-6066 6069 6096 0
-6066 6067 6096 0
6066 -6069 -6096 0
6066 -6067 -6069 0
6066 -6067 -6096 0
-6067 5938 6068 0
-6067 -5938 -6068 0
6067 -5938 6068 0
6067 5938 -6068 0
-6068 -5936 -5971 0
-6068 5936 5971 0
6068 5936 -5971 0
6068 -5936 5971 0
-6069 6070 6072 0
-6069 6072 6095 0
-6069 6070 6095 0
6069 -6072 -6095 0
6069 -6070 -6072 0
6069 -6070 -6095 0
-6070 5941 6071 0
-6070 -5941 -6071 0
6070 -5941 6071 0
6070 5941 -6071 0
-6071 -5939 -5970 0
-6071 5939 5970 0
6071 5939 -5970 0
6071 -5939 5970 0
-6072 6073 6075 0
-6072 6075 6094 0
-6072 6073 6094 0
6072 -6075 -6094 0
6072 -6073 -6075 0
6072 -6073 -6094 0
-6073 5944 6074 0
-6073 -5944 -6074 0
6073 -5944 6074 0
6073 5944 -6074 0
-6074 -5942 -5969 0
-6074 5942 5969 0
6074 5942 -5969 0
6074 -5942 5969 0
-6075 6076 6078 0
-6075 6078 6093 0
-6075 6076 6093 0
6075 -6078 -6093 0
6075 -6076 -6078 0
6075 -6076 -6093 0
-6076 5947 6077 0
-6076 -5947 -6077 0
6076 -5947 6077 0
6076 5947 -6077 0
-6077 -5945 -5968 0
-6077 5945 5968 0
6077 5945 -5968 0
6077 -5945 5968 0
-6078 6079 6081 0
-6078 6081 6092 0
-6078 6079 6092 0
6078 -6081 -6092 0
6078 -6079 -6081 0
6078 -6079 -6092 0
-6079 5950 6080 0
-6079 -5950 -6080 0
6079 -5950 6080 0
6079 5950 -6080 0
-6080 -5948 -5967 0
-6080 5948 5967 0
6080 5948 -5967 0
6080 -5948 5967 0
-6081 6082 6084 0
-6081 6084 6091 0
-6081 6082 6091 0
6081 -6084 -6091 0
6081 -6082 -6084 0
6081 -6082 -6091 0
-6082 5953 6083 0
-6082 -5953 -6083 0
6082 -5953 6083 0
6082 5953 -6083 0
-6083 -5951 -5966 0
-6083 5951 5966 0
6083 5951 -5966 0
6083 -5951 5966 0
-6084 6087 6090 0
-6084 6085 6087 0
-6084 6085 6090 0
6084 -6085 -6087 0
6084 -6087 -6090 0
6084 -6085 -6090 0
-6085 5956 6086 0
-6085 -5956 -6086 0
6085 -5956 6086 0
6085 5956 -6086 0
-6086 -5954 -5965 0
-6086 5954 5965 0
6086 5954 -5965 0
6086 -5954 5965 0
6087 -584 -6088 0
-6087 584 0
-6087 6088 0
-6088 5959 6089 0
-6088 -5959 -6089 0
6088 -5959 6089 0
6088 5959 -6089 0
-6089 -5957 -5964 0
-6089 5957 5964 0
6089 5957 -5964 0
6089 -5957 5964 0
6090 9869 -9870 -585 0
6090 -9870 9905 -585 0
6090 -9869 9870 -9905 -585 0
-6090 9870 9905 0
-6090 9869 9870 0
-6090 585 0
-6090 -9869 -9870 -9905 0
6091 -9871 9905 -585 0
6091 -9871 69 -585 0
6091 9871 -9905 -69 -585 0
-6091 9871 69 0
-6091 -9871 -9905 -69 0
-6091 585 0
-6091 9871 9905 0
6092 -9872 9905 -585 0
6092 -9872 68 -585 0
6092 9872 -9905 -68 -585 0
-6092 9872 68 0
-6092 -9872 -9905 -68 0
-6092 585 0
-6092 9872 9905 0
6093 -9873 9905 -585 0
6093 -9873 67 -585 0
6093 9873 -9905 -67 -585 0
-6093 9873 67 0
-6093 -9873 -9905 -67 0
-6093 585 0
-6093 9873 9905 0
6094 -9874 9905 -585 0
6094 -9874 66 -585 0
6094 9874 -9905 -66 -585 0
-6094 9874 66 0
-6094 -9874 -9905 -66 0
-6094 585 0
-6094 9874 9905 0
6095 -9875 9905 -585 0
6095 -9875 65 -585 0
6095 9875 -9905 -65 -585 0
-6095 9875 65 0
-6095 -9875 -9905 -65 0
-6095 585 0
-6095 9875 9905 0
6096 -9876 9905 -585 0
6096 -9876 64 -585 0
6096 9876 -9905 -64 -585 0
-6096 9876 64 0
-6096 -9876 -9905 -64 0
-6096 585 0
-6096 9876 9905 0
6097 -9877 9905 -585 0
6097 -9877 63 -585 0
6097 9877 -9905 -63 -585 0
-6097 9877 63 0
-6097 -9877 -9905 -63 0
-6097 585 0
-6097 9877 9905 0
6098 -9878 9905 -585 0
6098 -9878 62 -585 0
6098 9878 -9905 -62 -585 0
-6098 9878 62 0
-6098 -9878 -9905 -62 0
-6098 585 0
-6098 9878 9905 0
6099 -9879 9905 -585 0
6099 -9879 61 -585 0
6099 9879 -9905 -61 -585 0
-6099 9879 61 0
-6099 -9879 -9905 -61 0
-6099 585 0
-6099 9879 9905 0
6100 -9880 9905 -585 0
6100 -9880 60 -585 0
6100 9880 -9905 -60 -585 0
-6100 9880 60 0
-6100 -9880 -9905 -60 0
-6100 585 0
-6100 9880 9905 0
6101 -9881 9905 -585 0
6101 -9881 59 -585 0
6101 9881 -9905 -59 -585 0
-6101 9881 59 0
-6101 -9881 -9905 -59 0
-6101 585 0
-6101 9881 9905 0
6102 -9882 9905 -585 0
6102 -9882 58 -585 0
6102 9882 -9905 -58 -585 0
-6102 9882 58 0
-6102 -9882 -9905 -58 0
-6102 585 0
-6102 9882 9905 0
6103 -9883 9905 -585 0
6103 -9883 57 -585 0
6103 9883 -9905 -57 -585 0
-6103 9883 57 0
-6103 -9883 -9905 -57 0
-6103 585 0
-6103 9883 9905 0
6104 -9884 9905 -585 0
6104 -9884 56 -585 0
6104 9884 -9905 -56 -585 0
-6104 9884 56 0
-6104 -9884 -9905 -56 0
-6104 585 0
-6104 9884 9905 0
6105 -9885 9905 -585 0
6105 -9885 55 -585 0
6105 9885 -9905 -55 -585 0
-6105 9885 55 0
-6105 -9885 -9905 -55 0
-6105 585 0
-6105 9885 9905 0
6106 -9886 9905 -585 0
6106 -9886 54 -585 0
6106 9886 -9905 -54 -585 0
-6106 9886 54 0
-6106 -9886 -9905 -54 0
-6106 585 0
-6106 9886 9905 0
6107 -9887 9905 -585 0
6107 -9887 53 -585 0
6107 9887 -9905 -53 -585 0
-6107 9887 53 0
-6107 -9887 -9905 -53 0
-6107 585 0
-6107 9887 9905 0
6108 -9888 9905 -585 0
6108 -9888 52 -585 0
6108 9888 -9905 -52 -585 0
-6108 9888 52 0
-6108 -9888 -9905 -52 0
-6108 585 0
-6108 9888 9905 0
6109 -9889 9905 -585 0
6109 -9889 51 -585 0
6109 9889 -9905 -51 -585 0
-6109 9889 51 0
-6109 -9889 -9905 -51 0
-6109 585 0
-6109 9889 9905 0
6110 -9890 9905 -585 0
6110 -9890 50 -585 0
6110 9890 -9905 -50 -585 0
-6110 9890 50 0
-6110 -9890 -9905 -50 0
-6110 585 0
-6110 9890 9905 0
6111 -9891 9905 -585 0
6111 -9891 49 -585 0
6111 9891 -9905 -49 -585 0
-6111 9891 49 0
-6111 -9891 -9905 -49 0
-6111 585 0
-6111 9891 9905 0
6112 -9892 9905 -585 0
6112 -9892 48 -585 0
6112 9892 -9905 -48 -585 0
-6112 9892 48 0
-6112 -9892 -9905 -48 0
-6112 585 0
-6112 9892 9905 0
6113 -9893 9905 -585 0
6113 -9893 47 -585 0
6113 9893 -9905 -47 -585 0
-6113 9893 47 0
-6113 -9893 -9905 -47 0
-6113 585 0
-6113 9893 9905 0
6114 -9894 9905 -585 0
6114 -9894 46 -585 0
6114 9894 -9905 -46 -585 0
-6114 9894 46 0
-6114 -9894 -9905 -46 0
-6114 585 0
-6114 9894 9905 0
6115 -9895 9905 -585 0
6115 -9895 45 -585 0
6115 9895 -9905 -45 -585 0
-6115 9895 45 0
-6115 -9895 -9905 -45 0
-6115 585 0
-6115 9895 9905 0
6116 -9896 9905 -585 0
6116 -9896 44 -585 0
6116 9896 -9905 -44 -585 0
-6116 9896 44 0
-6116 -9896 -9905 -44 0
-6116 585 0
-6116 9896 9905 0
6117 -9897 9905 -585 0
6117 -9897 43 -585 0
6117 9897 -9905 -43 -585 0
-6117 9897 43 0
-6117 -9897 -9905 -43 0
-6117 585 0
-6117 9897 9905 0
6118 -9898 9905 -585 0
6118 -9898 42 -585 0
6118 9898 -9905 -42 -585 0
-6118 9898 42 0
-6118 -9898 -9905 -42 0
-6118 585 0
-6118 9898 9905 0
6119 -9899 9905 -585 0
6119 -9899 41 -585 0
6119 9899 -9905 -41 -585 0
-6119 9899 41 0
-6119 -9899 -9905 -41 0
-6119 585 0
-6119 9899 9905 0
6120 -9900 9905 -585 0
6120 -9900 40 -585 0
6120 9900 -9905 -40 -585 0
-6120 9900 40 0
-6120 -9900 -9905 -40 0
-6120 585 0
-6120 9900 9905 0
6121 9905 -9906 -39 0
-6121 -9905 0
-6121 9906 0
-6121 39 0
-6122 5637 6123 0
-6122 6123 6248 0
-6122 5637 6248 0
6122 -6123 -6248 0
6122 -5637 -6123 0
6122 -5637 -6248 0
-6123 6124 6126 0
-6123 6126 6247 0
-6123 6124 6247 0
6123 -6126 -6247 0
6123 -6124 -6126 0
6123 -6124 -6247 0
-6124 5997 6125 0
-6124 -5997 -6125 0
6124 -5997 6125 0
6124 5997 -6125 0
-6125 -5639 -6120 0
-6125 5639 6120 0
6125 5639 -6120 0
6125 -5639 6120 0
-6126 6127 6129 0
-6126 6129 6246 0
-6126 6127 6246 0
6126 -6129 -6246 0
6126 -6127 -6129 0
6126 -6127 -6246 0
-6127 6000 6128 0
-6127 -6000 -6128 0
6127 -6000 6128 0
6127 6000 -6128 0
-6128 -5998 -6119 0
-6128 5998 6119 0
6128 5998 -6119 0
6128 -5998 6119 0
-6129 6130 6132 0
-6129 6132 6245 0
-6129 6130 6245 0
6129 -6132 -6245 0
6129 -6130 -6132 0
6129 -6130 -6245 0
-6130 6003 6131 0
-6130 -6003 -6131 0
6130 -6003 6131 0
6130 6003 -6131 0
-6131 -6001 -6118 0
-6131 6001 6118 0
6131 6001 -6118 0
6131 -6001 6118 0
-6132 6133 6135 0
-6132 6135 6244 0
-6132 6133 6244 0
6132 -6135 -6244 0
6132 -6133 -6135 0
6132 -6133 -6244 0
-6133 6006 6134 0
-6133 -6006 -6134 0
6133 -6006 6134 0
6133 6006 -6134 0
-6134 -6004 -6117 0
-6134 6004 6117 0
6134 6004 -6117 0
6134 -6004 6117 0
-6135 6136 6138 0
-6135 6138 6243 0
-6135 6136 6243 0
6135 -6138 -6243 0
6135 -6136 -6138 0
6135 -6136 -6243 0
-6136 6009 6137 0
-6136 -6009 -6137 0
6136 -6009 6137 0
6136 6009 -6137 0
-6137 -6007 -6116 0
-6137 6007 6116 0
6137 6007 -6116 0
6137 -6007 6116 0
-6138 6139 6141 0
-6138 6141 6242 0
-6138 6139 6242 0
6138 -6141 -6242 0
6138 -6139 -6141 0
6138 -6139 -6242 0
-6139 6012 6140 0
-6139 -6012 -6140 0
6139 -6012 6140 0
6139 6012 -6140 0
-6140 -6010 -6115 0
-6140 6010 6115 0
6140 6010 -6115 0
6140 -6010 6115 0
-6141 6142 6144 0
-6141 6144 6241 0
-6141 6142 6241 0
6141 -6144 -6241 0
6141 -6142 -6144 0
6141 -6142 -6241 0
-6142 6015 6143 0
-6142 -6015 -6143 0
6142 -6015 6143 0
6142 6015 -6143 0
-6143 -6013 -6114 0
-6143 6013 6114 0
6143 6013 -6114 0
6143 -6013 6114 0
-6144 6145 6147 0
-6144 6147 6240 0
-6144 6145 6240 0
6144 -6147 -6240 0
6144 -6145 -6147 0
6144 -6145 -6240 0
-6145 6018 6146 0
-6145 -6018 -6146 0
6145 -6018 6146 0
6145 6018 -6146 0
-6146 -6016 -6113 0
-6146 6016 6113 0
6146 6016 -6113 0
6146 -6016 6113 0
-6147 6148 6150 0
-6147 6150 6239 0
-6147 6148 6239 0
6147 -6150 -6239 0
6147 -6148 -6150 0
6147 -6148 -6239 0
-6148 6021 6149 0
-6148 -6021 -6149 0
6148 -6021 6149 0
6148 6021 -6149 0
-6149 -6019 -6112 0
-6149 6019 6112 0
6149 6019 -6112 0
6149 -6019 6112 0
-6150 6151 6153 0
-6150 6153 6238 0
-6150 6151 6238 0
6150 -6153 -6238 0
6150 -6151 -6153 0
6150 -6151 -6238 0
-6151 6024 6152 0
-6151 -6024 -6152 0
6151 -6024 6152 0
6151 6024 -6152 0
-6152 -6022 -6111 0
-6152 6022 6111 0
6152 6022 -6111 0
6152 -6022 6111 0
-6153 6154 6156 0
-6153 6156 6237 0
-6153 6154 6237 0
6153 -6156 -6237 0
6153 -6154 -6156 0
6153 -6154 -6237 0
-6154 6027 6155 0
-6154 -6027 -6155 0
6154 -6027 6155 0
6154 6027 -6155 0
-6155 -6025 -6110 0
-6155 6025 6110 0
6155 6025 -6110 0
6155 -6025 6110 0
-6156 6157 6159 0
-6156 6159 6236 0
-6156 6157 6236 0
6156 -6159 -6236 0
6156 -6157 -6159 0
6156 -6157 -6236 0
-6157 6030 6158 0
-6157 -6030 -6158 0
6157 -6030 6158 0
6157 6030 -6158 0
-6158 -6028 -6109 0
-6158 6028 6109 0
6158 6028 -6109 0
6158 -6028 6109 0
-6159 6160 6162 0
-6159 6162 6235 0
-6159 6160 6235 0
6159 -6162 -6235 0
6159 -6160 -6162 0
6159 -6160 -6235 0
-6160 6033 6161 0
-6160 -6033 -6161 0
6160 -6033 6161 0
6160 6033 -6161 0
-6161 -6031 -6108 0
-6161 6031 6108 0
6161 6031 -6108 0
6161 -6031 6108 0
-6162 6163 6165 0
-6162 6165 6234 0
-6162 6163 6234 0
6162 -6165 -6234 0
6162 -6163 -6165 0
6162 -6163 -6234 0
-6163 6036 6164 0
-6163 -6036 -6164 0
6163 -6036 6164 0
6163 6036 -6164 0
-6164 -6034 -6107 0
-6164 6034 6107 0
6164 6034 -6107 0
6164 -6034 6107 0
-6165 6166 6168 0
-6165 6168 6233 0
-6165 6166 6233 0
6165 -6168 -6233 0
6165 -6166 -6168 0
6165 -6166 -6233 0
-6166 6039 6167 0
-6166 -6039 -6167 0
6166 -6039 6167 0
6166 6039 -6167 0
-6167 -6037 -6106 0
-6167 6037 6106 0
6167 6037 -6106 0
6167 -6037 6106 0
-6168 6169 6171 0
-6168 6171 6232 0
-6168 6169 6232 0
6168 -6171 -6232 0
6168 -6169 -6171 0
6168 -6169 -6232 0
-6169 6042 6170 0
-6169 -6042 -6170 0
6169 -6042 6170 0
6169 6042 -6170 0
-6170 -6040 -6105 0
-6170 6040 6105 0
6170 6040 -6105 0
6170 -6040 6105 0
-6171 6172 6174 0
-6171 6174 6231 0
-6171 6172 6231 0
6171 -6174 -6231 0
6171 -6172 -6174 0
6171 -6172 -6231 0
-6172 6045 6173 0
-6172 -6045 -6173 0
6172 -6045 6173 0
6172 6045 -6173 0
-6173 -6043 -6104 0
-6173 6043 6104 0
6173 6043 -6104 0
6173 -6043 6104 0
-6174 6175 6177 0
-6174 6177 6230 0
-6174 6175 6230 0
6174 -6177 -6230 0
6174 -6175 -6177 0
6174 -6175 -6230 0
-6175 6048 6176 0
-6175 -6048 -6176 0
6175 -6048 6176 0
6175 6048 -6176 0
-6176 -6046 -6103 0
-6176 6046 6103 0
6176 6046 -6103 0
6176 -6046 6103 0
-6177 6178 6180 0
-6177 6180 6229 0
-6177 6178 6229 0
6177 -6180 -6229 0
6177 -6178 -6180 0
6177 -6178 -6229 0
-6178 6051 6179 0
-6178 -6051 -6179 0
6178 -6051 6179 0
6178 6051 -6179 0
-6179 -6049 -6102 0
-6179 6049 6102 0
6179 6049 -6102 0
6179 -6049 6102 0
-6180 6181 6183 0
-6180 6183 6228 0
-6180 6181 6228 0
6180 -6183 -6228 0
6180 -6181 -6183 0
6180 -6181 -6228 0
-6181 6054 6182 0
-6181 -6054 -6182 0
6181 -6054 6182 0
6181 6054 -6182 0
-6182 -6052 -6101 0
-6182 6052 6101 0
6182 6052 -6101 0
6182 -6052 6101 0
-6183 6184 6186 0
-6183 6186 6227 0
-6183 6184 6227 0
6183 -6186 -6227 0
6183 -6184 -6186 0
6183 -6184 -6227 0
-6184 6057 6185 0
-6184 -6057 -6185 0
6184 -6057 6185 0
6184 6057 -6185 0
-6185 -6055 -6100 0
-6185 6055 6100 0
6185 6055 -6100 0
6185 -6055 6100 0
-6186 6187 6189 0
-6186 6189 6226 0
-6186 6187 6226 0
6186 -6189 -6226 0
6186 -6187 -6189 0
6186 -6187 -6226 0
-6187 6060 6188 0
-6187 -6060 -6188 0
6187 -6060 6188 0
6187 6060 -6188 0
-6188 -6058 -6099 0
-6188 6058 6099 0
6188 6058 -6099 0
6188 -6058 6099 0
-6189 6190 6192 0
-6189 6192 6225 0
-6189 6190 6225 0
6189 -6192 -6225 0
6189 -6190 -6192 0
6189 -6190 -6225 0
-6190 6063 6191 0
-6190 -6063 -6191 0
6190 -6063 6191 0
6190 6063 -6191 0
-6191 -6061 -6098 0
-6191 6061 6098 0
6191 6061 -6098 0
6191 -6061 6098 0
-6192 6193 6195 0
-6192 6195 6224 0
-6192 6193 6224 0
6192 -6195 -6224 0
6192 -6193 -6195 0
6192 -6193 -6224 0
-6193 6066 6194 0
-6193 -6066 -6194 0
6193 -6066 6194 0
6193 6066 -6194 0
-6194 -6064 -6097 0
-6194 6064 6097 0
6194 6064 -6097 0
6194 -6064 6097 0
-6195 6196 6198 0
-6195 6198 6223 0
-6195 6196 6223 0
6195 -6198 -6223 0
6195 -6196 -6198 0
6195 -6196 -6223 0
-6196 6069 6197 0
-6196 -6069 -6197 0
6196 -6069 6197 0
6196 6069 -6197 0
-6197 -6067 -6096 0
-6197 6067 6096 0
6197 6067 -6096 0
6197 -6067 6096 0
-6198 6199 6201 0
-6198 6201 6222 0
-6198 6199 6222 0
6198 -6201 -6222 0
6198 -6199 -6201 0
6198 -6199 -6222 0
-6199 6072 6200 0
-6199 -6072 -6200 0
6199 -6072 6200 0
6199 6072 -6200 0
-6200 -6070 -6095 0
-6200 6070 6095 0
6200 6070 -6095 0
6200 -6070 6095 0
-6201 6202 6204 0
-6201 6204 6221 0
-6201 6202 6221 0
6201 -6204 -6221 0
6201 -6202 -6204 0
6201 -6202 -6221 0
-6202 6075 6203 0
-6202 -6075 -6203 0
6202 -6075 6203 0
6202 6075 -6203 0
-6203 -6073 -6094 0
-6203 6073 6094 0
6203 6073 -6094 0
6203 -6073 6094 0
-6204 6205 6207 0
-6204 6207 6220 0
-6204 6205 6220 0
6204 -6207 -6220 0
6204 -6205 -6207 0
6204 -6205 -6220 0
-6205 6078 6206 0
-6205 -6078 -6206 0
6205 -6078 6206 0
6205 6078 -6206 0
-6206 -6076 -6093 0
-6206 6076 6093 0
6206 6076 -6093 0
6206 -6076 6093 0
-6207 6208 6210 0
-6207 6210 6219 0
-6207 6208 6219 0
6207 -6210 -6219 0
6207 -6208 -6210 0
6207 -6208 -6219 0
-6208 6081 6209 0
-6208 -6081 -6209 0
6208 -6081 6209 0
6208 6081 -6209 0
-6209 -6079 -6092 0
-6209 6079 6092 0
6209 6079 -6092 0
6209 -6079 6092 0
-6210 6213 6218 0
-6210 6211 6213 0
-6210 6211 6218 0
6210 -6211 -6213 0
6210 -6213 -6218 0
6210 -6211 -6218 0
-6211 6084 6212 0
-6211 -6084 -6212 0
6211 -6084 6212 0
6211 6084 -6212 0
-6212 -6082 -6091 0
-6212 6082 6091 0
6212 6082 -6091 0
6212 -6082 6091 0
6213 -6214 -6216 0
-6213 6214 0
-6213 6216 0
6214 -9869 -6215 0
-6214 9869 0
-6214 6215 0
-6215 -9905 -9906 0
-6215 9905 9906 0
6215 9905 -9906 0
6215 -9905 9906 0
-6216 6087 6217 0
-6216 -6087 -6217 0
6216 -6087 6217 0
6216 6087 -6217 0
-6217 -6085 -6090 0
-6217 6085 6090 0
6217 6085 -6090 0
6217 -6085 6090 0
6218 9869 -9870 -6215 0
6218 -9870 9906 -6215 0
6218 -9869 9870 -9906 -6215 0
-6218 9870 9906 0
-6218 9869 9870 0
-6218 6215 0
-6218 -9869 -9870 -9906 0
6219 -9871 9906 -6215 0
6219 -9871 69 -6215 0
6219 9871 -9906 -69 -6215 0
-6219 9871 69 0
-6219 -9871 -9906 -69 0
-6219 6215 0
-6219 9871 9906 0
6220 -9872 9906 -6215 0
6220 -9872 68 -6215 0
6220 9872 -9906 -68 -6215 0
-6220 9872 68 0
-6220 -9872 -9906 -68 0
-6220 6215 0
-6220 9872 9906 0
6221 -9873 9906 -6215 0
6221 -9873 67 -6215 0
6221 9873 -9906 -67 -6215 0
-6221 9873 67 0
-6221 -9873 -9906 -67 0
-6221 6215 0
-6221 9873 9906 0
6222 -9874 9906 -6215 0
6222 -9874 66 -6215 0
6222 9874 -9906 -66 -6215 0
-6222 9874 66 0
-6222 -9874 -9906 -66 0
-6222 6215 0
-6222 9874 9906 0
6223 -9875 9906 -6215 0
6223 -9875 65 -6215 0
6223 9875 -9906 -65 -6215 0
-6223 9875 65 0
-6223 -9875 -9906 -65 0
-6223 6215 0
-6223 9875 9906 0
6224 -9876 9906 -6215 0
6224 -9876 64 -6215 0
6224 9876 -9906 -64 -6215 0
-6224 9876 64 0
-6224 -9876 -9906 -64 0
-6224 6215 0
-6224 9876 9906 0
6225 -9877 9906 -6215 0
6225 -9877 63 -6215 0
6225 9877 -9906 -63 -6215 0
-6225 9877 63 0
-6225 -9877 -9906 -63 0
-6225 6215 0
-6225 9877 9906 0
6226 -9878 9906 -6215 0
6226 -9878 62 -6215 0
6226 9878 -9906 -62 -6215 0
-6226 9878 62 0
-6226 -9878 -9906 -62 0
-6226 6215 0
-6226 9878 9906 0
6227 -9879 9906 -6215 0
6227 -9879 61 -6215 0
6227 9879 -9906 -61 -6215 0
-6227 9879 61 0
-6227 -9879 -9906 -61 0
-6227 6215 0
-6227 9879 9906 0
6228 -9880 9906 -6215 0
6228 -9880 60 -6215 0
6228 9880 -9906 -60 -6215 0
-6228 9880 60 0
-6228 -9880 -9906 -60 0
-6228 6215 0
-6228 9880 9906 0
6229 -9881 9906 -6215 0
6229 -9881 59 -6215 0
6229 9881 -9906 -59 -6215 0
-6229 9881 59 0
-6229 -9881 -9906 -59 0
-6229 6215 0
-6229 9881 9906 0
6230 -9882 9906 -6215 0
6230 -9882 58 -6215 0
6230 9882 -9906 -58 -6215 0
-6230 9882 58 0
-6230 -9882 -9906 -58 0
-6230 6215 0
-6230 9882 9906 0
6231 -9883 9906 -6215 0
6231 -9883 57 -6215 0
6231 9883 -9906 -57 -6215 0
-6231 9883 57 0
-6231 -9883 -9906 -57 0
-6231 6215 0
-6231 9883 9906 0
6232 -9884 9906 -6215 0
6232 -9884 56 -6215 0
6232 9884 -9906 -56 -6215 0
-6232 9884 56 0
-6232 -9884 -9906 -56 0
-6232 6215 0
-6232 9884 9906 0
6233 -9885 9906 -6215 0
6233 -9885 55 -6215 0
6233 9885 -9906 -55 -6215 0
-6233 9885 55 0
-6233 -9885 -9906 -55 0
-6233 6215 0
-6233 9885 9906 0
6234 -9886 9906 -6215 0
6234 -9886 54 -6215 0
6234 9886 -9906 -54 -6215 0
-6234 9886 54 0
-6234 -9886 -9906 -54 0
-6234 6215 0
-6234 9886 9906 0
6235 -9887 9906 -6215 0
6235 -9887 53 -6215 0
6235 9887 -9906 -53 -6215 0
-6235 9887 53 0
-6235 -9887 -9906 -53 0
-6235 6215 0
-6235 9887 9906 0
6236 -9888 9906 -6215 0
6236 -9888 52 -6215 0
6236 9888 -9906 -52 -6215 0
-6236 9888 52 0
-6236 -9888 -9906 -52 0
-6236 6215 0
-6236 9888 9906 0
6237 -9889 9906 -6215 0
6237 -9889 51 -6215 0
6237 9889 -9906 -51 -6215 0
-6237 9889 51 0
-6237 -9889 -9906 -51 0
-6237 6215 0
-6237 9889 9906 0
6238 -9890 9906 -6215 0
6238 -9890 50 -6215 0
6238 9890 -9906 -50 -6215 0
-6238 9890 50 0
-6238 -9890 -9906 -50 0
-6238 6215 0
-6238 9890 9906 0
6239 -9891 9906 -6215 0
6239 -9891 49 -6215 0
6239 9891 -9906 -49 -6215 0
-6239 9891 49 0
-6239 -9891 -9906 -49 0
-6239 6215 0
-6239 9891 9906 0
6240 -9892 9906 -6215 0
6240 -9892 48 -6215 0
6240 9892 -9906 -48 -6215 0
-6240 9892 48 0
-6240 -9892 -9906 -48 0
-6240 6215 0
-6240 9892 9906 0
6241 -9893 9906 -6215 0
6241 -9893 47 -6215 0
6241 9893 -9906 -47 -6215 0
-6241 9893 47 0
-6241 -9893 -9906 -47 0
-6241 6215 0
-6241 9893 9906 0
6242 -9894 9906 -6215 0
6242 -9894 46 -6215 0
6242 9894 -9906 -46 -6215 0
-6242 9894 46 0
-6242 -9894 -9906 -46 0
-6242 6215 0
-6242 9894 9906 0
6243 -9895 9906 -6215 0
6243 -9895 45 -6215 0
6243 9895 -9906 -45 -6215 0
-6243 9895 45 0
-6243 -9895 -9906 -45 0
-6243 6215 0
-6243 9895 9906 0
6244 -9896 9906 -6215 0
6244 -9896 44 -6215 0
6244 9896 -9906 -44 -6215 0
-6244 9896 44 0
-6244 -9896 -9906 -44 0
-6244 6215 0
-6244 9896 9906 0
6245 -9897 9906 -6215 0
6245 -9897 43 -6215 0
6245 9897 -9906 -43 -6215 0
-6245 9897 43 0
-6245 -9897 -9906 -43 0
-6245 6215 0
-6245 9897 9906 0
6246 -9898 9906 -6215 0
6246 -9898 42 -6215 0
6246 9898 -9906 -42 -6215 0
-6246 9898 42 0
-6246 -9898 -9906 -42 0
-6246 6215 0
-6246 9898 9906 0
6247 -9899 9906 -6215 0
6247 -9899 41 -6215 0
6247 9899 -9906 -41 -6215 0
-6247 9899 41 0
-6247 -9899 -9906 -41 0
-6247 6215 0
-6247 9899 9906 0
6248 -9900 9906 -6215 0
6248 -9900 40 -6215 0
6248 9900 -9906 -40 -6215 0
-6248 9900 40 0
-6248 -9900 -9906 -40 0
-6248 6215 0
-6248 9900 9906 0
6249 9906 -9907 -39 0
-6249 -9906 0
-6249 9907 0
-6249 39 0
-6250 5635 6251 0
-6250 6251 6374 0
-6250 5635 6374 0
6250 -6251 -6374 0
6250 -5635 -6251 0
6250 -5635 -6374 0
-6251 6252 6254 0
-6251 6254 6373 0
-6251 6252 6373 0
6251 -6254 -6373 0
6251 -6252 -6254 0
6251 -6252 -6373 0
-6252 6123 6253 0
-6252 -6123 -6253 0
6252 -6123 6253 0
6252 6123 -6253 0
-6253 -5637 -6248 0
-6253 5637 6248 0
6253 5637 -6248 0
6253 -5637 6248 0
-6254 6255 6257 0
-6254 6257 6372 0
-6254 6255 6372 0
6254 -6257 -6372 0
6254 -6255 -6257 0
6254 -6255 -6372 0
-6255 6126 6256 0
-6255 -6126 -6256 0
6255 -6126 6256 0
6255 6126 -6256 0
-6256 -6124 -6247 0
-6256 6124 6247 0
6256 6124 -6247 0
6256 -6124 6247 0
-6257 6258 6260 0
-6257 6260 6371 0
-6257 6258 6371 0
6257 -6260 -6371 0
6257 -6258 -6260 0
6257 -6258 -6371 0
-6258 6129 6259 0
-6258 -6129 -6259 0
6258 -6129 6259 0
6258 6129 -6259 0
-6259 -6127 -6246 0
-6259 6127 6246 0
6259 6127 -6246 0
6259 -6127 6246 0
-6260 6261 6263 0
-6260 6263 6370 0
-6260 6261 6370 0
6260 -6263 -6370 0
6260 -6261 -6263 0
6260 -6261 -6370 0
-6261 6132 6262 0
-6261 -6132 -6262 0
6261 -6132 6262 0
6261 6132 -6262 0
-6262 -6130 -6245 0
-6262 6130 6245 0
6262 6130 -6245 0
6262 -6130 6245 0
-6263 6264 6266 0
-6263 6266 6369 0
-6263 6264 6369 0
6263 -6266 -6369 0
6263 -6264 -6266 0
6263 -6264 -6369 0
-6264 6135 6265 0
-6264 -6135 -6265 0
6264 -6135 6265 0
6264 6135 -6265 0
-6265 -6133 -6244 0
-6265 6133 6244 0
6265 6133 -6244 0
6265 -6133 6244 0
-6266 6267 6269 0
-6266 6269 6368 0
-6266 6267 6368 0
6266 -6269 -6368 0
6266 -6267 -6269 0
6266 -6267 -6368 0
-6267 6138 6268 0
-6267 -6138 -6268 0
6267 -6138 6268 0
6267 6138 -6268 0
-6268 -6136 -6243 0
-6268 6136 6243 0
6268 6136 -6243 0
6268 -6136 6243 0
-6269 6270 6272 0
-6269 6272 6367 0
-6269 6270 6367 0
6269 -6272 -6367 0
6269 -6270 -6272 0
6269 -6270 -6367 0
-6270 6141 6271 0
-6270 -6141 -6271 0
6270 -6141 6271 0
6270 6141 -6271 0
-6271 -6139 -6242 0
-6271 6139 6242 0
6271 6139 -6242 0
6271 -6139 6242 0
-6272 6273 6275 0
-6272 6275 6366 0
-6272 6273 6366 0
6272 -6275 -6366 0
6272 -6273 -6275 0
6272 -6273 -6366 0
-6273 6144 6274 0
-6273 -6144 -6274 0
6273 -6144 6274 0
6273 6144 -6274 0
-6274 -6142 -6241 0
-6274 6142 6241 0
6274 6142 -6241 0
6274 -6142 6241 0
-6275 6276 6278 0
-6275 6278 6365 0
-6275 6276 6365 0
6275 -6278 -6365 0
6275 -6276 -6278 0
6275 -6276 -6365 0
-6276 6147 6277 0
-6276 -6147 -6277 0
6276 -6147 6277 0
6276 6147 -6277 0
-6277 -6145 -6240 0
-6277 6145 6240 0
6277 6145 -6240 0
6277 -6145 6240 0
-6278 6279 6281 0
-6278 6281 6364 0
-6278 6279 6364 0
6278 -6281 -6364 0
6278 -6279 -6281 0
6278 -6279 -6364 0
-6279 6150 6280 0
-6279 -6150 -6280 0
6279 -6150 6280 0
6279 6150 -6280 0
-6280 -6148 -6239 0
-6280 6148 6239 0
6280 6148 -6239 0
6280 -6148 6239 0
-6281 6282 6284 0
-6281 6284 6363 0
-6281 6282 6363 0
6281 -6284 -6363 0
6281 -6282 -6284 0
6281 -6282 -6363 0
-6282 6153 6283 0
-6282 -6153 -6283 0
6282 -6153 6283 0
6282 6153 -6283 0
-6283 -6151 -6238 0
-6283 6151 6238 0
6283 6151 -6238 0
6283 -6151 6238 0
-6284 6285 6287 0
-6284 6287 6362 0
-6284 6285 6362 0
6284 -6287 -6362 0
6284 -6285 -6287 0
6284 -6285 -6362 0
-6285 6156 6286 0
-6285 -6156 -6286 0
6285 -6156 6286 0
6285 6156 -6286 0
-6286 -6154 -6237 0
-6286 6154 6237 0
6286 6154 -6237 0
6286 -6154 6237 0
-6287 6288 6290 0
-6287 6290 6361 0
-6287 6288 6361 0
6287 -6290 -6361 0
6287 -6288 -6290 0
6287 -6288 -6361 0
-6288 6159 6289 0
-6288 -6159 -6289 0
6288 -6159 6289 0
6288 6159 -6289 0
-6289 -6157 -6236 0
-6289 6157 6236 0
6289 6157 -6236 0
6289 -6157 6236 0
-6290 6291 6293 0
-6290 6293 6360 0
-6290 6291 6360 0
6290 -6293 -6360 0
6290 -6291 -6293 0
6290 -6291 -6360 0
-6291 6162 6292 0
-6291 -6162 -6292 0
6291 -6162 6292 0
6291 6162 -6292 0
-6292 -6160 -6235 0
-6292 6160 6235 0
6292 6160 -6235 0
6292 -6160 6235 0
-6293 6294 6296 0
-6293 6296 6359 0
-6293 6294 6359 0
6293 -6296 -6359 0
6293 -6294 -6296 0
6293 -6294 -6359 0
-6294 6165 6295 0
-6294 -6165 -6295 0
6294 -6165 6295 0
6294 6165 -6295 0
-6295 -6163 -6234 0
-6295 6163 6234 0
6295 6163 -6234 0
6295 -6163 6234 0
-6296 6297 6299 0
-6296 6299 6358 0
-6296 6297 6358 0
6296 -6299 -6358 0
6296 -6297 -6299 0
6296 -6297 -6358 0
-6297 6168 6298 0
-6297 -6168 -6298 0
6297 -6168 6298 0
6297 6168 -6298 0
-6298 -6166 -6233 0
-6298 6166 6233 0
6298 6166 -6233 0
6298 -6166 6233 0
-6299 6300 6302 0
-6299 6302 6357 0
-6299 6300 6357 0
6299 -6302 -6357 0
6299 -6300 -6302 0
6299 -6300 -6357 0
-6300 6171 6301 0
-6300 -6171 -6301 0
6300 -6171 6301 0
6300 6171 -6301 0
-6301 -6169 -6232 0
-6301 6169 6232 0
6301 6169 -6232 0
6301 -6169 6232 0
-6302 6303 6305 0
-6302 6305 6356 0
-6302 6303 6356 0
6302 -6305 -6356 0
6302 -6303 -6305 0
6302 -6303 -6356 0
-6303 6174 6304 0
-6303 -6174 -6304 0
6303 -6174 6304 0
6303 6174 -6304 0
-6304 -6172 -6231 0
-6304 6172 6231 0
6304 6172 -6231 0
6304 -6172 6231 0
-6305 6306 6308 0
-6305 6308 6355 0
-6305 6306 6355 0
6305 -6308 -6355 0
6305 -6306 -6308 0
6305 -6306 -6355 0
-6306 6177 6307 0
-6306 -6177 -6307 0
6306 -6177 6307 0
6306 6177 -6307 0
-6307 -6175 -6230 0
-6307 6175 6230 0
6307 6175 -6230 0
6307 -6175 6230 0
-6308 6309 6311 0
-6308 6311 6354 0
-6308 6309 6354 0
6308 -6311 -6354 0
6308 -6309 -6311 0
6308 -6309 -6354 0
-6309 6180 6310 0
-6309 -6180 -6310 0
6309 -6180 6310 0
6309 6180 -6310 0
-6310 -6178 -6229 0
-6310 6178 6229 0
6310 6178 -6229 0
6310 -6178 6229 0
-6311 6312 6314 0
-6311 6314 6353 0
-6311 6312 6353 0
6311 -6314 -6353 0
6311 -6312 -6314 0
6311 -6312 -6353 0
-6312 6183 6313 0
-6312 -6183 -6313 0
6312 -6183 6313 0
6312 6183 -6313 0
-6313 -6181 -6228 0
-6313 6181 6228 0
6313 6181 -6228 0
6313 -6181 6228 0
-6314 6315 6317 0
-6314 6317 6352 0
-6314 6315 6352 0
6314 -6317 -6352 0
6314 -6315 -6317 0
6314 -6315 -6352 0
-6315 6186 6316 0
-6315 -6186 -6316 0
6315 -6186 6316 0
6315 6186 -6316 0
-6316 -6184 -6227 0
-6316 6184 6227 0
6316 6184 -6227 0
6316 -6184 6227 0
-6317 6318 6320 0
-6317 6320 6351 0
-6317 6318 6351 0
6317 -6320 -6351 0
6317 -6318 -6320 0
6317 -6318 -6351 0
-6318 6189 6319 0
-6318 -6189 -6319 0
6318 -6189 6319 0
6318 6189 -6319 0
-6319 -6187 -6226 0
-6319 6187 6226 0
6319 6187 -6226 0
6319 -6187 6226 0
-6320 6321 6323 0
-6320 6323 6350 0
-6320 6321 6350 0
6320 -6323 -6350 0
6320 -6321 -6323 0
6320 -6321 -6350 0
-6321 6192 6322 0
-6321 -6192 -6322 0
6321 -6192 6322 0
6321 6192 -6322 0
-6322 -6190 -6225 0
-6322 6190 6225 0
6322 6190 -6225 0
6322 -6190 6225 0
-6323 6324 6326 0
-6323 6326 6349 0
-6323 6324 6349 0
6323 -6326 -6349 0
6323 -6324 -6326 0
6323 -6324 -6349 0
-6324 6195 6325 0
-6324 -6195 -6325 0
6324 -6195 6325 0
6324 6195 -6325 0
-6325 -6193 -6224 0
-6325 6193 6224 0
6325 6193 -6224 0
6325 -6193 6224 0
-6326 6327 6329 0
-6326 6329 6348 0
-6326 6327 6348 0
6326 -6329 -6348 0
6326 -6327 -6329 0
6326 -6327 -6348 0
-6327 6198 6328 0
-6327 -6198 -6328 0
6327 -6198 6328 0
6327 6198 -6328 0
-6328 -6196 -6223 0
-6328 6196 6223 0
6328 6196 -6223 0
6328 -6196 6223 0
-6329 6330 6332 0
-6329 6332 6347 0
-6329 6330 6347 0
6329 -6332 -6347 0
6329 -6330 -6332 0
6329 -6330 -6347 0
-6330 6201 6331 0
-6330 -6201 -6331 0
6330 -6201 6331 0
6330 6201 -6331 0
-6331 -6199 -6222 0
-6331 6199 6222 0
6331 6199 -6222 0
6331 -6199 6222 0
-6332 6333 6335 0
-6332 6335 6346 0
-6332 6333 6346 0
6332 -6335 -6346 0
6332 -6333 -6335 0
6332 -6333 -6346 0
-6333 6204 6334 0
-6333 -6204 -6334 0
6333 -6204 6334 0
6333 6204 -6334 0
-6334 -6202 -6221 0
-6334 6202 6221 0
6334 6202 -6221 0
6334 -6202 6221 0
-6335 6336 6338 0
-6335 6338 6345 0
-6335 6336 6345 0
6335 -6338 -6345 0
6335 -6336 -6338 0
6335 -6336 -6345 0
-6336 6207 6337 0
-6336 -6207 -6337 0
6336 -6207 6337 0
6336 6207 -6337 0
-6337 -6205 -6220 0
-6337 6205 6220 0
6337 6205 -6220 0
6337 -6205 6220 0
-6338 6341 6344 0
-6338 6339 6341 0
-6338 6339 6344 0
6338 -6339 -6341 0
6338 -6341 -6344 0
6338 -6339 -6344 0
-6339 6210 6340 0
-6339 -6210 -6340 0
6339 -6210 6340 0
6339 6210 -6340 0
-6340 -6208 -6219 0
-6340 6208 6219 0
6340 6208 -6219 0
6340 -6208 6219 0
6341 -939 -6342 0
-6341 939 0
-6341 6342 0
-6342 6213 6343 0
-6342 -6213 -6343 0
6342 -6213 6343 0
6342 6213 -6343 0
-6343 -6211 -6218 0
-6343 6211 6218 0
6343 6211 -6218 0
6343 -6211 6218 0
6344 9869 -9870 -940 0
6344 -9870 9907 -940 0
6344 -9869 9870 -9907 -940 0
-6344 9870 9907 0
-6344 9869 9870 0
-6344 940 0
-6344 -9869 -9870 -9907 0
6345 -9871 9907 -940 0
6345 -9871 69 -940 0
6345 9871 -9907 -69 -940 0
-6345 9871 69 0
-6345 -9871 -9907 -69 0
-6345 940 0
-6345 9871 9907 0
6346 -9872 9907 -940 0
6346 -9872 68 -940 0
6346 9872 -9907 -68 -940 0
-6346 9872 68 0
-6346 -9872 -9907 -68 0
-6346 940 0
-6346 9872 9907 0
6347 -9873 9907 -940 0
6347 -9873 67 -940 0
6347 9873 -9907 -67 -940 0
-6347 9873 67 0
-6347 -9873 -9907 -67 0
-6347 940 0
-6347 9873 9907 0
6348 -9874 9907 -940 0
6348 -9874 66 -940 0
6348 9874 -9907 -66 -940 0
-6348 9874 66 0
-6348 -9874 -9907 -66 0
-6348 940 0
-6348 9874 9907 0
6349 -9875 9907 -940 0
6349 -9875 65 -940 0
6349 9875 -9907 -65 -940 0
-6349 9875 65 0
-6349 -9875 -9907 -65 0
-6349 940 0
-6349 9875 9907 0
6350 -9876 9907 -940 0
6350 -9876 64 -940 0
6350 9876 -9907 -64 -940 0
-6350 9876 64 0
-6350 -9876 -9907 -64 0
-6350 940 0
-6350 9876 9907 0
6351 -9877 9907 -940 0
6351 -9877 63 -940 0
6351 9877 -9907 -63 -940 0
-6351 9877 63 0
-6351 -9877 -9907 -63 0
-6351 940 0
-6351 9877 9907 0
6352 -9878 9907 -940 0
6352 -9878 62 -940 0
6352 9878 -9907 -62 -940 0
-6352 9878 62 0
-6352 -9878 -9907 -62 0
-6352 940 0
-6352 9878 9907 0
6353 -9879 9907 -940 0
6353 -9879 61 -940 0
6353 9879 -9907 -61 -940 0
-6353 9879 61 0
-6353 -9879 -9907 -61 0
-6353 940 0
-6353 9879 9907 0
6354 -9880 9907 -940 0
6354 -9880 60 -940 0
6354 9880 -9907 -60 -940 0
-6354 9880 60 0
-6354 -9880 -9907 -60 0
-6354 940 0
-6354 9880 9907 0
6355 -9881 9907 -940 0
6355 -9881 59 -940 0
6355 9881 -9907 -59 -940 0
-6355 9881 59 0
-6355 -9881 -9907 -59 0
-6355 940 0
-6355 9881 9907 0
6356 -9882 9907 -940 0
6356 -9882 58 -940 0
6356 9882 -9907 -58 -940 0
-6356 9882 58 0
-6356 -9882 -9907 -58 0
-6356 940 0
-6356 9882 9907 0
6357 -9883 9907 -940 0
6357 -9883 57 -940 0
6357 9883 -9907 -57 -940 0
-6357 9883 57 0
-6357 -9883 -9907 -57 0
-6357 940 0
-6357 9883 9907 0
6358 -9884 9907 -940 0
6358 -9884 56 -940 0
6358 9884 -9907 -56 -940 0
-6358 9884 56 0
-6358 -9884 -9907 -56 0
-6358 940 0
-6358 9884 9907 0
6359 -9885 9907 -940 0
6359 -9885 55 -940 0
6359 9885 -9907 -55 -940 0
-6359 9885 55 0
-6359 -9885 -9907 -55 0
-6359 940 0
-6359 9885 9907 0
6360 -9886 9907 -940 0
6360 -9886 54 -940 0
6360 9886 -9907 -54 -940 0
-6360 9886 54 0
-6360 -9886 -9907 -54 0
-6360 940 0
-6360 9886 9907 0
6361 -9887 9907 -940 0
6361 -9887 53 -940 0
6361 9887 -9907 -53 -940 0
-6361 9887 53 0
-6361 -9887 -9907 -53 0
-6361 940 0
-6361 9887 9907 0
6362 -9888 9907 -940 0
6362 -9888 52 -940 0
6362 9888 -9907 -52 -940 0
-6362 9888 52 0
-6362 -9888 -9907 -52 0
-6362 940 0
-6362 9888 9907 0
6363 -9889 9907 -940 0
6363 -9889 51 -940 0
6363 9889 -9907 -51 -940 0
-6363 9889 51 0
-6363 -9889 -9907 -51 0
-6363 940 0
-6363 9889 9907 0
6364 -9890 9907 -940 0
6364 -9890 50 -940 0
6364 9890 -9907 -50 -940 0
-6364 9890 50 0
-6364 -9890 -9907 -50 0
-6364 940 0
-6364 9890 9907 0
6365 -9891 9907 -940 0
6365 -9891 49 -940 0
6365 9891 -9907 -49 -940 0
-6365 9891 49 0
-6365 -9891 -9907 -49 0
-6365 940 0
-6365 9891 9907 0
6366 -9892 9907 -940 0
6366 -9892 48 -940 0
6366 9892 -9907 -48 -940 0
-6366 9892 48 0
-6366 -9892 -9907 -48 0
-6366 940 0
-6366 9892 9907 0
6367 -9893 9907 -940 0
6367 -9893 47 -940 0
6367 9893 -9907 -47 -940 0
-6367 9893 47 0
-6367 -9893 -9907 -47 0
-6367 940 0
-6367 9893 9907 0
6368 -9894 9907 -940 0
6368 -9894 46 -940 0
6368 9894 -9907 -46 -940 0
-6368 9894 46 0
-6368 -9894 -9907 -46 0
-6368 940 0
-6368 9894 9907 0
6369 -9895 9907 -940 0
6369 -9895 45 -940 0
6369 9895 -9907 -45 -940 0
-6369 9895 45 0
-6369 -9895 -9907 -45 0
-6369 940 0
-6369 9895 9907 0
6370 -9896 9907 -940 0
6370 -9896 44 -940 0
6370 9896 -9907 -44 -940 0
-6370 9896 44 0
-6370 -9896 -9907 -44 0
-6370 940 0
-6370 9896 9907 0
6371 -9897 9907 -940 0
6371 -9897 43 -940 0
6371 9897 -9907 -43 -940 0
-6371 9897 43 0
-6371 -9897 -9907 -43 0
-6371 940 0
-6371 9897 9907 0
6372 -9898 9907 -940 0
6372 -9898 42 -940 0
6372 9898 -9907 -42 -940 0
-6372 9898 42 0
-6372 -9898 -9907 -42 0
-6372 940 0
-6372 9898 9907 0
6373 -9899 9907 -940 0
6373 -9899 41 -940 0
6373 9899 -9907 -41 -940 0
-6373 9899 41 0
-6373 -9899 -9907 -41 0
-6373 940 0
-6373 9899 9907 0
6374 -9900 9907 -940 0
6374 -9900 40 -940 0
6374 9900 -9907 -40 -940 0
-6374 9900 40 0
-6374 -9900 -9907 -40 0
-6374 940 0
-6374 9900 9907 0
6375 9907 -9908 -39 0
-6375 -9907 0
-6375 9908 0
-6375 39 0
-6376 5633 6377 0
-6376 6377 6502 0
-6376 5633 6502 0
6376 -6377 -6502 0
6376 -5633 -6377 0
6376 -5633 -6502 0
-6377 6378 6380 0
-6377 6380 6501 0
-6377 6378 6501 0
6377 -6380 -6501 0
6377 -6378 -6380 0
6377 -6378 -6501 0
-6378 6251 6379 0
-6378 -6251 -6379 0
6378 -6251 6379 0
6378 6251 -6379 0
-6379 -5635 -6374 0
-6379 5635 6374 0
6379 5635 -6374 0
6379 -5635 6374 0
-6380 6381 6383 0
-6380 6383 6500 0
-6380 6381 6500 0
6380 -6383 -6500 0
6380 -6381 -6383 0
6380 -6381 -6500 0
-6381 6254 6382 0
-6381 -6254 -6382 0
6381 -6254 6382 0
6381 6254 -6382 0
-6382 -6252 -6373 0
-6382 6252 6373 0
6382 6252 -6373 0
6382 -6252 6373 0
-6383 6384 6386 0
-6383 6386 6499 0
-6383 6384 6499 0
6383 -6386 -6499 0
6383 -6384 -6386 0
6383 -6384 -6499 0
-6384 6257 6385 0
-6384 -6257 -6385 0
6384 -6257 6385 0
6384 6257 -6385 0
-6385 -6255 -6372 0
-6385 6255 6372 0
6385 6255 -6372 0
6385 -6255 6372 0
-6386 6387 6389 0
-6386 6389 6498 0
-6386 6387 6498 0
6386 -6389 -6498 0
6386 -6387 -6389 0
6386 -6387 -6498 0
-6387 6260 6388 0
-6387 -6260 -6388 0
6387 -6260 6388 0
6387 6260 -6388 0
-6388 -6258 -6371 0
-6388 6258 6371 0
6388 6258 -6371 0
6388 -6258 6371 0
-6389 6390 6392 0
-6389 6392 6497 0
-6389 6390 6497 0
6389 -6392 -6497 0
6389 -6390 -6392 0
6389 -6390 -6497 0
-6390 6263 6391 0
-6390 -6263 -6391 0
6390 -6263 6391 0
6390 6263 -6391 0
-6391 -6261 -6370 0
-6391 6261 6370 0
6391 6261 -6370 0
6391 -6261 6370 0
-6392 6393 6395 0
-6392 6395 6496 0
-6392 6393 6496 0
6392 -6395 -6496 0
6392 -6393 -6395 0
6392 -6393 -6496 0
-6393 6266 6394 0
-6393 -6266 -6394 0
6393 -6266 6394 0
6393 6266 -6394 0
-6394 -6264 -6369 0
-6394 6264 6369 0
6394 6264 -6369 0
6394 -6264 6369 0
-6395 6396 6398 0
-6395 6398 6495 0
-6395 6396 6495 0
6395 -6398 -6495 0
6395 -6396 -6398 0
6395 -6396 -6495 0
-6396 6269 6397 0
-6396 -6269 -6397 0
6396 -6269 6397 0
6396 6269 -6397 0
-6397 -6267 -6368 0
-6397 6267 6368 0
6397 6267 -6368 0
6397 -6267 6368 0
-6398 6399 6401 0
-6398 6401 6494 0
-6398 6399 6494 0
6398 -6401 -6494 0
6398 -6399 -6401 0
6398 -6399 -6494 0
-6399 6272 6400 0
-6399 -6272 -6400 0
6399 -6272 6400 0
6399 6272 -6400 0
-6400 -6270 -6367 0
-6400 6270 6367 0
6400 6270 -6367 0
6400 -6270 6367 0
-6401 6402 6404 0
-6401 6404 6493 0
-6401 6402 6493 0
6401 -6404 -6493 0
6401 -6402 -6404 0
6401 -6402 -6493 0
-6402 6275 6403 0
-6402 -6275 -6403 0
6402 -6275 6403 0
6402 6275 -6403 0
-6403 -6273 -6366 0
-6403 6273 6366 0
6403 6273 -6366 0
6403 -6273 6366 0
-6404 6405 6407 0
-6404 6407 6492 0
-6404 6405 6492 0
6404 -6407 -6492 0
6404 -6405 -6407 0
6404 -6405 -6492 0
-6405 6278 6406 0
-6405 -6278 -6406 0
6405 -6278 6406 0
6405 6278 -6406 0
-6406 -6276 -6365 0
-6406 6276 6365 0
6406 6276 -6365 0
6406 -6276 6365 0
-6407 6408 6410 0
-6407 6410 6491 0
-6407 6408 6491 0
6407 -6410 -6491 0
6407 -6408 -6410 0
6407 -6408 -6491 0
-6408 6281 6409 0
-6408 -6281 -6409 0
6408 -6281 6409 0
6408 6281 -6409 0
-6409 -6279 -6364 0
-6409 6279 6364 0
6409 6279 -6364 0
6409 -6279 6364 0
-6410 6411 6413 0
-6410 6413 6490 0
-6410 6411 6490 0
6410 -6413 -6490 0
6410 -6411 -6413 0
6410 -6411 -6490 0
-6411 6284 6412 0
-6411 -6284 -6412 0
6411 -6284 6412 0
6411 6284 -6412 0
-6412 -6282 -6363 0
-6412 6282 6363 0
6412 6282 -6363 0
6412 -6282 6363 0
-6413 6414 6416 0
-6413 6416 6489 0
-6413 6414 6489 0
6413 -6416 -6489 0
6413 -6414 -6416 0
6413 -6414 -6489 0
-6414 6287 6415 0
-6414 -6287 -6415 0
6414 -6287 6415 0
6414 6287 -6415 0
-6415 -6285 -6362 0
-6415 6285 6362 0
6415 6285 -6362 0
6415 -6285 6362 0
-6416 6417 6419 0
-6416 6419 6488 0
-6416 6417 6488 0
6416 -6419 -6488 0
6416 -6417 -6419 0
6416 -6417 -6488 0
-6417 6290 6418 0
-6417 -6290 -6418 0
6417 -6290 6418 0
6417 6290 -6418 0
-6418 -6288 -6361 0
-6418 6288 6361 0
6418 6288 -6361 0
6418 -6288 6361 0
-6419 6420 6422 0
-6419 6422 6487 0
-6419 6420 6487 0
6419 -6422 -6487 0
6419 -6420 -6422 0
6419 -6420 -6487 0
-6420 6293 6421 0
-6420 -6293 -6421 0
6420 -6293 6421 0
6420 6293 -6421 0
-6421 -6291 -6360 0
-6421 6291 6360 0
6421 6291 -6360 0
6421 -6291 6360 0
-6422 6423 6425 0
-6422 6425 6486 0
-6422 6423 6486 0
6422 -6425 -6486 0
6422 -6423 -6425 0
6422 -6423 -6486 0
-6423 6296 6424 0
-6423 -6296 -6424 0
6423 -6296 6424 0
6423 6296 -6424 0
-6424 -6294 -6359 0
-6424 6294 6359 0
6424 6294 -6359 0
6424 -6294 6359 0
-6425 6426 6428 0
-6425 6428 6485 0
-6425 6426 6485 0
6425 -6428 -6485 0
6425 -6426 -6428 0
6425 -6426 -6485 0
-6426 6299 6427 0
-6426 -6299 -6427 0
6426 -6299 6427 0
6426 6299 -6427 0
-6427 -6297 -6358 0
-6427 6297 6358 0
6427 6297 -6358 0
6427 -6297 6358 0
-6428 6429 6431 0
-6428 6431 6484 0
-6428 6429 6484 0
6428 -6431 -6484 0
6428 -6429 -6431 0
6428 -6429 -6484 0
-6429 6302 6430 0
-6429 -6302 -6430 0
6429 -6302 6430 0
6429 6302 -6430 0
-6430 -6300 -6357 0
-6430 6300 6357 0
6430 6300 -6357 0
6430 -6300 6357 0
-6431 6432 6434 0
-6431 6434 6483 0
-6431 6432 6483 0
6431 -6434 -6483 0
6431 -6432 -6434 0
6431 -6432 -6483 0
-6432 6305 6433 0
-6432 -6305 -6433 0
6432 -6305 6433 0
6432 6305 -6433 0
-6433 -6303 -6356 0
-6433 6303 6356 0
6433 6303 -6356 0
6433 -6303 6356 0
-6434 6435 6437 0
-6434 6437 6482 0
-6434 6435 6482 0
6434 -6437 -6482 0
6434 -6435 -6437 0
6434 -6435 -6482 0
-6435 6308 6436 0
-6435 -6308 -6436 0
6435 -6308 6436 0
6435 6308 -6436 0
-6436 -6306 -6355 0
-6436 6306 6355 0
6436 6306 -6355 0
6436 -6306 6355 0
-6437 6438 6440 0
-6437 6440 6481 0
-6437 6438 6481 0
6437 -6440 -6481 0
6437 -6438 -6440 0
6437 -6438 -6481 0
-6438 6311 6439 0
-6438 -6311 -6439 0
6438 -6311 6439 0
6438 6311 -6439 0
-6439 -6309 -6354 0
-6439 6309 6354 0
6439 6309 -6354 0
6439 -6309 6354 0
-6440 6441 6443 0
-6440 6443 6480 0
-6440 6441 6480 0
6440 -6443 -6480 0
6440 -6441 -6443 0
6440 -6441 -6480 0
-6441 6314 6442 0
-6441 -6314 -6442 0
6441 -6314 6442 0
6441 6314 -6442 0
-6442 -6312 -6353 0
-6442 6312 6353 0
6442 6312 -6353 0
6442 -6312 6353 0
-6443 6444 6446 0
-6443 6446 6479 0
-6443 6444 6479 0
6443 -6446 -6479 0
6443 -6444 -6446 0
6443 -6444 -6479 0
-6444 6317 6445 0
-6444 -6317 -6445 0
6444 -6317 6445 0
6444 6317 -6445 0
-6445 -6315 -6352 0
-6445 6315 6352 0
6445 6315 -6352 0
6445 -6315 6352 0
-6446 6447 6449 0
-6446 6449 6478 0
-6446 6447 6478 0
6446 -6449 -6478 0
6446 -6447 -6449 0
6446 -6447 -6478 0
-6447 6320 6448 0
-6447 -6320 -6448 0
6447 -6320 6448 0
6447 6320 -6448 0
-6448 -6318 -6351 0
-6448 6318 6351 0
6448 6318 -6351 0
6448 -6318 6351 0
-6449 6450 6452 0
-6449 6452 6477 0
-6449 6450 6477 0
6449 -6452 -6477 0
6449 -6450 -6452 0
6449 -6450 -6477 0
-6450 6323 6451 0
-6450 -6323 -6451 0
6450 -6323 6451 0
6450 6323 -6451 0
-6451 -6321 -6350 0
-6451 6321 6350 0
6451 6321 -6350 0
6451 -6321 6350 0
-6452 6453 6455 0
-6452 6455 6476 0
-6452 6453 6476 0
6452 -6455 -6476 0
6452 -6453 -6455 0
6452 -6453 -6476 0
-6453 6326 6454 0
-6453 -6326 -6454 0
6453 -6326 6454 0
6453 6326 -6454 0
-6454 -6324 -6349 0
-6454 6324 6349 0
6454 6324 -6349 0
6454 -6324 6349 0
-6455 6456 6458 0
-6455 6458 6475 0
-6455 6456 6475 0
6455 -6458 -6475 0
6455 -6456 -6458 0
6455 -6456 -6475 0
-6456 6329 6457 0
-6456 -6329 -6457 0
6456 -6329 6457 0
6456 6329 -6457 0
-6457 -6327 -6348 0
-6457 6327 6348 0
6457 6327 -6348 0
6457 -6327 6348 0
-6458 6459 6461 0
-6458 6461 6474 0
-6458 6459 6474 0
6458 -6461 -6474 0
6458 -6459 -6461 0
6458 -6459 -6474 0
-6459 6332 6460 0
-6459 -6332 -6460 0
6459 -6332 6460 0
6459 6332 -6460 0
-6460 -6330 -6347 0
-6460 6330 6347 0
6460 6330 -6347 0
6460 -6330 6347 0
-6461 6462 6464 0
-6461 6464 6473 0
-6461 6462 6473 0
6461 -6464 -6473 0
6461 -6462 -6464 0
6461 -6462 -6473 0
-6462 6335 6463 0
-6462 -6335 -6463 0
6462 -6335 6463 0
6462 6335 -6463 0
-6463 -6333 -6346 0
-6463 6333 6346 0
6463 6333 -6346 0
6463 -6333 6346 0
-6464 6467 6472 0
-6464 6465 6467 0
-6464 6465 6472 0
6464 -6465 -6467 0
6464 -6467 -6472 0
6464 -6465 -6472 0
-6465 6338 6466 0
-6465 -6338 -6466 0
6465 -6338 6466 0
6465 6338 -6466 0
-6466 -6336 -6345 0
-6466 6336 6345 0
6466 6336 -6345 0
6466 -6336 6345 0
6467 -6468 -6470 0
-6467 6468 0
-6467 6470 0
6468 -9869 -6469 0
-6468 9869 0
-6468 6469 0
-6469 -9907 -9908 0
-6469 9907 9908 0
6469 9907 -9908 0
6469 -9907 9908 0
-6470 6341 6471 0
-6470 -6341 -6471 0
6470 -6341 6471 0
6470 6341 -6471 0
-6471 -6339 -6344 0
-6471 6339 6344 0
6471 6339 -6344 0
6471 -6339 6344 0
6472 9869 -9870 -6469 0
6472 -9870 9908 -6469 0
6472 -9869 9870 -9908 -6469 0
-6472 9870 9908 0
-6472 9869 9870 0
-6472 6469 0
-6472 -9869 -9870 -9908 0
6473 -9871 9908 -6469 0
6473 -9871 69 -6469 0
6473 9871 -9908 -69 -6469 0
-6473 9871 69 0
-6473 -9871 -9908 -69 0
-6473 6469 0
-6473 9871 9908 0
6474 -9872 9908 -6469 0
6474 -9872 68 -6469 0
6474 9872 -9908 -68 -6469 0
-6474 9872 68 0
-6474 -9872 -9908 -68 0
-6474 6469 0
-6474 9872 9908 0
6475 -9873 9908 -6469 0
6475 -9873 67 -6469 0
6475 9873 -9908 -67 -6469 0
-6475 9873 67 0
-6475 -9873 -9908 -67 0
-6475 6469 0
-6475 9873 9908 0
6476 -9874 9908 -6469 0
6476 -9874 66 -6469 0
6476 9874 -9908 -66 -6469 0
-6476 9874 66 0
-6476 -9874 -9908 -66 0
-6476 6469 0
-6476 9874 9908 0
6477 -9875 9908 -6469 0
6477 -9875 65 -6469 0
6477 9875 -9908 -65 -6469 0
-6477 9875 65 0
-6477 -9875 -9908 -65 0
-6477 6469 0
-6477 9875 9908 0
6478 -9876 9908 -6469 0
6478 -9876 64 -6469 0
6478 9876 -9908 -64 -6469 0
-6478 9876 64 0
-6478 -9876 -9908 -64 0
-6478 6469 0
-6478 9876 9908 0
6479 -9877 9908 -6469 0
6479 -9877 63 -6469 0
6479 9877 -9908 -63 -6469 0
-6479 9877 63 0
-6479 -9877 -9908 -63 0
-6479 6469 0
-6479 9877 9908 0
6480 -9878 9908 -6469 0
6480 -9878 62 -6469 0
6480 9878 -9908 -62 -6469 0
-6480 9878 62 0
-6480 -9878 -9908 -62 0
-6480 6469 0
-6480 9878 9908 0
6481 -9879 9908 -6469 0
6481 -9879 61 -6469 0
6481 9879 -9908 -61 -6469 0
-6481 9879 61 0
-6481 -9879 -9908 -61 0
-6481 6469 0
-6481 9879 9908 0
6482 -9880 9908 -6469 0
6482 -9880 60 -6469 0
6482 9880 -9908 -60 -6469 0
-6482 9880 60 0
-6482 -9880 -9908 -60 0
-6482 6469 0
-6482 9880 9908 0
6483 -9881 9908 -6469 0
6483 -9881 59 -6469 0
6483 9881 -9908 -59 -6469 0
-6483 9881 59 0
-6483 -9881 -9908 -59 0
-6483 6469 0
-6483 9881 9908 0
6484 -9882 9908 -6469 0
6484 -9882 58 -6469 0
6484 9882 -9908 -58 -6469 0
-6484 9882 58 0
-6484 -9882 -9908 -58 0
-6484 6469 0
-6484 9882 9908 0
6485 -9883 9908 -6469 0
6485 -9883 57 -6469 0
6485 9883 -9908 -57 -6469 0
-6485 9883 57 0
-6485 -9883 -9908 -57 0
-6485 6469 0
-6485 9883 9908 0
6486 -9884 9908 -6469 0
6486 -9884 56 -6469 0
6486 9884 -9908 -56 -6469 0
-6486 9884 56 0
-6486 -9884 -9908 -56 0
-6486 6469 0
-6486 9884 9908 0
6487 -9885 9908 -6469 0
6487 -9885 55 -6469 0
6487 9885 -9908 -55 -6469 0
-6487 9885 55 0
-6487 -9885 -9908 -55 0
-6487 6469 0
-6487 9885 9908 0
6488 -9886 9908 -6469 0
6488 -9886 54 -6469 0
6488 9886 -9908 -54 -6469 0
-6488 9886 54 0
-6488 -9886 -9908 -54 0
-6488 6469 0
-6488 9886 9908 0
6489 -9887 9908 -6469 0
6489 -9887 53 -6469 0
6489 9887 -9908 -53 -6469 0
-6489 9887 53 0
-6489 -9887 -9908 -53 0
-6489 6469 0
-6489 9887 9908 0
6490 -9888 9908 -6469 0
6490 -9888 52 -6469 0
6490 9888 -9908 -52 -6469 0
-6490 9888 52 0
-6490 -9888 -9908 -52 0
-6490 6469 0
-6490 9888 9908 0
6491 -9889 9908 -6469 0
6491 -9889 51 -6469 0
6491 9889 -9908 -51 -6469 0
-6491 9889 51 0
-6491 -9889 -9908 -51 0
-6491 6469 0
-6491 9889 9908 0
6492 -9890 9908 -6469 0
6492 -9890 50 -6469 0
6492 9890 -9908 -50 -6469 0
-6492 9890 50 0
-6492 -9890 -9908 -50 0
-6492 6469 0
-6492 9890 9908 0
6493 -9891 9908 -6469 0
6493 -9891 49 -6469 0
6493 9891 -9908 -49 -6469 0
-6493 9891 49 0
-6493 -9891 -9908 -49 0
-6493 6469 0
-6493 9891 9908 0
6494 -9892 9908 -6469 0
6494 -9892 48 -6469 0
6494 9892 -9908 -48 -6469 0
-6494 9892 48 0
-6494 -9892 -9908 -48 0
-6494 6469 0
-6494 9892 9908 0
6495 -9893 9908 -6469 0
6495 -9893 47 -6469 0
6495 9893 -9908 -47 -6469 0
-6495 9893 47 0
-6495 -9893 -9908 -47 0
-6495 6469 0
-6495 9893 9908 0
6496 -9894 9908 -6469 0
6496 -9894 46 -6469 0
6496 9894 -9908 -46 -6469 0
-6496 9894 46 0
-6496 -9894 -9908 -46 0
-6496 6469 0
-6496 9894 9908 0
6497 -9895 9908 -6469 0
6497 -9895 45 -6469 0
6497 9895 -9908 -45 -6469 0
-6497 9895 45 0
-6497 -9895 -9908 -45 0
-6497 6469 0
-6497 9895 9908 0
6498 -9896 9908 -6469 0
6498 -9896 44 -6469 0
6498 9896 -9908 -44 -6469 0
-6498 9896 44 0
-6498 -9896 -9908 -44 0
-6498 6469 0
-6498 9896 9908 0
6499 -9897 9908 -6469 0
6499 -9897 43 -6469 0
6499 9897 -9908 -43 -6469 0
-6499 9897 43 0
-6499 -9897 -9908 -43 0
-6499 6469 0
-6499 9897 9908 0
6500 -9898 9908 -6469 0
6500 -9898 42 -6469 0
6500 9898 -9908 -42 -6469 0
-6500 9898 42 0
-6500 -9898 -9908 -42 0
-6500 6469 0
-6500 9898 9908 0
6501 -9899 9908 -6469 0
6501 -9899 41 -6469 0
6501 9899 -9908 -41 -6469 0
-6501 9899 41 0
-6501 -9899 -9908 -41 0
-6501 6469 0
-6501 9899 9908 0
6502 -9900 9908 -6469 0
6502 -9900 40 -6469 0
6502 9900 -9908 -40 -6469 0
-6502 9900 40 0
-6502 -9900 -9908 -40 0
-6502 6469 0
-6502 9900 9908 0
6503 9908 -9909 -39 0
-6503 -9908 0
-6503 9909 0
-6503 39 0
-6504 5631 6505 0
-6504 6505 6628 0
-6504 5631 6628 0
6504 -6505 -6628 0
6504 -5631 -6505 0
6504 -5631 -6628 0
-6505 6506 6508 0
-6505 6508 6627 0
-6505 6506 6627 0
6505 -6508 -6627 0
6505 -6506 -6508 0
6505 -6506 -6627 0
-6506 6377 6507 0
-6506 -6377 -6507 0
6506 -6377 6507 0
6506 6377 -6507 0
-6507 -5633 -6502 0
-6507 5633 6502 0
6507 5633 -6502 0
6507 -5633 6502 0
-6508 6509 6511 0
-6508 6511 6626 0
-6508 6509 6626 0
6508 -6511 -6626 0
6508 -6509 -6511 0
6508 -6509 -6626 0
-6509 6380 6510 0
-6509 -6380 -6510 0
6509 -6380 6510 0
6509 6380 -6510 0
-6510 -6378 -6501 0
-6510 6378 6501 0
6510 6378 -6501 0
6510 -6378 6501 0
-6511 6512 6514 0
-6511 6514 6625 0
-6511 6512 6625 0
6511 -6514 -6625 0
6511 -6512 -6514 0
6511 -6512 -6625 0
-6512 6383 6513 0
-6512 -6383 -6513 0
6512 -6383 6513 0
6512 6383 -6513 0
-6513 -6381 -6500 0
-6513 6381 6500 0
6513 6381 -6500 0
6513 -6381 6500 0
-6514 6515 6517 0
-6514 6517 6624 0
-6514 6515 6624 0
6514 -6517 -6624 0
6514 -6515 -6517 0
6514 -6515 -6624 0
-6515 6386 6516 0
-6515 -6386 -6516 0
6515 -6386 6516 0
6515 6386 -6516 0
-6516 -6384 -6499 0
-6516 6384 6499 0
6516 6384 -6499 0
6516 -6384 6499 0
-6517 6518 6520 0
-6517 6520 6623 0
-6517 6518 6623 0
6517 -6520 -6623 0
6517 -6518 -6520 0
6517 -6518 -6623 0
-6518 6389 6519 0
-6518 -6389 -6519 0
6518 -6389 6519 0
6518 6389 -6519 0
-6519 -6387 -6498 0
-6519 6387 6498 0
6519 6387 -6498 0
6519 -6387 6498 0
-6520 6521 6523 0
-6520 6523 6622 0
-6520 6521 6622 0
6520 -6523 -6622 0
6520 -6521 -6523 0
6520 -6521 -6622 0
-6521 6392 6522 0
-6521 -6392 -6522 0
6521 -6392 6522 0
6521 6392 -6522 0
-6522 -6390 -6497 0
-6522 6390 6497 0
6522 6390 -6497 0
6522 -6390 6497 0
-6523 6524 6526 0
-6523 6526 6621 0
-6523 6524 6621 0
6523 -6526 -6621 0
6523 -6524 -6526 0
6523 -6524 -6621 0
-6524 6395 6525 0
-6524 -6395 -6525 0
6524 -6395 6525 0
6524 6395 -6525 0
-6525 -6393 -6496 0
-6525 6393 6496 0
6525 6393 -6496 0
6525 -6393 6496 0
-6526 6527 6529 0
-6526 6529 6620 0
-6526 6527 6620 0
6526 -6529 -6620 0
6526 -6527 -6529 0
6526 -6527 -6620 0
-6527 6398 6528 0
-6527 -6398 -6528 0
6527 -6398 6528 0
6527 6398 -6528 0
-6528 -6396 -6495 0
-6528 6396 6495 0
6528 6396 -6495 0
6528 -6396 6495 0
-6529 6530 6532 0
-6529 6532 6619 0
-6529 6530 6619 0
6529 -6532 -6619 0
6529 -6530 -6532 0
6529 -6530 -6619 0
-6530 6401 6531 0
-6530 -6401 -6531 0
6530 -6401 6531 0
6530 6401 -6531 0
-6531 -6399 -6494 0
-6531 6399 6494 0
6531 6399 -6494 0
6531 -6399 6494 0
-6532 6533 6535 0
-6532 6535 6618 0
-6532 6533 6618 0
6532 -6535 -6618 0
6532 -6533 -6535 0
6532 -6533 -6618 0
-6533 6404 6534 0
-6533 -6404 -6534 0
6533 -6404 6534 0
6533 6404 -6534 0
-6534 -6402 -6493 0
-6534 6402 6493 0
6534 6402 -6493 0
6534 -6402 6493 0
-6535 6536 6538 0
-6535 6538 6617 0
-6535 6536 6617 0
6535 -6538 -6617 0
6535 -6536 -6538 0
6535 -6536 -6617 0
-6536 6407 6537 0
-6536 -6407 -6537 0
6536 -6407 6537 0
6536 6407 -6537 0
-6537 -6405 -6492 0
-6537 6405 6492 0
6537 6405 -6492 0
6537 -6405 6492 0
-6538 6539 6541 0
-6538 6541 6616 0
-6538 6539 6616 0
6538 -6541 -6616 0
6538 -6539 -6541 0
6538 -6539 -6616 0
-6539 6410 6540 0
-6539 -6410 -6540 0
6539 -6410 6540 0
6539 6410 -6540 0
-6540 -6408 -6491 0
-6540 6408 6491 0
6540 6408 -6491 0
6540 -6408 6491 0
-6541 6542 6544 0
-6541 6544 6615 0
-6541 6542 6615 0
6541 -6544 -6615 0
6541 -6542 -6544 0
6541 -6542 -6615 0
-6542 6413 6543 0
-6542 -6413 -6543 0
6542 -6413 6543 0
6542 6413 -6543 0
-6543 -6411 -6490 0
-6543 6411 6490 0
6543 6411 -6490 0
6543 -6411 6490 0
-6544 6545 6547 0
-6544 6547 6614 0
-6544 6545 6614 0
6544 -6547 -6614 0
6544 -6545 -6547 0
6544 -6545 -6614 0
-6545 6416 6546 0
-6545 -6416 -6546 0
6545 -6416 6546 0
6545 6416 -6546 0
-6546 -6414 -6489 0
-6546 6414 6489 0
6546 6414 -6489 0
6546 -6414 6489 0
-6547 6548 6550 0
-6547 6550 6613 0
-6547 6548 6613 0
6547 -6550 -6613 0
6547 -6548 -6550 0
6547 -6548 -6613 0
-6548 6419 6549 0
-6548 -6419 -6549 0
6548 -6419 6549 0
6548 6419 -6549 0
-6549 -6417 -6488 0
-6549 6417 6488 0
6549 6417 -6488 0
6549 -6417 6488 0
-6550 6551 6553 0
-6550 6553 6612 0
-6550 6551 6612 0
6550 -6553 -6612 0
6550 -6551 -6553 0
6550 -6551 -6612 0
-6551 6422 6552 0
-6551 -6422 -6552 0
6551 -6422 6552 0
6551 6422 -6552 0
-6552 -6420 -6487 0
-6552 6420 6487 0
6552 6420 -6487 0
6552 -6420 6487 0
-6553 6554 6556 0
-6553 6556 6611 0
-6553 6554 6611 0
6553 -6556 -6611 0
6553 -6554 -6556 0
6553 -6554 -6611 0
-6554 6425 6555 0
-6554 -6425 -6555 0
6554 -6425 6555 0
6554 6425 -6555 0
-6555 -6423 -6486 0
-6555 6423 6486 0
6555 6423 -6486 0
6555 -6423 6486 0
-6556 6557 6559 0
-6556 6559 6610 0
-6556 6557 6610 0
6556 -6559 -6610 0
6556 -6557 -6559 0
6556 -6557 -6610 0
-6557 6428 6558 0
-6557 -6428 -6558 0
6557 -6428 6558 0
6557 6428 -6558 0
-6558 -6426 -6485 0
-6558 6426 6485 0
6558 6426 -6485 0
6558 -6426 6485 0
-6559 6560 6562 0
-6559 6562 6609 0
-6559 6560 6609 0
6559 -6562 -6609 0
6559 -6560 -6562 0
6559 -6560 -6609 0
-6560 6431 6561 0
-6560 -6431 -6561 0
6560 -6431 6561 0
6560 6431 -6561 0
-6561 -6429 -6484 0
-6561 6429 6484 0
6561 6429 -6484 0
6561 -6429 6484 0
-6562 6563 6565 0
-6562 6565 6608 0
-6562 6563 6608 0
6562 -6565 -6608 0
6562 -6563 -6565 0
6562 -6563 -6608 0
-6563 6434 6564 0
-6563 -6434 -6564 0
6563 -6434 6564 0
6563 6434 -6564 0
-6564 -6432 -6483 0
-6564 6432 6483 0
6564 6432 -6483 0
6564 -6432 6483 0
-6565 6566 6568 0
-6565 6568 6607 0
-6565 6566 6607 0
6565 -6568 -6607 0
6565 -6566 -6568 0
6565 -6566 -6607 0
-6566 6437 6567 0
-6566 -6437 -6567 0
6566 -6437 6567 0
6566 6437 -6567 0
-6567 -6435 -6482 0
-6567 6435 6482 0
6567 6435 -6482 0
6567 -6435 6482 0
-6568 6569 6571 0
-6568 6571 6606 0
-6568 6569 6606 0
6568 -6571 -6606 0
6568 -6569 -6571 0
6568 -6569 -6606 0
-6569 6440 6570 0
-6569 -6440 -6570 0
6569 -6440 6570 0
6569 6440 -6570 0
-6570 -6438 -6481 0
-6570 6438 6481 0
6570 6438 -6481 0
6570 -6438 6481 0
-6571 6572 6574 0
-6571 6574 6605 0
-6571 6572 6605 0
6571 -6574 -6605 0
6571 -6572 -6574 0
6571 -6572 -6605 0
-6572 6443 6573 0
-6572 -6443 -6573 0
6572 -6443 6573 0
6572 6443 -6573 0
-6573 -6441 -6480 0
-6573 6441 6480 0
6573 6441 -6480 0
6573 -6441 6480 0
-6574 6575 6577 0
-6574 6577 6604 0
-6574 6575 6604 0
6574 -6577 -6604 0
6574 -6575 -6577 0
6574 -6575 -6604 0
-6575 6446 6576 0
-6575 -6446 -6576 0
6575 -6446 6576 0
6575 6446 -6576 0
-6576 -6444 -6479 0
-6576 6444 6479 0
6576 6444 -6479 0
6576 -6444 6479 0
-6577 6578 6580 0
-6577 6580 6603 0
-6577 6578 6603 0
6577 -6580 -6603 0
6577 -6578 -6580 0
6577 -6578 -6603 0
-6578 6449 6579 0
-6578 -6449 -6579 0
6578 -6449 6579 0
6578 6449 -6579 0
-6579 -6447 -6478 0
-6579 6447 6478 0
6579 6447 -6478 0
6579 -6447 6478 0
-6580 6581 6583 0
-6580 6583 6602 0
-6580 6581 6602 0
6580 -6583 -6602 0
6580 -6581 -6583 0
6580 -6581 -6602 0
-6581 6452 6582 0
-6581 -6452 -6582 0
6581 -6452 6582 0
6581 6452 -6582 0
-6582 -6450 -6477 0
-6582 6450 6477 0
6582 6450 -6477 0
6582 -6450 6477 0
-6583 6584 6586 0
-6583 6586 6601 0
-6583 6584 6601 0
6583 -6586 -6601 0
6583 -6584 -6586 0
6583 -6584 -6601 0
-6584 6455 6585 0
-6584 -6455 -6585 0
6584 -6455 6585 0
6584 6455 -6585 0
-6585 -6453 -6476 0
-6585 6453 6476 0
6585 6453 -6476 0
6585 -6453 6476 0
-6586 6587 6589 0
-6586 6589 6600 0
-6586 6587 6600 0
6586 -6589 -6600 0
6586 -6587 -6589 0
6586 -6587 -6600 0
-6587 6458 6588 0
-6587 -6458 -6588 0
6587 -6458 6588 0
6587 6458 -6588 0
-6588 -6456 -6475 0
-6588 6456 6475 0
6588 6456 -6475 0
6588 -6456 6475 0
-6589 6590 6592 0
-6589 6592 6599 0
-6589 6590 6599 0
6589 -6592 -6599 0
6589 -6590 -6592 0
6589 -6590 -6599 0
-6590 6461 6591 0
-6590 -6461 -6591 0
6590 -6461 6591 0
6590 6461 -6591 0
-6591 -6459 -6474 0
-6591 6459 6474 0
6591 6459 -6474 0
6591 -6459 6474 0
-6592 6595 6598 0
-6592 6593 6595 0
-6592 6593 6598 0
6592 -6593 -6595 0
6592 -6595 -6598 0
6592 -6593 -6598 0
-6593 6464 6594 0
-6593 -6464 -6594 0
6593 -6464 6594 0
6593 6464 -6594 0
-6594 -6462 -6473 0
-6594 6462 6473 0
6594 6462 -6473 0
6594 -6462 6473 0
6595 -1294 -6596 0
-6595 1294 0
-6595 6596 0
-6596 6467 6597 0
-6596 -6467 -6597 0
6596 -6467 6597 0
6596 6467 -6597 0
-6597 -6465 -6472 0
-6597 6465 6472 0
6597 6465 -6472 0
6597 -6465 6472 0
6598 9869 -9870 -1295 0
6598 -9870 9909 -1295 0
6598 -9869 9870 -9909 -1295 0
-6598 9870 9909 0
-6598 9869 9870 0
-6598 1295 0
-6598 -9869 -9870 -9909 0
6599 -9871 9909 -1295 0
6599 -9871 69 -1295 0
6599 9871 -9909 -69 -1295 0
-6599 9871 69 0
-6599 -9871 -9909 -69 0
-6599 1295 0
-6599 9871 9909 0
6600 -9872 9909 -1295 0
6600 -9872 68 -1295 0
6600 9872 -9909 -68 -1295 0
-6600 9872 68 0
-6600 -9872 -9909 -68 0
-6600 1295 0
-6600 9872 9909 0
6601 -9873 9909 -1295 0
6601 -9873 67 -1295 0
6601 9873 -9909 -67 -1295 0
-6601 9873 67 0
-6601 -9873 -9909 -67 0
-6601 1295 0
-6601 9873 9909 0
6602 -9874 9909 -1295 0
6602 -9874 66 -1295 0
6602 9874 -9909 -66 -1295 0
-6602 9874 66 0
-6602 -9874 -9909 -66 0
-6602 1295 0
-6602 9874 9909 0
6603 -9875 9909 -1295 0
6603 -9875 65 -1295 0
6603 9875 -9909 -65 -1295 0
-6603 9875 65 0
-6603 -9875 -9909 -65 0
-6603 1295 0
-6603 9875 9909 0
6604 -9876 9909 -1295 0
6604 -9876 64 -1295 0
6604 9876 -9909 -64 -1295 0
-6604 9876 64 0
-6604 -9876 -9909 -64 0
-6604 1295 0
-6604 9876 9909 0
6605 -9877 9909 -1295 0
6605 -9877 63 -1295 0
6605 9877 -9909 -63 -1295 0
-6605 9877 63 0
-6605 -9877 -9909 -63 0
-6605 1295 0
-6605 9877 9909 0
6606 -9878 9909 -1295 0
6606 -9878 62 -1295 0
6606 9878 -9909 -62 -1295 0
-6606 9878 62 0
-6606 -9878 -9909 -62 0
-6606 1295 0
-6606 9878 9909 0
6607 -9879 9909 -1295 0
6607 -9879 61 -1295 0
6607 9879 -9909 -61 -1295 0
-6607 9879 61 0
-6607 -9879 -9909 -61 0
-6607 1295 0
-6607 9879 9909 0
6608 -9880 9909 -1295 0
6608 -9880 60 -1295 0
6608 9880 -9909 -60 -1295 0
-6608 9880 60 0
-6608 -9880 -9909 -60 0
-6608 1295 0
-6608 9880 9909 0
6609 -9881 9909 -1295 0
6609 -9881 59 -1295 0
6609 9881 -9909 -59 -1295 0
-6609 9881 59 0
-6609 -9881 -9909 -59 0
-6609 1295 0
-6609 9881 9909 0
6610 -9882 9909 -1295 0
6610 -9882 58 -1295 0
6610 9882 -9909 -58 -1295 0
-6610 9882 58 0
-6610 -9882 -9909 -58 0
-6610 1295 0
-6610 9882 9909 0
6611 -9883 9909 -1295 0
6611 -9883 57 -1295 0
6611 9883 -9909 -57 -1295 0
-6611 9883 57 0
-6611 -9883 -9909 -57 0
-6611 1295 0
-6611 9883 9909 0
6612 -9884 9909 -1295 0
6612 -9884 56 -1295 0
6612 9884 -9909 -56 -1295 0
-6612 9884 56 0
-6612 -9884 -9909 -56 0
-6612 1295 0
-6612 9884 9909 0
6613 -9885 9909 -1295 0
6613 -9885 55 -1295 0
6613 9885 -9909 -55 -1295 0
-6613 9885 55 0
-6613 -9885 -9909 -55 0
-6613 1295 0
-6613 9885 9909 0
6614 -9886 9909 -1295 0
6614 -9886 54 -1295 0
6614 9886 -9909 -54 -1295 0
-6614 9886 54 0
-6614 -9886 -9909 -54 0
-6614 1295 0
-6614 9886 9909 0
6615 -9887 9909 -1295 0
6615 -9887 53 -1295 0
6615 9887 -9909 -53 -1295 0
-6615 9887 53 0
-6615 -9887 -9909 -53 0
-6615 1295 0
-6615 9887 9909 0
6616 -9888 9909 -1295 0
6616 -9888 52 -1295 0
6616 9888 -9909 -52 -1295 0
-6616 9888 52 0
-6616 -9888 -9909 -52 0
-6616 1295 0
-6616 9888 9909 0
6617 -9889 9909 -1295 0
6617 -9889 51 -1295 0
6617 9889 -9909 -51 -1295 0
-6617 9889 51 0
-6617 -9889 -9909 -51 0
-6617 1295 0
-6617 9889 9909 0
6618 -9890 9909 -1295 0
6618 -9890 50 -1295 0
6618 9890 -9909 -50 -1295 0
-6618 9890 50 0
-6618 -9890 -9909 -50 0
-6618 1295 0
-6618 9890 9909 0
6619 -9891 9909 -1295 0
6619 -9891 49 -1295 0
6619 9891 -9909 -49 -1295 0
-6619 9891 49 0
-6619 -9891 -9909 -49 0
-6619 1295 0
-6619 9891 9909 0
6620 -9892 9909 -1295 0
6620 -9892 48 -1295 0
6620 9892 -9909 -48 -1295 0
-6620 9892 48 0
-6620 -9892 -9909 -48 0
-6620 1295 0
-6620 9892 9909 0
6621 -9893 9909 -1295 0
6621 -9893 47 -1295 0
6621 9893 -9909 -47 -1295 0
-6621 9893 47 0
-6621 -9893 -9909 -47 0
-6621 1295 0
-6621 9893 9909 0
6622 -9894 9909 -1295 0
6622 -9894 46 -1295 0
6622 9894 -9909 -46 -1295 0
-6622 9894 46 0
-6622 -9894 -9909 -46 0
-6622 1295 0
-6622 9894 9909 0
6623 -9895 9909 -1295 0
6623 -9895 45 -1295 0
6623 9895 -9909 -45 -1295 0
-6623 9895 45 0
-6623 -9895 -9909 -45 0
-6623 1295 0
-6623 9895 9909 0
6624 -9896 9909 -1295 0
6624 -9896 44 -1295 0
6624 9896 -9909 -44 -1295 0
-6624 9896 44 0
-6624 -9896 -9909 -44 0
-6624 1295 0
-6624 9896 9909 0
6625 -9897 9909 -1295 0
6625 -9897 43 -1295 0
6625 9897 -9909 -43 -1295 0
-6625 9897 43 0
-6625 -9897 -9909 -43 0
-6625 1295 0
-6625 9897 9909 0
6626 -9898 9909 -1295 0
6626 -9898 42 -1295 0
6626 9898 -9909 -42 -1295 0
-6626 9898 42 0
-6626 -9898 -9909 -42 0
-6626 1295 0
-6626 9898 9909 0
6627 -9899 9909 -1295 0
6627 -9899 41 -1295 0
6627 9899 -9909 -41 -1295 0
-6627 9899 41 0
-6627 -9899 -9909 -41 0
-6627 1295 0
-6627 9899 9909 0
6628 -9900 9909 -1295 0
6628 -9900 40 -1295 0
6628 9900 -9909 -40 -1295 0
-6628 9900 40 0
-6628 -9900 -9909 -40 0
-6628 1295 0
-6628 9900 9909 0
6629 9909 -9910 -39 0
-6629 -9909 0
-6629 9910 0
-6629 39 0
-6630 5629 6631 0
-6630 6631 6756 0
-6630 5629 6756 0
6630 -6631 -6756 0
6630 -5629 -6631 0
6630 -5629 -6756 0
-6631 6632 6634 0
-6631 6634 6755 0
-6631 6632 6755 0
6631 -6634 -6755 0
6631 -6632 -6634 0
6631 -6632 -6755 0
-6632 6505 6633 0
-6632 -6505 -6633 0
6632 -6505 6633 0
6632 6505 -6633 0
-6633 -5631 -6628 0
-6633 5631 6628 0
6633 5631 -6628 0
6633 -5631 6628 0
-6634 6635 6637 0
-6634 6637 6754 0
-6634 6635 6754 0
6634 -6637 -6754 0
6634 -6635 -6637 0
6634 -6635 -6754 0
-6635 6508 6636 0
-6635 -6508 -6636 0
6635 -6508 6636 0
6635 6508 -6636 0
-6636 -6506 -6627 0
-6636 6506 6627 0
6636 6506 -6627 0
6636 -6506 6627 0
-6637 6638 6640 0
-6637 6640 6753 0
-6637 6638 6753 0
6637 -6640 -6753 0
6637 -6638 -6640 0
6637 -6638 -6753 0
-6638 6511 6639 0
-6638 -6511 -6639 0
6638 -6511 6639 0
6638 6511 -6639 0
-6639 -6509 -6626 0
-6639 6509 6626 0
6639 6509 -6626 0
6639 -6509 6626 0
-6640 6641 6643 0
-6640 6643 6752 0
-6640 6641 6752 0
6640 -6643 -6752 0
6640 -6641 -6643 0
6640 -6641 -6752 0
-6641 6514 6642 0
-6641 -6514 -6642 0
6641 -6514 6642 0
6641 6514 -6642 0
-6642 -6512 -6625 0
-6642 6512 6625 0
6642 6512 -6625 0
6642 -6512 6625 0
-6643 6644 6646 0
-6643 6646 6751 0
-6643 6644 6751 0
6643 -6646 -6751 0
6643 -6644 -6646 0
6643 -6644 -6751 0
-6644 6517 6645 0
-6644 -6517 -6645 0
6644 -6517 6645 0
6644 6517 -6645 0
-6645 -6515 -6624 0
-6645 6515 6624 0
6645 6515 -6624 0
6645 -6515 6624 0
-6646 6647 6649 0
-6646 6649 6750 0
-6646 6647 6750 0
6646 -6649 -6750 0
6646 -6647 -6649 0
6646 -6647 -6750 0
-6647 6520 6648 0
-6647 -6520 -6648 0
6647 -6520 6648 0
6647 6520 -6648 0
-6648 -6518 -6623 0
-6648 6518 6623 0
6648 6518 -6623 0
6648 -6518 6623 0
-6649 6650 6652 0
-6649 6652 6749 0
-6649 6650 6749 0
6649 -6652 -6749 0
6649 -6650 -6652 0
6649 -6650 -6749 0
-6650 6523 6651 0
-6650 -6523 -6651 0
6650 -6523 6651 0
6650 6523 -6651 0
-6651 -6521 -6622 0
-6651 6521 6622 0
6651 6521 -6622 0
6651 -6521 6622 0
-6652 6653 6655 0
-6652 6655 6748 0
-6652 6653 6748 0
6652 -6655 -6748 0
6652 -6653 -6655 0
6652 -6653 -6748 0
-6653 6526 6654 0
-6653 -6526 -6654 0
6653 -6526 6654 0
6653 6526 -6654 0
-6654 -6524 -6621 0
-6654 6524 6621 0
6654 6524 -6621 0
6654 -6524 6621 0
-6655 6656 6658 0
-6655 6658 6747 0
-6655 6656 6747 0
6655 -6658 -6747 0
6655 -6656 -6658 0
6655 -6656 -6747 0
-6656 6529 6657 0
-6656 -6529 -6657 0
6656 -6529 6657 0
6656 6529 -6657 0
-6657 -6527 -6620 0
-6657 6527 6620 0
6657 6527 -6620 0
6657 -6527 6620 0
-6658 6659 6661 0
-6658 6661 6746 0
-6658 6659 6746 0
6658 -6661 -6746 0
6658 -6659 -6661 0
6658 -6659 -6746 0
-6659 6532 6660 0
-6659 -6532 -6660 0
6659 -6532 6660 0
6659 6532 -6660 0
-6660 -6530 -6619 0
-6660 6530 6619 0
6660 6530 -6619 0
6660 -6530 6619 0
-6661 6662 6664 0
-6661 6664 6745 0
-6661 6662 6745 0
6661 -6664 -6745 0
6661 -6662 -6664 0
6661 -6662 -6745 0
-6662 6535 6663 0
-6662 -6535 -6663 0
6662 -6535 6663 0
6662 6535 -6663 0
-6663 -6533 -6618 0
-6663 6533 6618 0
6663 6533 -6618 0
6663 -6533 6618 0
-6664 6665 6667 0
-6664 6667 6744 0
-6664 6665 6744 0
6664 -6667 -6744 0
6664 -6665 -6667 0
6664 -6665 -6744 0
-6665 6538 6666 0
-6665 -6538 -6666 0
6665 -6538 6666 0
6665 6538 -6666 0
-6666 -6536 -6617 0
-6666 6536 6617 0
6666 6536 -6617 0
6666 -6536 6617 0
-6667 6668 6670 0
-6667 6670 6743 0
-6667 6668 6743 0
6667 -6670 -6743 0
6667 -6668 -6670 0
6667 -6668 -6743 0
-6668 6541 6669 0
-6668 -6541 -6669 0
6668 -6541 6669 0
6668 6541 -6669 0
-6669 -6539 -6616 0
-6669 6539 6616 0
6669 6539 -6616 0
6669 -6539 6616 0
-6670 6671 6673 0
-6670 6673 6742 0
-6670 6671 6742 0
6670 -6673 -6742 0
6670 -6671 -6673 0
6670 -6671 -6742 0
-6671 6544 6672 0
-6671 -6544 -6672 0
6671 -6544 6672 0
6671 6544 -6672 0
-6672 -6542 -6615 0
-6672 6542 6615 0
6672 6542 -6615 0
6672 -6542 6615 0
-6673 6674 6676 0
-6673 6676 6741 0
-6673 6674 6741 0
6673 -6676 -6741 0
6673 -6674 -6676 0
6673 -6674 -6741 0
-6674 6547 6675 0
-6674 -6547 -6675 0
6674 -6547 6675 0
6674 6547 -6675 0
-6675 -6545 -6614 0
-6675 6545 6614 0
6675 6545 -6614 0
6675 -6545 6614 0
-6676 6677 6679 0
-6676 6679 6740 0
-6676 6677 6740 0
6676 -6679 -6740 0
6676 -6677 -6679 0
6676 -6677 -6740 0
-6677 6550 6678 0
-6677 -6550 -6678 0
6677 -6550 6678 0
6677 6550 -6678 0
-6678 -6548 -6613 0
-6678 6548 6613 0
6678 6548 -6613 0
6678 -6548 6613 0
-6679 6680 6682 0
-6679 6682 6739 0
-6679 6680 6739 0
6679 -6682 -6739 0
6679 -6680 -6682 0
6679 -6680 -6739 0
-6680 6553 6681 0
-6680 -6553 -6681 0
6680 -6553 6681 0
6680 6553 -6681 0
-6681 -6551 -6612 0
-6681 6551 6612 0
6681 6551 -6612 0
6681 -6551 6612 0
-6682 6683 6685 0
-6682 6685 6738 0
-6682 6683 6738 0
6682 -6685 -6738 0
6682 -6683 -6685 0
6682 -6683 -6738 0
-6683 6556 6684 0
-6683 -6556 -6684 0
6683 -6556 6684 0
6683 6556 -6684 0
-6684 -6554 -6611 0
-6684 6554 6611 0
6684 6554 -6611 0
6684 -6554 6611 0
-6685 6686 6688 0
-6685 6688 6737 0
-6685 6686 6737 0
6685 -6688 -6737 0
6685 -6686 -6688 0
6685 -6686 -6737 0
-6686 6559 6687 0
-6686 -6559 -6687 0
6686 -6559 6687 0
6686 6559 -6687 0
-6687 -6557 -6610 0
-6687 6557 6610 0
6687 6557 -6610 0
6687 -6557 6610 0
-6688 6689 6691 0
-6688 6691 6736 0
-6688 6689 6736 0
6688 -6691 -6736 0
6688 -6689 -6691 0
6688 -6689 -6736 0
-6689 6562 6690 0
-6689 -6562 -6690 0
6689 -6562 6690 0
6689 6562 -6690 0
-6690 -6560 -6609 0
-6690 6560 6609 0
6690 6560 -6609 0
6690 -6560 6609 0
-6691 6692 6694 0
-6691 6694 6735 0
-6691 6692 6735 0
6691 -6694 -6735 0
6691 -6692 -6694 0
6691 -6692 -6735 0
-6692 6565 6693 0
-6692 -6565 -6693 0
6692 -6565 6693 0
6692 6565 -6693 0
-6693 -6563 -6608 0
-6693 6563 6608 0
6693 6563 -6608 0
6693 -6563 6608 0
-6694 6695 6697 0
-6694 6697 6734 0
-6694 6695 6734 0
6694 -6697 -6734 0
6694 -6695 -6697 0
6694 -6695 -6734 0
-6695 6568 6696 0
-6695 -6568 -6696 0
6695 -6568 6696 0
6695 6568 -6696 0
-6696 -6566 -6607 0
-6696 6566 6607 0
6696 6566 -6607 0
6696 -6566 6607 0
-6697 6698 6700 0
-6697 6700 6733 0
-6697 6698 6733 0
6697 -6700 -6733 0
6697 -6698 -6700 0
6697 -6698 -6733 0
-6698 6571 6699 0
-6698 -6571 -6699 0
6698 -6571 6699 0
6698 6571 -6699 0
-6699 -6569 -6606 0
-6699 6569 6606 0
6699 6569 -6606 0
6699 -6569 6606 0
-6700 6701 6703 0
-6700 6703 6732 0
-6700 6701 6732 0
6700 -6703 -6732 0
6700 -6701 -6703 0
6700 -6701 -6732 0
-6701 6574 6702 0
-6701 -6574 -6702 0
6701 -6574 6702 0
6701 6574 -6702 0
-6702 -6572 -6605 0
-6702 6572 6605 0
6702 6572 -6605 0
6702 -6572 6605 0
-6703 6704 6706 0
-6703 6706 6731 0
-6703 6704 6731 0
6703 -6706 -6731 0
6703 -6704 -6706 0
6703 -6704 -6731 0
-6704 6577 6705 0
-6704 -6577 -6705 0
6704 -6577 6705 0
6704 6577 -6705 0
-6705 -6575 -6604 0
-6705 6575 6604 0
6705 6575 -6604 0
6705 -6575 6604 0
-6706 6707 6709 0
-6706 6709 6730 0
-6706 6707 6730 0
6706 -6709 -6730 0
6706 -6707 -6709 0
6706 -6707 -6730 0
-6707 6580 6708 0
-6707 -6580 -6708 0
6707 -6580 6708 0
6707 6580 -6708 0
-6708 -6578 -6603 0
-6708 6578 6603 0
6708 6578 -6603 0
6708 -6578 6603 0
-6709 6710 6712 0
-6709 6712 6729 0
-6709 6710 6729 0
6709 -6712 -6729 0
6709 -6710 -6712 0
6709 -6710 -6729 0
-6710 6583 6711 0
-6710 -6583 -6711 0
6710 -6583 6711 0
6710 6583 -6711 0
-6711 -6581 -6602 0
-6711 6581 6602 0
6711 6581 -6602 0
6711 -6581 6602 0
-6712 6713 6715 0
-6712 6715 6728 0
-6712 6713 6728 0
6712 -6715 -6728 0
6712 -6713 -6715 0
6712 -6713 -6728 0
-6713 6586 6714 0
-6713 -6586 -6714 0
6713 -6586 6714 0
6713 6586 -6714 0
-6714 -6584 -6601 0
-6714 6584 6601 0
6714 6584 -6601 0
6714 -6584 6601 0
-6715 6716 6718 0
-6715 6718 6727 0
-6715 6716 6727 0
6715 -6718 -6727 0
6715 -6716 -6718 0
6715 -6716 -6727 0
-6716 6589 6717 0
-6716 -6589 -6717 0
6716 -6589 6717 0
6716 6589 -6717 0
-6717 -6587 -6600 0
-6717 6587 6600 0
6717 6587 -6600 0
6717 -6587 6600 0
-6718 6721 6726 0
-6718 6719 6721 0
-6718 6719 6726 0
6718 -6719 -6721 0
6718 -6721 -6726 0
6718 -6719 -6726 0
-6719 6592 6720 0
-6719 -6592 -6720 0
6719 -6592 6720 0
6719 6592 -6720 0
-6720 -6590 -6599 0
-6720 6590 6599 0
6720 6590 -6599 0
6720 -6590 6599 0
6721 -6722 -6724 0
-6721 6722 0
-6721 6724 0
6722 -9869 -6723 0
-6722 9869 0
-6722 6723 0
-6723 -9909 -9910 0
-6723 9909 9910 0
6723 9909 -9910 0
6723 -9909 9910 0
-6724 6595 6725 0
-6724 -6595 -6725 0
6724 -6595 6725 0
6724 6595 -6725 0
-6725 -6593 -6598 0
-6725 6593 6598 0
6725 6593 -6598 0
6725 -6593 6598 0
6726 9869 -9870 -6723 0
6726 -9870 9910 -6723 0
6726 -9869 9870 -9910 -6723 0
-6726 9870 9910 0
-6726 9869 9870 0
-6726 6723 0
-6726 -9869 -9870 -9910 0
6727 -9871 9910 -6723 0
6727 -9871 69 -6723 0
6727 9871 -9910 -69 -6723 0
-6727 9871 69 0
-6727 -9871 -9910 -69 0
-6727 6723 0
-6727 9871 9910 0
6728 -9872 9910 -6723 0
6728 -9872 68 -6723 0
6728 9872 -9910 -68 -6723 0
-6728 9872 68 0
-6728 -9872 -9910 -68 0
-6728 6723 0
-6728 9872 9910 0
6729 -9873 9910 -6723 0
6729 -9873 67 -6723 0
6729 9873 -9910 -67 -6723 0
-6729 9873 67 0
-6729 -9873 -9910 -67 0
-6729 6723 0
-6729 9873 9910 0
6730 -9874 9910 -6723 0
6730 -9874 66 -6723 0
6730 9874 -9910 -66 -6723 0
-6730 9874 66 0
-6730 -9874 -9910 -66 0
-6730 6723 0
-6730 9874 9910 0
6731 -9875 9910 -6723 0
6731 -9875 65 -6723 0
6731 9875 -9910 -65 -6723 0
-6731 9875 65 0
-6731 -9875 -9910 -65 0
-6731 6723 0
-6731 9875 9910 0
6732 -9876 9910 -6723 0
6732 -9876 64 -6723 0
6732 9876 -9910 -64 -6723 0
-6732 9876 64 0
-6732 -9876 -9910 -64 0
-6732 6723 0
-6732 9876 9910 0
6733 -9877 9910 -6723 0
6733 -9877 63 -6723 0
6733 9877 -9910 -63 -6723 0
-6733 9877 63 0
-6733 -9877 -9910 -63 0
-6733 6723 0
-6733 9877 9910 0
6734 -9878 9910 -6723 0
6734 -9878 62 -6723 0
6734 9878 -9910 -62 -6723 0
-6734 9878 62 0
-6734 -9878 -9910 -62 0
-6734 6723 0
-6734 9878 9910 0
6735 -9879 9910 -6723 0
6735 -9879 61 -6723 0
6735 9879 -9910 -61 -6723 0
-6735 9879 61 0
-6735 -9879 -9910 -61 0
-6735 6723 0
-6735 9879 9910 0
6736 -9880 9910 -6723 0
6736 -9880 60 -6723 0
6736 9880 -9910 -60 -6723 0
-6736 9880 60 0
-6736 -9880 -9910 -60 0
-6736 6723 0
-6736 9880 9910 0
6737 -9881 9910 -6723 0
6737 -9881 59 -6723 0
6737 9881 -9910 -59 -6723 0
-6737 9881 59 0
-6737 -9881 -9910 -59 0
-6737 6723 0
-6737 9881 9910 0
6738 -9882 9910 -6723 0
6738 -9882 58 -6723 0
6738 9882 -9910 -58 -6723 0
-6738 9882 58 0
-6738 -9882 -9910 -58 0
-6738 6723 0
-6738 9882 9910 0
6739 -9883 9910 -6723 0
6739 -9883 57 -6723 0
6739 9883 -9910 -57 -6723 0
-6739 9883 57 0
-6739 -9883 -9910 -57 0
-6739 6723 0
-6739 9883 9910 0
6740 -9884 9910 -6723 0
6740 -9884 56 -6723 0
6740 9884 -9910 -56 -6723 0
-6740 9884 56 0
-6740 -9884 -9910 -56 0
-6740 6723 0
-6740 9884 9910 0
6741 -9885 9910 -6723 0
6741 -9885 55 -6723 0
6741 9885 -9910 -55 -6723 0
-6741 9885 55 0
-6741 -9885 -9910 -55 0
-6741 6723 0
-6741 9885 9910 0
6742 -9886 9910 -6723 0
6742 -9886 54 -6723 0
6742 9886 -9910 -54 -6723 0
-6742 9886 54 0
-6742 -9886 -9910 -54 0
-6742 6723 0
-6742 9886 9910 0
6743 -9887 9910 -6723 0
6743 -9887 53 -6723 0
6743 9887 -9910 -53 -6723 0
-6743 9887 53 0
-6743 -9887 -9910 -53 0
-6743 6723 0
-6743 9887 9910 0
6744 -9888 9910 -6723 0
6744 -9888 52 -6723 0
6744 9888 -9910 -52 -6723 0
-6744 9888 52 0
-6744 -9888 -9910 -52 0
-6744 6723 0
-6744 9888 9910 0
6745 -9889 9910 -6723 0
6745 -9889 51 -6723 0
6745 9889 -9910 -51 -6723 0
-6745 9889 51 0
-6745 -9889 -9910 -51 0
-6745 6723 0
-6745 9889 9910 0
6746 -9890 9910 -6723 0
6746 -9890 50 -6723 0
6746 9890 -9910 -50 -6723 0
-6746 9890 50 0
-6746 -9890 -9910 -50 0
-6746 6723 0
-6746 9890 9910 0
6747 -9891 9910 -6723 0
6747 -9891 49 -6723 0
6747 9891 -9910 -49 -6723 0
-6747 9891 49 0
-6747 -9891 -9910 -49 0
-6747 6723 0
-6747 9891 9910 0
6748 -9892 9910 -6723 0
6748 -9892 48 -6723 0
6748 9892 -9910 -48 -6723 0
-6748 9892 48 0
-6748 -9892 -9910 -48 0
-6748 6723 0
-6748 9892 9910 0
6749 -9893 9910 -6723 0
6749 -9893 47 -6723 0
6749 9893 -9910 -47 -6723 0
-6749 9893 47 0
-6749 -9893 -9910 -47 0
-6749 6723 0
-6749 9893 9910 0
6750 -9894 9910 -6723 0
6750 -9894 46 -6723 0
6750 9894 -9910 -46 -6723 0
-6750 9894 46 0
-6750 -9894 -9910 -46 0
-6750 6723 0
-6750 9894 9910 0
6751 -9895 9910 -6723 0
6751 -9895 45 -6723 0
6751 9895 -9910 -45 -6723 0
-6751 9895 45 0
-6751 -9895 -9910 -45 0
-6751 6723 0
-6751 9895 9910 0
6752 -9896 9910 -6723 0
6752 -9896 44 -6723 0
6752 9896 -9910 -44 -6723 0
-6752 9896 44 0
-6752 -9896 -9910 -44 0
-6752 6723 0
-6752 9896 9910 0
6753 -9897 9910 -6723 0
6753 -9897 43 -6723 0
6753 9897 -9910 -43 -6723 0
-6753 9897 43 0
-6753 -9897 -9910 -43 0
-6753 6723 0
-6753 9897 9910 0
6754 -9898 9910 -6723 0
6754 -9898 42 -6723 0
6754 9898 -9910 -42 -6723 0
-6754 9898 42 0
-6754 -9898 -9910 -42 0
-6754 6723 0
-6754 9898 9910 0
6755 -9899 9910 -6723 0
6755 -9899 41 -6723 0
6755 9899 -9910 -41 -6723 0
-6755 9899 41 0
-6755 -9899 -9910 -41 0
-6755 6723 0
-6755 9899 9910 0
6756 -9900 9910 -6723 0
6756 -9900 40 -6723 0
6756 9900 -9910 -40 -6723 0
-6756 9900 40 0
-6756 -9900 -9910 -40 0
-6756 6723 0
-6756 9900 9910 0
6757 9910 -9911 -39 0
-6757 -9910 0
-6757 9911 0
-6757 39 0
-6758 5627 6759 0
-6758 6759 6882 0
-6758 5627 6882 0
6758 -6759 -6882 0
6758 -5627 -6759 0
6758 -5627 -6882 0
-6759 6760 6762 0
-6759 6762 6881 0
-6759 6760 6881 0
6759 -6762 -6881 0
6759 -6760 -6762 0
6759 -6760 -6881 0
-6760 6631 6761 0
-6760 -6631 -6761 0
6760 -6631 6761 0
6760 6631 -6761 0
-6761 -5629 -6756 0
-6761 5629 6756 0
6761 5629 -6756 0
6761 -5629 6756 0
-6762 6763 6765 0
-6762 6765 6880 0
-6762 6763 6880 0
6762 -6765 -6880 0
6762 -6763 -6765 0
6762 -6763 -6880 0
-6763 6634 6764 0
-6763 -6634 -6764 0
6763 -6634 6764 0
6763 6634 -6764 0
-6764 -6632 -6755 0
-6764 6632 6755 0
6764 6632 -6755 0
6764 -6632 6755 0
-6765 6766 6768 0
-6765 6768 6879 0
-6765 6766 6879 0
6765 -6768 -6879 0
6765 -6766 -6768 0
6765 -6766 -6879 0
-6766 6637 6767 0
-6766 -6637 -6767 0
6766 -6637 6767 0
6766 6637 -6767 0
-6767 -6635 -6754 0
-6767 6635 6754 0
6767 6635 -6754 0
6767 -6635 6754 0
-6768 6769 6771 0
-6768 6771 6878 0
-6768 6769 6878 0
6768 -6771 -6878 0
6768 -6769 -6771 0
6768 -6769 -6878 0
-6769 6640 6770 0
-6769 -6640 -6770 0
6769 -6640 6770 0
6769 6640 -6770 0
-6770 -6638 -6753 0
-6770 6638 6753 0
6770 6638 -6753 0
6770 -6638 6753 0
-6771 6772 6774 0
-6771 6774 6877 0
-6771 6772 6877 0
6771 -6774 -6877 0
6771 -6772 -6774 0
6771 -6772 -6877 0
-6772 6643 6773 0
-6772 -6643 -6773 0
6772 -6643 6773 0
6772 6643 -6773 0
-6773 -6641 -6752 0
-6773 6641 6752 0
6773 6641 -6752 0
6773 -6641 6752 0
-6774 6775 6777 0
-6774 6777 6876 0
-6774 6775 6876 0
6774 -6777 -6876 0
6774 -6775 -6777 0
6774 -6775 -6876 0
-6775 6646 6776 0
-6775 -6646 -6776 0
6775 -6646 6776 0
6775 6646 -6776 0
-6776 -6644 -6751 0
-6776 6644 6751 0
6776 6644 -6751 0
6776 -6644 6751 0
-6777 6778 6780 0
-6777 6780 6875 0
-6777 6778 6875 0
6777 -6780 -6875 0
6777 -6778 -6780 0
6777 -6778 -6875 0
-6778 6649 6779 0
-6778 -6649 -6779 0
6778 -6649 6779 0
6778 6649 -6779 0
-6779 -6647 -6750 0
-6779 6647 6750 0
6779 6647 -6750 0
6779 -6647 6750 0
-6780 6781 6783 0
-6780 6783 6874 0
-6780 6781 6874 0
6780 -6783 -6874 0
6780 -6781 -6783 0
6780 -6781 -6874 0
-6781 6652 6782 0
-6781 -6652 -6782 0
6781 -6652 6782 0
6781 6652 -6782 0
-6782 -6650 -6749 0
-6782 6650 6749 0
6782 6650 -6749 0
6782 -6650 6749 0
-6783 6784 6786 0
-6783 6786 6873 0
-6783 6784 6873 0
6783 -6786 -6873 0
6783 -6784 -6786 0
6783 -6784 -6873 0
-6784 6655 6785 0
-6784 -6655 -6785 0
6784 -6655 6785 0
6784 6655 -6785 0
-6785 -6653 -6748 0
-6785 6653 6748 0
6785 6653 -6748 0
6785 -6653 6748 0
-6786 6787 6789 0
-6786 6789 6872 0
-6786 6787 6872 0
6786 -6789 -6872 0
6786 -6787 -6789 0
6786 -6787 -6872 0
-6787 6658 6788 0
-6787 -6658 -6788 0
6787 -6658 6788 0
6787 6658 -6788 0
-6788 -6656 -6747 0
-6788 6656 6747 0
6788 6656 -6747 0
6788 -6656 6747 0
-6789 6790 6792 0
-6789 6792 6871 0
-6789 6790 6871 0
6789 -6792 -6871 0
6789 -6790 -6792 0
6789 -6790 -6871 0
-6790 6661 6791 0
-6790 -6661 -6791 0
6790 -6661 6791 0
6790 6661 -6791 0
-6791 -6659 -6746 0
-6791 6659 6746 0
6791 6659 -6746 0
6791 -6659 6746 0
-6792 6793 6795 0
-6792 6795 6870 0
-6792 6793 6870 0
6792 -6795 -6870 0
6792 -6793 -6795 0
6792 -6793 -6870 0
-6793 6664 6794 0
-6793 -6664 -6794 0
6793 -6664 6794 0
6793 6664 -6794 0
-6794 -6662 -6745 0
-6794 6662 6745 0
6794 6662 -6745 0
6794 -6662 6745 0
-6795 6796 6798 0
-6795 6798 6869 0
-6795 6796 6869 0
6795 -6798 -6869 0
6795 -6796 -6798 0
6795 -6796 -6869 0
-6796 6667 6797 0
-6796 -6667 -6797 0
6796 -6667 6797 0
6796 6667 -6797 0
-6797 -6665 -6744 0
-6797 6665 6744 0
6797 6665 -6744 0
6797 -6665 6744 0
-6798 6799 6801 0
-6798 6801 6868 0
-6798 6799 6868 0
6798 -6801 -6868 0
6798 -6799 -6801 0
6798 -6799 -6868 0
-6799 6670 6800 0
-6799 -6670 -6800 0
6799 -6670 6800 0
6799 6670 -6800 0
-6800 -6668 -6743 0
-6800 6668 6743 0
6800 6668 -6743 0
6800 -6668 6743 0
-6801 6802 6804 0
-6801 6804 6867 0
-6801 6802 6867 0
6801 -6804 -6867 0
6801 -6802 -6804 0
6801 -6802 -6867 0
-6802 6673 6803 0
-6802 -6673 -6803 0
6802 -6673 6803 0
6802 6673 -6803 0
-6803 -6671 -6742 0
-6803 6671 6742 0
6803 6671 -6742 0
6803 -6671 6742 0
-6804 6805 6807 0
-6804 6807 6866 0
-6804 6805 6866 0
6804 -6807 -6866 0
6804 -6805 -6807 0
6804 -6805 -6866 0
-6805 6676 6806 0
-6805 -6676 -6806 0
6805 -6676 6806 0
6805 6676 -6806 0
-6806 -6674 -6741 0
-6806 6674 6741 0
6806 6674 -6741 0
6806 -6674 6741 0
-6807 6808 6810 0
-6807 6810 6865 0
-6807 6808 6865 0
6807 -6810 -6865 0
6807 -6808 -6810 0
6807 -6808 -6865 0
-6808 6679 6809 0
-6808 -6679 -6809 0
6808 -6679 6809 0
6808 6679 -6809 0
-6809 -6677 -6740 0
-6809 6677 6740 0
6809 6677 -6740 0
6809 -6677 6740 0
-6810 6811 6813 0
-6810 6813 6864 0
-6810 6811 6864 0
6810 -6813 -6864 0
6810 -6811 -6813 0
6810 -6811 -6864 0
-6811 6682 6812 0
-6811 -6682 -6812 0
6811 -6682 6812 0
6811 6682 -6812 0
-6812 -6680 -6739 0
-6812 6680 6739 0
6812 6680 -6739 0
6812 -6680 6739 0
-6813 6814 6816 0
-6813 6816 6863 0
-6813 6814 6863 0
6813 -6816 -6863 0
6813 -6814 -6816 0
6813 -6814 -6863 0
-6814 6685 6815 0
-6814 -6685 -6815 0
6814 -6685 6815 0
6814 6685 -6815 0
-6815 -6683 -6738 0
-6815 6683 6738 0
6815 6683 -6738 0
6815 -6683 6738 0
-6816 6817 6819 0
-6816 6819 6862 0
-6816 6817 6862 0
6816 -6819 -6862 0
6816 -6817 -6819 0
6816 -6817 -6862 0
-6817 6688 6818 0
-6817 -6688 -6818 0
6817 -6688 6818 0
6817 6688 -6818 0
-6818 -6686 -6737 0
-6818 6686 6737 0
6818 6686 -6737 0
6818 -6686 6737 0
-6819 6820 6822 0
-6819 6822 6861 0
-6819 6820 6861 0
6819 -6822 -6861 0
6819 -6820 -6822 0
6819 -6820 -6861 0
-6820 6691 6821 0
-6820 -6691 -6821 0
6820 -6691 6821 0
6820 6691 -6821 0
-6821 -6689 -6736 0
-6821 6689 6736 0
6821 6689 -6736 0
6821 -6689 6736 0
-6822 6823 6825 0
-6822 6825 6860 0
-6822 6823 6860 0
6822 -6825 -6860 0
6822 -6823 -6825 0
6822 -6823 -6860 0
-6823 6694 6824 0
-6823 -6694 -6824 0
6823 -6694 6824 0
6823 6694 -6824 0
-6824 -6692 -6735 0
-6824 6692 6735 0
6824 6692 -6735 0
6824 -6692 6735 0
-6825 6826 6828 0
-6825 6828 6859 0
-6825 6826 6859 0
6825 -6828 -6859 0
6825 -6826 -6828 0
6825 -6826 -6859 0
-6826 6697 6827 0
-6826 -6697 -6827 0
6826 -6697 6827 0
6826 6697 -6827 0
-6827 -6695 -6734 0
-6827 6695 6734 0
6827 6695 -6734 0
6827 -6695 6734 0
-6828 6829 6831 0
-6828 6831 6858 0
-6828 6829 6858 0
6828 -6831 -6858 0
6828 -6829 -6831 0
6828 -6829 -6858 0
-6829 6700 6830 0
-6829 -6700 -6830 0
6829 -6700 6830 0
6829 6700 -6830 0
-6830 -6698 -6733 0
-6830 6698 6733 0
6830 6698 -6733 0
6830 -6698 6733 0
-6831 6832 6834 0
-6831 6834 6857 0
-6831 6832 6857 0
6831 -6834 -6857 0
6831 -6832 -6834 0
6831 -6832 -6857 0
-6832 6703 6833 0
-6832 -6703 -6833 0
6832 -6703 6833 0
6832 6703 -6833 0
-6833 -6701 -6732 0
-6833 6701 6732 0
6833 6701 -6732 0
6833 -6701 6732 0
-6834 6835 6837 0
-6834 6837 6856 0
-6834 6835 6856 0
6834 -6837 -6856 0
6834 -6835 -6837 0
6834 -6835 -6856 0
-6835 6706 6836 0
-6835 -6706 -6836 0
6835 -6706 6836 0
6835 6706 -6836 0
-6836 -6704 -6731 0
-6836 6704 6731 0
6836 6704 -6731 0
6836 -6704 6731 0
-6837 6838 6840 0
-6837 6840 6855 0
-6837 6838 6855 0
6837 -6840 -6855 0
6837 -6838 -6840 0
6837 -6838 -6855 0
-6838 6709 6839 0
-6838 -6709 -6839 0
6838 -6709 6839 0
6838 6709 -6839 0
-6839 -6707 -6730 0
-6839 6707 6730 0
6839 6707 -6730 0
6839 -6707 6730 0
-6840 6841 6843 0
-6840 6843 6854 0
-6840 6841 6854 0
6840 -6843 -6854 0
6840 -6841 -6843 0
6840 -6841 -6854 0
-6841 6712 6842 0
-6841 -6712 -6842 0
6841 -6712 6842 0
6841 6712 -6842 0
-6842 -6710 -6729 0
-6842 6710 6729 0
6842 6710 -6729 0
6842 -6710 6729 0
-6843 6844 6846 0
-6843 6846 6853 0
-6843 6844 6853 0
6843 -6846 -6853 0
6843 -6844 -6846 0
6843 -6844 -6853 0
-6844 6715 6845 0
-6844 -6715 -6845 0
6844 -6715 6845 0
6844 6715 -6845 0
-6845 -6713 -6728 0
-6845 6713 6728 0
6845 6713 -6728 0
6845 -6713 6728 0
-6846 6849 6852 0
-6846 6847 6849 0
-6846 6847 6852 0
6846 -6847 -6849 0
6846 -6849 -6852 0
6846 -6847 -6852 0
-6847 6718 6848 0
-6847 -6718 -6848 0
6847 -6718 6848 0
6847 6718 -6848 0
-6848 -6716 -6727 0
-6848 6716 6727 0
6848 6716 -6727 0
6848 -6716 6727 0
6849 -1649 -6850 0
-6849 1649 0
-6849 6850 0
-6850 6721 6851 0
-6850 -6721 -6851 0
6850 -6721 6851 0
6850 6721 -6851 0
-6851 -6719 -6726 0
-6851 6719 6726 0
6851 6719 -6726 0
6851 -6719 6726 0
6852 9869 -9870 -1650 0
6852 -9870 9911 -1650 0
6852 -9869 9870 -9911 -1650 0
-6852 9870 9911 0
-6852 9869 9870 0
-6852 1650 0
-6852 -9869 -9870 -9911 0
6853 -9871 9911 -1650 0
6853 -9871 69 -1650 0
6853 9871 -9911 -69 -1650 0
-6853 9871 69 0
-6853 -9871 -9911 -69 0
-6853 1650 0
-6853 9871 9911 0
6854 -9872 9911 -1650 0
6854 -9872 68 -1650 0
6854 9872 -9911 -68 -1650 0
-6854 9872 68 0
-6854 -9872 -9911 -68 0
-6854 1650 0
-6854 9872 9911 0
6855 -9873 9911 -1650 0
6855 -9873 67 -1650 0
6855 9873 -9911 -67 -1650 0
-6855 9873 67 0
-6855 -9873 -9911 -67 0
-6855 1650 0
-6855 9873 9911 0
6856 -9874 9911 -1650 0
6856 -9874 66 -1650 0
6856 9874 -9911 -66 -1650 0
-6856 9874 66 0
-6856 -9874 -9911 -66 0
-6856 1650 0
-6856 9874 9911 0
6857 -9875 9911 -1650 0
6857 -9875 65 -1650 0
6857 9875 -9911 -65 -1650 0
-6857 9875 65 0
-6857 -9875 -9911 -65 0
-6857 1650 0
-6857 9875 9911 0
6858 -9876 9911 -1650 0
6858 -9876 64 -1650 0
6858 9876 -9911 -64 -1650 0
-6858 9876 64 0
-6858 -9876 -9911 -64 0
-6858 1650 0
-6858 9876 9911 0
6859 -9877 9911 -1650 0
6859 -9877 63 -1650 0
6859 9877 -9911 -63 -1650 0
-6859 9877 63 0
-6859 -9877 -9911 -63 0
-6859 1650 0
-6859 9877 9911 0
6860 -9878 9911 -1650 0
6860 -9878 62 -1650 0
6860 9878 -9911 -62 -1650 0
-6860 9878 62 0
-6860 -9878 -9911 -62 0
-6860 1650 0
-6860 9878 9911 0
6861 -9879 9911 -1650 0
6861 -9879 61 -1650 0
6861 9879 -9911 -61 -1650 0
-6861 9879 61 0
-6861 -9879 -9911 -61 0
-6861 1650 0
-6861 9879 9911 0
6862 -9880 9911 -1650 0
6862 -9880 60 -1650 0
6862 9880 -9911 -60 -1650 0
-6862 9880 60 0
-6862 -9880 -9911 -60 0
-6862 1650 0
-6862 9880 9911 0
6863 -9881 9911 -1650 0
6863 -9881 59 -1650 0
6863 9881 -9911 -59 -1650 0
-6863 9881 59 0
-6863 -9881 -9911 -59 0
-6863 1650 0
-6863 9881 9911 0
6864 -9882 9911 -1650 0
6864 -9882 58 -1650 0
6864 9882 -9911 -58 -1650 0
-6864 9882 58 0
-6864 -9882 -9911 -58 0
-6864 1650 0
-6864 9882 9911 0
6865 -9883 9911 -1650 0
6865 -9883 57 -1650 0
6865 9883 -9911 -57 -1650 0
-6865 9883 57 0
-6865 -9883 -9911 -57 0
-6865 1650 0
-6865 9883 9911 0
6866 -9884 9911 -1650 0
6866 -9884 56 -1650 0
6866 9884 -9911 -56 -1650 0
-6866 9884 56 0
-6866 -9884 -9911 -56 0
-6866 1650 0
-6866 9884 9911 0
6867 -9885 9911 -1650 0
6867 -9885 55 -1650 0
6867 9885 -9911 -55 -1650 0
-6867 9885 55 0
-6867 -9885 -9911 -55 0
-6867 1650 0
-6867 9885 9911 0
6868 -9886 9911 -1650 0
6868 -9886 54 -1650 0
6868 9886 -9911 -54 -1650 0
-6868 9886 54 0
-6868 -9886 -9911 -54 0
-6868 1650 0
-6868 9886 9911 0
6869 -9887 9911 -1650 0
6869 -9887 53 -1650 0
6869 9887 -9911 -53 -1650 0
-6869 9887 53 0
-6869 -9887 -9911 -53 0
-6869 1650 0
-6869 9887 9911 0
6870 -9888 9911 -1650 0
6870 -9888 52 -1650 0
6870 9888 -9911 -52 -1650 0
-6870 9888 52 0
-6870 -9888 -9911 -52 0
-6870 1650 0
-6870 9888 9911 0
6871 -9889 9911 -1650 0
6871 -9889 51 -1650 0
6871 9889 -9911 -51 -1650 0
-6871 9889 51 0
-6871 -9889 -9911 -51 0
-6871 1650 0
-6871 9889 9911 0
6872 -9890 9911 -1650 0
6872 -9890 50 -1650 0
6872 9890 -9911 -50 -1650 0
-6872 9890 50 0
-6872 -9890 -9911 -50 0
-6872 1650 0
-6872 9890 9911 0
6873 -9891 9911 -1650 0
6873 -9891 49 -1650 0
6873 9891 -9911 -49 -1650 0
-6873 9891 49 0
-6873 -9891 -9911 -49 0
-6873 1650 0
-6873 9891 9911 0
6874 -9892 9911 -1650 0
6874 -9892 48 -1650 0
6874 9892 -9911 -48 -1650 0
-6874 9892 48 0
-6874 -9892 -9911 -48 0
-6874 1650 0
-6874 9892 9911 0
6875 -9893 9911 -1650 0
6875 -9893 47 -1650 0
6875 9893 -9911 -47 -1650 0
-6875 9893 47 0
-6875 -9893 -9911 -47 0
-6875 1650 0
-6875 9893 9911 0
6876 -9894 9911 -1650 0
6876 -9894 46 -1650 0
6876 9894 -9911 -46 -1650 0
-6876 9894 46 0
-6876 -9894 -9911 -46 0
-6876 1650 0
-6876 9894 9911 0
6877 -9895 9911 -1650 0
6877 -9895 45 -1650 0
6877 9895 -9911 -45 -1650 0
-6877 9895 45 0
-6877 -9895 -9911 -45 0
-6877 1650 0
-6877 9895 9911 0
6878 -9896 9911 -1650 0
6878 -9896 44 -1650 0
6878 9896 -9911 -44 -1650 0
-6878 9896 44 0
-6878 -9896 -9911 -44 0
-6878 1650 0
-6878 9896 9911 0
6879 -9897 9911 -1650 0
6879 -9897 43 -1650 0
6879 9897 -9911 -43 -1650 0
-6879 9897 43 0
-6879 -9897 -9911 -43 0
-6879 1650 0
-6879 9897 9911 0
6880 -9898 9911 -1650 0
6880 -9898 42 -1650 0
6880 9898 -9911 -42 -1650 0
-6880 9898 42 0
-6880 -9898 -9911 -42 0
-6880 1650 0
-6880 9898 9911 0
6881 -9899 9911 -1650 0
6881 -9899 41 -1650 0
6881 9899 -9911 -41 -1650 0
-6881 9899 41 0
-6881 -9899 -9911 -41 0
-6881 1650 0
-6881 9899 9911 0
6882 -9900 9911 -1650 0
6882 -9900 40 -1650 0
6882 9900 -9911 -40 -1650 0
-6882 9900 40 0
-6882 -9900 -9911 -40 0
-6882 1650 0
-6882 9900 9911 0
6883 9911 -9912 -39 0
-6883 -9911 0
-6883 9912 0
-6883 39 0
-6884 5625 6885 0
-6884 6885 7010 0
-6884 5625 7010 0
6884 -6885 -7010 0
6884 -5625 -6885 0
6884 -5625 -7010 0
-6885 6886 6888 0
-6885 6888 7009 0
-6885 6886 7009 0
6885 -6888 -7009 0
6885 -6886 -6888 0
6885 -6886 -7009 0
-6886 6759 6887 0
-6886 -6759 -6887 0
6886 -6759 6887 0
6886 6759 -6887 0
-6887 -5627 -6882 0
-6887 5627 6882 0
6887 5627 -6882 0
6887 -5627 6882 0
-6888 6889 6891 0
-6888 6891 7008 0
-6888 6889 7008 0
6888 -6891 -7008 0
6888 -6889 -6891 0
6888 -6889 -7008 0
-6889 6762 6890 0
-6889 -6762 -6890 0
6889 -6762 6890 0
6889 6762 -6890 0
-6890 -6760 -6881 0
-6890 6760 6881 0
6890 6760 -6881 0
6890 -6760 6881 0
-6891 6892 6894 0
-6891 6894 7007 0
-6891 6892 7007 0
6891 -6894 -7007 0
6891 -6892 -6894 0
6891 -6892 -7007 0
-6892 6765 6893 0
-6892 -6765 -6893 0
6892 -6765 6893 0
6892 6765 -6893 0
-6893 -6763 -6880 0
-6893 6763 6880 0
6893 6763 -6880 0
6893 -6763 6880 0
-6894 6895 6897 0
-6894 6897 7006 0
-6894 6895 7006 0
6894 -6897 -7006 0
6894 -6895 -6897 0
6894 -6895 -7006 0
-6895 6768 6896 0
-6895 -6768 -6896 0
6895 -6768 6896 0
6895 6768 -6896 0
-6896 -6766 -6879 0
-6896 6766 6879 0
6896 6766 -6879 0
6896 -6766 6879 0
-6897 6898 6900 0
-6897 6900 7005 0
-6897 6898 7005 0
6897 -6900 -7005 0
6897 -6898 -6900 0
6897 -6898 -7005 0
-6898 6771 6899 0
-6898 -6771 -6899 0
6898 -6771 6899 0
6898 6771 -6899 0
-6899 -6769 -6878 0
-6899 6769 6878 0
6899 6769 -6878 0
6899 -6769 6878 0
-6900 6901 6903 0
-6900 6903 7004 0
-6900 6901 7004 0
6900 -6903 -7004 0
6900 -6901 -6903 0
6900 -6901 -7004 0
-6901 6774 6902 0
-6901 -6774 -6902 0
6901 -6774 6902 0
6901 6774 -6902 0
-6902 -6772 -6877 0
-6902 6772 6877 0
6902 6772 -6877 0
6902 -6772 6877 0
-6903 6904 6906 0
-6903 6906 7003 0
-6903 6904 7003 0
6903 -6906 -7003 0
6903 -6904 -6906 0
6903 -6904 -7003 0
-6904 6777 6905 0
-6904 -6777 -6905 0
6904 -6777 6905 0
6904 6777 -6905 0
-6905 -6775 -6876 0
-6905 6775 6876 0
6905 6775 -6876 0
6905 -6775 6876 0
-6906 6907 6909 0
-6906 6909 7002 0
-6906 6907 7002 0
6906 -6909 -7002 0
6906 -6907 -6909 0
6906 -6907 -7002 0
-6907 6780 6908 0
-6907 -6780 -6908 0
6907 -6780 6908 0
6907 6780 -6908 0
-6908 -6778 -6875 0
-6908 6778 6875 0
6908 6778 -6875 0
6908 -6778 6875 0
-6909 6910 6912 0
-6909 6912 7001 0
-6909 6910 7001 0
6909 -6912 -7001 0
6909 -6910 -6912 0
6909 -6910 -7001 0
-6910 6783 6911 0
-6910 -6783 -6911 0
6910 -6783 6911 0
6910 6783 -6911 0
-6911 -6781 -6874 0
-6911 6781 6874 0
6911 6781 -6874 0
6911 -6781 6874 0
-6912 6913 6915 0
-6912 6915 7000 0
-6912 6913 7000 0
6912 -6915 -7000 0
6912 -6913 -6915 0
6912 -6913 -7000 0
-6913 6786 6914 0
-6913 -6786 -6914 0
6913 -6786 6914 0
6913 6786 -6914 0
-6914 -6784 -6873 0
-6914 6784 6873 0
6914 6784 -6873 0
6914 -6784 6873 0
-6915 6916 6918 0
-6915 6918 6999 0
-6915 6916 6999 0
6915 -6918 -6999 0
6915 -6916 -6918 0
6915 -6916 -6999 0
-6916 6789 6917 0
-6916 -6789 -6917 0
6916 -6789 6917 0
6916 6789 -6917 0
-6917 -6787 -6872 0
-6917 6787 6872 0
6917 6787 -6872 0
6917 -6787 6872 0
-6918 6919 6921 0
-6918 6921 6998 0
-6918 6919 6998 0
6918 -6921 -6998 0
6918 -6919 -6921 0
6918 -6919 -6998 0
-6919 6792 6920 0
-6919 -6792 -6920 0
6919 -6792 6920 0
6919 6792 -6920 0
-6920 -6790 -6871 0
-6920 6790 6871 0
6920 6790 -6871 0
6920 -6790 6871 0
-6921 6922 6924 0
-6921 6924 6997 0
-6921 6922 6997 0
6921 -6924 -6997 0
6921 -6922 -6924 0
6921 -6922 -6997 0
-6922 6795 6923 0
-6922 -6795 -6923 0
6922 -6795 6923 0
6922 6795 -6923 0
-6923 -6793 -6870 0
-6923 6793 6870 0
6923 6793 -6870 0
6923 -6793 6870 0
-6924 6925 6927 0
-6924 6927 6996 0
-6924 6925 6996 0
6924 -6927 -6996 0
6924 -6925 -6927 0
6924 -6925 -6996 0
-6925 6798 6926 0
-6925 -6798 -6926 0
6925 -6798 6926 0
6925 6798 -6926 0
-6926 -6796 -6869 0
-6926 6796 6869 0
6926 6796 -6869 0
6926 -6796 6869 0
-6927 6928 6930 0
-6927 6930 6995 0
-6927 6928 6995 0
6927 -6930 -6995 0
6927 -6928 -6930 0
6927 -6928 -6995 0
-6928 6801 6929 0
-6928 -6801 -6929 0
6928 -6801 6929 0
6928 6801 -6929 0
-6929 -6799 -6868 0
-6929 6799 6868 0
6929 6799 -6868 0
6929 -6799 6868 0
-6930 6931 6933 0
-6930 6933 6994 0
-6930 6931 6994 0
6930 -6933 -6994 0
6930 -6931 -6933 0
6930 -6931 -6994 0
-6931 6804 6932 0
-6931 -6804 -6932 0
6931 -6804 6932 0
6931 6804 -6932 0
-6932 -6802 -6867 0
-6932 6802 6867 0
6932 6802 -6867 0
6932 -6802 6867 0
-6933 6934 6936 0
-6933 6936 6993 0
-6933 6934 6993 0
6933 -6936 -6993 0
6933 -6934 -6936 0
6933 -6934 -6993 0
-6934 6807 6935 0
-6934 -6807 -6935 0
6934 -6807 6935 0
6934 6807 -6935 0
-6935 -6805 -6866 0
-6935 6805 6866 0
6935 6805 -6866 0
6935 -6805 6866 0
-6936 6937 6939 0
-6936 6939 6992 0
-6936 6937 6992 0
6936 -6939 -6992 0
6936 -6937 -6939 0
6936 -6937 -6992 0
-6937 6810 6938 0
-6937 -6810 -6938 0
6937 -6810 6938 0
6937 6810 -6938 0
-6938 -6808 -6865 0
-6938 6808 6865 0
6938 6808 -6865 0
6938 -6808 6865 0
-6939 6940 6942 0
-6939 6942 6991 0
-6939 6940 6991 0
6939 -6942 -6991 0
6939 -6940 -6942 0
6939 -6940 -6991 0
-6940 6813 6941 0
-6940 -6813 -6941 0
6940 -6813 6941 0
6940 6813 -6941 0
-6941 -6811 -6864 0
-6941 6811 6864 0
6941 6811 -6864 0
6941 -6811 6864 0
-6942 6943 6945 0
-6942 6945 6990 0
-6942 6943 6990 0
6942 -6945 -6990 0
6942 -6943 -6945 0
6942 -6943 -6990 0
-6943 6816 6944 0
-6943 -6816 -6944 0
6943 -6816 6944 0
6943 6816 -6944 0
-6944 -6814 -6863 0
-6944 6814 6863 0
6944 6814 -6863 0
6944 -6814 6863 0
-6945 6946 6948 0
-6945 6948 6989 0
-6945 6946 6989 0
6945 -6948 -6989 0
6945 -6946 -6948 0
6945 -6946 -6989 0
-6946 6819 6947 0
-6946 -6819 -6947 0
6946 -6819 6947 0
6946 6819 -6947 0
-6947 -6817 -6862 0
-6947 6817 6862 0
6947 6817 -6862 0
6947 -6817 6862 0
-6948 6949 6951 0
-6948 6951 6988 0
-6948 6949 6988 0
6948 -6951 -6988 0
6948 -6949 -6951 0
6948 -6949 -6988 0
-6949 6822 6950 0
-6949 -6822 -6950 0
6949 -6822 6950 0
6949 6822 -6950 0
-6950 -6820 -6861 0
-6950 6820 6861 0
6950 6820 -6861 0
6950 -6820 6861 0
-6951 6952 6954 0
-6951 6954 6987 0
-6951 6952 6987 0
6951 -6954 -6987 0
6951 -6952 -6954 0
6951 -6952 -6987 0
-6952 6825 6953 0
-6952 -6825 -6953 0
6952 -6825 6953 0
6952 6825 -6953 0
-6953 -6823 -6860 0
-6953 6823 6860 0
6953 6823 -6860 0
6953 -6823 6860 0
-6954 6955 6957 0
-6954 6957 6986 0
-6954 6955 6986 0
6954 -6957 -6986 0
6954 -6955 -6957 0
6954 -6955 -6986 0
-6955 6828 6956 0
-6955 -6828 -6956 0
6955 -6828 6956 0
6955 6828 -6956 0
-6956 -6826 -6859 0
-6956 6826 6859 0
6956 6826 -6859 0
6956 -6826 6859 0
-6957 6958 6960 0
-6957 6960 6985 0
-6957 6958 6985 0
6957 -6960 -6985 0
6957 -6958 -6960 0
6957 -6958 -6985 0
-6958 6831 6959 0
-6958 -6831 -6959 0
6958 -6831 6959 0
6958 6831 -6959 0
-6959 -6829 -6858 0
-6959 6829 6858 0
6959 6829 -6858 0
6959 -6829 6858 0
-6960 6961 6963 0
-6960 6963 6984 0
-6960 6961 6984 0
6960 -6963 -6984 0
6960 -6961 -6963 0
6960 -6961 -6984 0
-6961 6834 6962 0
-6961 -6834 -6962 0
6961 -6834 6962 0
6961 6834 -6962 0
-6962 -6832 -6857 0
-6962 6832 6857 0
6962 6832 -6857 0
6962 -6832 6857 0
-6963 6964 6966 0
-6963 6966 6983 0
-6963 6964 6983 0
6963 -6966 -6983 0
6963 -6964 -6966 0
6963 -6964 -6983 0
-6964 6837 6965 0
-6964 -6837 -6965 0
6964 -6837 6965 0
6964 6837 -6965 0
-6965 -6835 -6856 0
-6965 6835 6856 0
6965 6835 -6856 0
6965 -6835 6856 0
-6966 6967 6969 0
-6966 6969 6982 0
-6966 6967 6982 0
6966 -6969 -6982 0
6966 -6967 -6969 0
6966 -6967 -6982 0
-6967 6840 6968 0
-6967 -6840 -6968 0
6967 -6840 6968 0
6967 6840 -6968 0
-6968 -6838 -6855 0
-6968 6838 6855 0
6968 6838 -6855 0
6968 -6838 6855 0
-6969 6970 6972 0
-6969 6972 6981 0
-6969 6970 6981 0
6969 -6972 -6981 0
6969 -6970 -6972 0
6969 -6970 -6981 0
-6970 6843 6971 0
-6970 -6843 -6971 0
6970 -6843 6971 0
6970 6843 -6971 0
-6971 -6841 -6854 0
-6971 6841 6854 0
6971 6841 -6854 0
6971 -6841 6854 0
-6972 6975 6980 0
-6972 6973 6975 0
-6972 6973 6980 0
6972 -6973 -6975 0
6972 -6975 -6980 0
6972 -6973 -6980 0
-6973 6846 6974 0
-6973 -6846 -6974 0
6973 -6846 6974 0
6973 6846 -6974 0
-6974 -6844 -6853 0
-6974 6844 6853 0
6974 6844 -6853 0
6974 -6844 6853 0
6975 -6976 -6978 0
-6975 6976 0
-6975 6978 0
6976 -9869 -6977 0
-6976 9869 0
-6976 6977 0
-6977 -9911 -9912 0
-6977 9911 9912 0
6977 9911 -9912 0
6977 -9911 9912 0
-6978 6849 6979 0
-6978 -6849 -6979 0
6978 -6849 6979 0
6978 6849 -6979 0
-6979 -6847 -6852 0
-6979 6847 6852 0
6979 6847 -6852 0
6979 -6847 6852 0
6980 9869 -9870 -6977 0
6980 -9870 9912 -6977 0
6980 -9869 9870 -9912 -6977 0
-6980 9870 9912 0
-6980 9869 9870 0
-6980 6977 0
-6980 -9869 -9870 -9912 0
6981 -9871 9912 -6977 0
6981 -9871 69 -6977 0
6981 9871 -9912 -69 -6977 0
-6981 9871 69 0
-6981 -9871 -9912 -69 0
-6981 6977 0
-6981 9871 9912 0
6982 -9872 9912 -6977 0
6982 -9872 68 -6977 0
6982 9872 -9912 -68 -6977 0
-6982 9872 68 0
-6982 -9872 -9912 -68 0
-6982 6977 0
-6982 9872 9912 0
6983 -9873 9912 -6977 0
6983 -9873 67 -6977 0
6983 9873 -9912 -67 -6977 0
-6983 9873 67 0
-6983 -9873 -9912 -67 0
-6983 6977 0
-6983 9873 9912 0
6984 -9874 9912 -6977 0
6984 -9874 66 -6977 0
6984 9874 -9912 -66 -6977 0
-6984 9874 66 0
-6984 -9874 -9912 -66 0
-6984 6977 0
-6984 9874 9912 0
6985 -9875 9912 -6977 0
6985 -9875 65 -6977 0
6985 9875 -9912 -65 -6977 0
-6985 9875 65 0
-6985 -9875 -9912 -65 0
-6985 6977 0
-6985 9875 9912 0
6986 -9876 9912 -6977 0
6986 -9876 64 -6977 0
6986 9876 -9912 -64 -6977 0
-6986 9876 64 0
-6986 -9876 -9912 -64 0
-6986 6977 0
-6986 9876 9912 0
6987 -9877 9912 -6977 0
6987 -9877 63 -6977 0
6987 9877 -9912 -63 -6977 0
-6987 9877 63 0
-6987 -9877 -9912 -63 0
-6987 6977 0
-6987 9877 9912 0
6988 -9878 9912 -6977 0
6988 -9878 62 -6977 0
6988 9878 -9912 -62 -6977 0
-6988 9878 62 0
-6988 -9878 -9912 -62 0
-6988 6977 0
-6988 9878 9912 0
6989 -9879 9912 -6977 0
6989 -9879 61 -6977 0
6989 9879 -9912 -61 -6977 0
-6989 9879 61 0
-6989 -9879 -9912 -61 0
-6989 6977 0
-6989 9879 9912 0
6990 -9880 9912 -6977 0
6990 -9880 60 -6977 0
6990 9880 -9912 -60 -6977 0
-6990 9880 60 0
-6990 -9880 -9912 -60 0
-6990 6977 0
-6990 9880 9912 0
6991 -9881 9912 -6977 0
6991 -9881 59 -6977 0
6991 9881 -9912 -59 -6977 0
-6991 9881 59 0
-6991 -9881 -9912 -59 0
-6991 6977 0
-6991 9881 9912 0
6992 -9882 9912 -6977 0
6992 -9882 58 -6977 0
6992 9882 -9912 -58 -6977 0
-6992 9882 58 0
-6992 -9882 -9912 -58 0
-6992 6977 0
-6992 9882 9912 0
6993 -9883 9912 -6977 0
6993 -9883 57 -6977 0
6993 9883 -9912 -57 -6977 0
-6993 9883 57 0
-6993 -9883 -9912 -57 0
-6993 6977 0
-6993 9883 9912 0
6994 -9884 9912 -6977 0
6994 -9884 56 -6977 0
6994 9884 -9912 -56 -6977 0
-6994 9884 56 0
-6994 -9884 -9912 -56 0
-6994 6977 0
-6994 9884 9912 0
6995 -9885 9912 -6977 0
6995 -9885 55 -6977 0
6995 9885 -9912 -55 -6977 0
-6995 9885 55 0
-6995 -9885 -9912 -55 0
-6995 6977 0
-6995 9885 9912 0
6996 -9886 9912 -6977 0
6996 -9886 54 -6977 0
6996 9886 -9912 -54 -6977 0
-6996 9886 54 0
-6996 -9886 -9912 -54 0
-6996 6977 0
-6996 9886 9912 0
6997 -9887 9912 -6977 0
6997 -9887 53 -6977 0
6997 9887 -9912 -53 -6977 0
-6997 9887 53 0
-6997 -9887 -9912 -53 0
-6997 6977 0
-6997 9887 9912 0
6998 -9888 9912 -6977 0
6998 -9888 52 -6977 0
6998 9888 -9912 -52 -6977 0
-6998 9888 52 0
-6998 -9888 -9912 -52 0
-6998 6977 0
-6998 9888 9912 0
6999 -9889 9912 -6977 0
6999 -9889 51 -6977 0
6999 9889 -9912 -51 -6977 0
-6999 9889 51 0
-6999 -9889 -9912 -51 0
-6999 6977 0
-6999 9889 9912 0
7000 -9890 9912 -6977 0
7000 -9890 50 -6977 0
7000 9890 -9912 -50 -6977 0
-7000 9890 50 0
-7000 -9890 -9912 -50 0
-7000 6977 0
-7000 9890 9912 0
7001 -9891 9912 -6977 0
7001 -9891 49 -6977 0
7001 9891 -9912 -49 -6977 0
-7001 9891 49 0
-7001 -9891 -9912 -49 0
-7001 6977 0
-7001 9891 9912 0
7002 -9892 9912 -6977 0
7002 -9892 48 -6977 0
7002 9892 -9912 -48 -6977 0
-7002 9892 48 0
-7002 -9892 -9912 -48 0
-7002 6977 0
-7002 9892 9912 0
7003 -9893 9912 -6977 0
7003 -9893 47 -6977 0
7003 9893 -9912 -47 -6977 0
-7003 9893 47 0
-7003 -9893 -9912 -47 0
-7003 6977 0
-7003 9893 9912 0
7004 -9894 9912 -6977 0
7004 -9894 46 -6977 0
7004 9894 -9912 -46 -6977 0
-7004 9894 46 0
-7004 -9894 -9912 -46 0
-7004 6977 0
-7004 9894 9912 0
7005 -9895 9912 -6977 0
7005 -9895 45 -6977 0
7005 9895 -9912 -45 -6977 0
-7005 9895 45 0
-7005 -9895 -9912 -45 0
-7005 6977 0
-7005 9895 9912 0
7006 -9896 9912 -6977 0
7006 -9896 44 -6977 0
7006 9896 -9912 -44 -6977 0
-7006 9896 44 0
-7006 -9896 -9912 -44 0
-7006 6977 0
-7006 9896 9912 0
7007 -9897 9912 -6977 0
7007 -9897 43 -6977 0
7007 9897 -9912 -43 -6977 0
-7007 9897 43 0
-7007 -9897 -9912 -43 0
-7007 6977 0
-7007 9897 9912 0
7008 -9898 9912 -6977 0
7008 -9898 42 -6977 0
7008 9898 -9912 -42 -6977 0
-7008 9898 42 0
-7008 -9898 -9912 -42 0
-7008 6977 0
-7008 9898 9912 0
7009 -9899 9912 -6977 0
7009 -9899 41 -6977 0
7009 9899 -9912 -41 -6977 0
-7009 9899 41 0
-7009 -9899 -9912 -41 0
-7009 6977 0
-7009 9899 9912 0
7010 -9900 9912 -6977 0
7010 -9900 40 -6977 0
7010 9900 -9912 -40 -6977 0
-7010 9900 40 0
-7010 -9900 -9912 -40 0
-7010 6977 0
-7010 9900 9912 0
7011 9912 -9913 -39 0
-7011 -9912 0
-7011 9913 0
-7011 39 0
-7012 5623 7013 0
-7012 7013 7136 0
-7012 5623 7136 0
7012 -7013 -7136 0
7012 -5623 -7013 0
7012 -5623 -7136 0
-7013 7014 7016 0
-7013 7016 7135 0
-7013 7014 7135 0
7013 -7016 -7135 0
7013 -7014 -7016 0
7013 -7014 -7135 0
-7014 6885 7015 0
-7014 -6885 -7015 0
7014 -6885 7015 0
7014 6885 -7015 0
-7015 -5625 -7010 0
-7015 5625 7010 0
7015 5625 -7010 0
7015 -5625 7010 0
-7016 7017 7019 0
-7016 7019 7134 0
-7016 7017 7134 0
7016 -7019 -7134 0
7016 -7017 -7019 0
7016 -7017 -7134 0
-7017 6888 7018 0
-7017 -6888 -7018 0
7017 -6888 7018 0
7017 6888 -7018 0
-7018 -6886 -7009 0
-7018 6886 7009 0
7018 6886 -7009 0
7018 -6886 7009 0
-7019 7020 7022 0
-7019 7022 7133 0
-7019 7020 7133 0
7019 -7022 -7133 0
7019 -7020 -7022 0
7019 -7020 -7133 0
-7020 6891 7021 0
-7020 -6891 -7021 0
7020 -6891 7021 0
7020 6891 -7021 0
-7021 -6889 -7008 0
-7021 6889 7008 0
7021 6889 -7008 0
7021 -6889 7008 0
-7022 7023 7025 0
-7022 7025 7132 0
-7022 7023 7132 0
7022 -7025 -7132 0
7022 -7023 -7025 0
7022 -7023 -7132 0
-7023 6894 7024 0
-7023 -6894 -7024 0
7023 -6894 7024 0
7023 6894 -7024 0
-7024 -6892 -7007 0
-7024 6892 7007 0
7024 6892 -7007 0
7024 -6892 7007 0
-7025 7026 7028 0
-7025 7028 7131 0
-7025 7026 7131 0
7025 -7028 -7131 0
7025 -7026 -7028 0
7025 -7026 -7131 0
-7026 6897 7027 0
-7026 -6897 -7027 0
7026 -6897 7027 0
7026 6897 -7027 0
-7027 -6895 -7006 0
-7027 6895 7006 0
7027 6895 -7006 0
7027 -6895 7006 0
-7028 7029 7031 0
-7028 7031 7130 0
-7028 7029 7130 0
7028 -7031 -7130 0
7028 -7029 -7031 0
7028 -7029 -7130 0
-7029 6900 7030 0
-7029 -6900 -7030 0
7029 -6900 7030 0
7029 6900 -7030 0
-7030 -6898 -7005 0
-7030 6898 7005 0
7030 6898 -7005 0
7030 -6898 7005 0
-7031 7032 7034 0
-7031 7034 7129 0
-7031 7032 7129 0
7031 -7034 -7129 0
7031 -7032 -7034 0
7031 -7032 -7129 0
-7032 6903 7033 0
-7032 -6903 -7033 0
7032 -6903 7033 0
7032 6903 -7033 0
-7033 -6901 -7004 0
-7033 6901 7004 0
7033 6901 -7004 0
7033 -6901 7004 0
-7034 7035 7037 0
-7034 7037 7128 0
-7034 7035 7128 0
7034 -7037 -7128 0
7034 -7035 -7037 0
7034 -7035 -7128 0
-7035 6906 7036 0
-7035 -6906 -7036 0
7035 -6906 7036 0
7035 6906 -7036 0
-7036 -6904 -7003 0
-7036 6904 7003 0
7036 6904 -7003 0
7036 -6904 7003 0
-7037 7038 7040 0
-7037 7040 7127 0
-7037 7038 7127 0
7037 -7040 -7127 0
7037 -7038 -7040 0
7037 -7038 -7127 0
-7038 6909 7039 0
-7038 -6909 -7039 0
7038 -6909 7039 0
7038 6909 -7039 0
-7039 -6907 -7002 0
-7039 6907 7002 0
7039 6907 -7002 0
7039 -6907 7002 0
-7040 7041 7043 0
-7040 7043 7126 0
-7040 7041 7126 0
7040 -7043 -7126 0
7040 -7041 -7043 0
7040 -7041 -7126 0
-7041 6912 7042 0
-7041 -6912 -7042 0
7041 -6912 7042 0
7041 6912 -7042 0
-7042 -6910 -7001 0
-7042 6910 7001 0
7042 6910 -7001 0
7042 -6910 7001 0
-7043 7044 7046 0
-7043 7046 7125 0
-7043 7044 7125 0
7043 -7046 -7125 0
7043 -7044 -7046 0
7043 -7044 -7125 0
-7044 6915 7045 0
-7044 -6915 -7045 0
7044 -6915 7045 0
7044 6915 -7045 0
-7045 -6913 -7000 0
-7045 6913 7000 0
7045 6913 -7000 0
7045 -6913 7000 0
-7046 7047 7049 0
-7046 7049 7124 0
-7046 7047 7124 0
7046 -7049 -7124 0
7046 -7047 -7049 0
7046 -7047 -7124 0
-7047 6918 7048 0
-7047 -6918 -7048 0
7047 -6918 7048 0
7047 6918 -7048 0
-7048 -6916 -6999 0
-7048 6916 6999 0
7048 6916 -6999 0
7048 -6916 6999 0
-7049 7050 7052 0
-7049 7052 7123 0
-7049 7050 7123 0
7049 -7052 -7123 0
7049 -7050 -7052 0
7049 -7050 -7123 0
-7050 6921 7051 0
-7050 -6921 -7051 0
7050 -6921 7051 0
7050 6921 -7051 0
-7051 -6919 -6998 0
-7051 6919 6998 0
7051 6919 -6998 0
7051 -6919 6998 0
-7052 7053 7055 0
-7052 7055 7122 0
-7052 7053 7122 0
7052 -7055 -7122 0
7052 -7053 -7055 0
7052 -7053 -7122 0
-7053 6924 7054 0
-7053 -6924 -7054 0
7053 -6924 7054 0
7053 6924 -7054 0
-7054 -6922 -6997 0
-7054 6922 6997 0
7054 6922 -6997 0
7054 -6922 6997 0
-7055 7056 7058 0
-7055 7058 7121 0
-7055 7056 7121 0
7055 -7058 -7121 0
7055 -7056 -7058 0
7055 -7056 -7121 0
-7056 6927 7057 0
-7056 -6927 -7057 0
7056 -6927 7057 0
7056 6927 -7057 0
-7057 -6925 -6996 0
-7057 6925 6996 0
7057 6925 -6996 0
7057 -6925 6996 0
-7058 7059 7061 0
-7058 7061 7120 0
-7058 7059 7120 0
7058 -7061 -7120 0
7058 -7059 -7061 0
7058 -7059 -7120 0
-7059 6930 7060 0
-7059 -6930 -7060 0
7059 -6930 7060 0
7059 6930 -7060 0
-7060 -6928 -6995 0
-7060 6928 6995 0
7060 6928 -6995 0
7060 -6928 6995 0
-7061 7062 7064 0
-7061 7064 7119 0
-7061 7062 7119 0
7061 -7064 -7119 0
7061 -7062 -7064 0
7061 -7062 -7119 0
-7062 6933 7063 0
-7062 -6933 -7063 0
7062 -6933 7063 0
7062 6933 -7063 0
-7063 -6931 -6994 0
-7063 6931 6994 0
7063 6931 -6994 0
7063 -6931 6994 0
-7064 7065 7067 0
-7064 7067 7118 0
-7064 7065 7118 0
7064 -7067 -7118 0
7064 -7065 -7067 0
7064 -7065 -7118 0
-7065 6936 7066 0
-7065 -6936 -7066 0
7065 -6936 7066 0
7065 6936 -7066 0
-7066 -6934 -6993 0
-7066 6934 6993 0
7066 6934 -6993 0
7066 -6934 6993 0
-7067 7068 7070 0
-7067 7070 7117 0
-7067 7068 7117 0
7067 -7070 -7117 0
7067 -7068 -7070 0
7067 -7068 -7117 0
-7068 6939 7069 0
-7068 -6939 -7069 0
7068 -6939 7069 0
7068 6939 -7069 0
-7069 -6937 -6992 0
-7069 6937 6992 0
7069 6937 -6992 0
7069 -6937 6992 0
-7070 7071 7073 0
-7070 7073 7116 0
-7070 7071 7116 0
7070 -7073 -7116 0
7070 -7071 -7073 0
7070 -7071 -7116 0
-7071 6942 7072 0
-7071 -6942 -7072 0
7071 -6942 7072 0
7071 6942 -7072 0
-7072 -6940 -6991 0
-7072 6940 6991 0
7072 6940 -6991 0
7072 -6940 6991 0
-7073 7074 7076 0
-7073 7076 7115 0
-7073 7074 7115 0
7073 -7076 -7115 0
7073 -7074 -7076 0
7073 -7074 -7115 0
-7074 6945 7075 0
-7074 -6945 -7075 0
7074 -6945 7075 0
7074 6945 -7075 0
-7075 -6943 -6990 0
-7075 6943 6990 0
7075 6943 -6990 0
7075 -6943 6990 0
-7076 7077 7079 0
-7076 7079 7114 0
-7076 7077 7114 0
7076 -7079 -7114 0
7076 -7077 -7079 0
7076 -7077 -7114 0
-7077 6948 7078 0
-7077 -6948 -7078 0
7077 -6948 7078 0
7077 6948 -7078 0
-7078 -6946 -6989 0
-7078 6946 6989 0
7078 6946 -6989 0
7078 -6946 6989 0
-7079 7080 7082 0
-7079 7082 7113 0
-7079 7080 7113 0
7079 -7082 -7113 0
7079 -7080 -7082 0
7079 -7080 -7113 0
-7080 6951 7081 0
-7080 -6951 -7081 0
7080 -6951 7081 0
7080 6951 -7081 0
-7081 -6949 -6988 0
-7081 6949 6988 0
7081 6949 -6988 0
7081 -6949 6988 0
-7082 7083 7085 0
-7082 7085 7112 0
-7082 7083 7112 0
7082 -7085 -7112 0
7082 -7083 -7085 0
7082 -7083 -7112 0
-7083 6954 7084 0
-7083 -6954 -7084 0
7083 -6954 7084 0
7083 6954 -7084 0
-7084 -6952 -6987 0
-7084 6952 6987 0
7084 6952 -6987 0
7084 -6952 6987 0
-7085 7086 7088 0
-7085 7088 7111 0
-7085 7086 7111 0
7085 -7088 -7111 0
7085 -7086 -7088 0
7085 -7086 -7111 0
-7086 6957 7087 0
-7086 -6957 -7087 0
7086 -6957 7087 0
7086 6957 -7087 0
-7087 -6955 -6986 0
-7087 6955 6986 0
7087 6955 -6986 0
7087 -6955 6986 0
-7088 7089 7091 0
-7088 7091 7110 0
-7088 7089 7110 0
7088 -7091 -7110 0
7088 -7089 -7091 0
7088 -7089 -7110 0
-7089 6960 7090 0
-7089 -6960 -7090 0
7089 -6960 7090 0
7089 6960 -7090 0
-7090 -6958 -6985 0
-7090 6958 6985 0
7090 6958 -6985 0
7090 -6958 6985 0
-7091 7092 7094 0
-7091 7094 7109 0
-7091 7092 7109 0
7091 -7094 -7109 0
7091 -7092 -7094 0
7091 -7092 -7109 0
-7092 6963 7093 0
-7092 -6963 -7093 0
7092 -6963 7093 0
7092 6963 -7093 0
-7093 -6961 -6984 0
-7093 6961 6984 0
7093 6961 -6984 0
7093 -6961 6984 0
-7094 7095 7097 0
-7094 7097 7108 0
-7094 7095 7108 0
7094 -7097 -7108 0
7094 -7095 -7097 0
7094 -7095 -7108 0
-7095 6966 7096 0
-7095 -6966 -7096 0
7095 -6966 7096 0
7095 6966 -7096 0
-7096 -6964 -6983 0
-7096 6964 6983 0
7096 6964 -6983 0
7096 -6964 6983 0
-7097 7098 7100 0
-7097 7100 7107 0
-7097 7098 7107 0
7097 -7100 -7107 0
7097 -7098 -7100 0
7097 -7098 -7107 0
-7098 6969 7099 0
-7098 -6969 -7099 0
7098 -6969 7099 0
7098 6969 -7099 0
-7099 -6967 -6982 0
-7099 6967 6982 0
7099 6967 -6982 0
7099 -6967 6982 0
-7100 7103 7106 0
-7100 7101 7103 0
-7100 7101 7106 0
7100 -7101 -7103 0
7100 -7103 -7106 0
7100 -7101 -7106 0
-7101 6972 7102 0
-7101 -6972 -7102 0
7101 -6972 7102 0
7101 6972 -7102 0
-7102 -6970 -6981 0
-7102 6970 6981 0
7102 6970 -6981 0
7102 -6970 6981 0
7103 -2004 -7104 0
-7103 2004 0
-7103 7104 0
-7104 6975 7105 0
-7104 -6975 -7105 0
7104 -6975 7105 0
7104 6975 -7105 0
-7105 -6973 -6980 0
-7105 6973 6980 0
7105 6973 -6980 0
7105 -6973 6980 0
7106 9869 -9870 -2005 0
7106 -9870 9913 -2005 0
7106 -9869 9870 -9913 -2005 0
-7106 9870 9913 0
-7106 9869 9870 0
-7106 2005 0
-7106 -9869 -9870 -9913 0
7107 -9871 9913 -2005 0
7107 -9871 69 -2005 0
7107 9871 -9913 -69 -2005 0
-7107 9871 69 0
-7107 -9871 -9913 -69 0
-7107 2005 0
-7107 9871 9913 0
7108 -9872 9913 -2005 0
7108 -9872 68 -2005 0
7108 9872 -9913 -68 -2005 0
-7108 9872 68 0
-7108 -9872 -9913 -68 0
-7108 2005 0
-7108 9872 9913 0
7109 -9873 9913 -2005 0
7109 -9873 67 -2005 0
7109 9873 -9913 -67 -2005 0
-7109 9873 67 0
-7109 -9873 -9913 -67 0
-7109 2005 0
-7109 9873 9913 0
7110 -9874 9913 -2005 0
7110 -9874 66 -2005 0
7110 9874 -9913 -66 -2005 0
-7110 9874 66 0
-7110 -9874 -9913 -66 0
-7110 2005 0
-7110 9874 9913 0
7111 -9875 9913 -2005 0
7111 -9875 65 -2005 0
7111 9875 -9913 -65 -2005 0
-7111 9875 65 0
-7111 -9875 -9913 -65 0
-7111 2005 0
-7111 9875 9913 0
7112 -9876 9913 -2005 0
7112 -9876 64 -2005 0
7112 9876 -9913 -64 -2005 0
-7112 9876 64 0
-7112 -9876 -9913 -64 0
-7112 2005 0
-7112 9876 9913 0
7113 -9877 9913 -2005 0
7113 -9877 63 -2005 0
7113 9877 -9913 -63 -2005 0
-7113 9877 63 0
-7113 -9877 -9913 -63 0
-7113 2005 0
-7113 9877 9913 0
7114 -9878 9913 -2005 0
7114 -9878 62 -2005 0
7114 9878 -9913 -62 -2005 0
-7114 9878 62 0
-7114 -9878 -9913 -62 0
-7114 2005 0
-7114 9878 9913 0
7115 -9879 9913 -2005 0
7115 -9879 61 -2005 0
7115 9879 -9913 -61 -2005 0
-7115 9879 61 0
-7115 -9879 -9913 -61 0
-7115 2005 0
-7115 9879 9913 0
7116 -9880 9913 -2005 0
7116 -9880 60 -2005 0
7116 9880 -9913 -60 -2005 0
-7116 9880 60 0
-7116 -9880 -9913 -60 0
-7116 2005 0
-7116 9880 9913 0
7117 -9881 9913 -2005 0
7117 -9881 59 -2005 0
7117 9881 -9913 -59 -2005 0
-7117 9881 59 0
-7117 -9881 -9913 -59 0
-7117 2005 0
-7117 9881 9913 0
7118 -9882 9913 -2005 0
7118 -9882 58 -2005 0
7118 9882 -9913 -58 -2005 0
-7118 9882 58 0
-7118 -9882 -9913 -58 0
-7118 2005 0
-7118 9882 9913 0
7119 -9883 9913 -2005 0
7119 -9883 57 -2005 0
7119 9883 -9913 -57 -2005 0
-7119 9883 57 0
-7119 -9883 -9913 -57 0
-7119 2005 0
-7119 9883 9913 0
7120 -9884 9913 -2005 0
7120 -9884 56 -2005 0
7120 9884 -9913 -56 -2005 0
-7120 9884 56 0
-7120 -9884 -9913 -56 0
-7120 2005 0
-7120 9884 9913 0
7121 -9885 9913 -2005 0
7121 -9885 55 -2005 0
7121 9885 -9913 -55 -2005 0
-7121 9885 55 0
-7121 -9885 -9913 -55 0
-7121 2005 0
-7121 9885 9913 0
7122 -9886 9913 -2005 0
7122 -9886 54 -2005 0
7122 9886 -9913 -54 -2005 0
-7122 9886 54 0
-7122 -9886 -9913 -54 0
-7122 2005 0
-7122 9886 9913 0
7123 -9887 9913 -2005 0
7123 -9887 53 -2005 0
7123 9887 -9913 -53 -2005 0
-7123 9887 53 0
-7123 -9887 -9913 -53 0
-7123 2005 0
-7123 9887 9913 0
7124 -9888 9913 -2005 0
7124 -9888 52 -2005 0
7124 9888 -9913 -52 -2005 0
-7124 9888 52 0
-7124 -9888 -9913 -52 0
-7124 2005 0
-7124 9888 9913 0
7125 -9889 9913 -2005 0
7125 -9889 51 -2005 0
7125 9889 -9913 -51 -2005 0
-7125 9889 51 0
-7125 -9889 -9913 -51 0
-7125 2005 0
-7125 9889 9913 0
7126 -9890 9913 -2005 0
7126 -9890 50 -2005 0
7126 9890 -9913 -50 -2005 0
-7126 9890 50 0
-7126 -9890 -9913 -50 0
-7126 2005 0
-7126 9890 9913 0
7127 -9891 9913 -2005 0
7127 -9891 49 -2005 0
7127 9891 -9913 -49 -2005 0
-7127 9891 49 0
-7127 -9891 -9913 -49 0
-7127 2005 0
-7127 9891 9913 0
7128 -9892 9913 -2005 0
7128 -9892 48 -2005 0
7128 9892 -9913 -48 -2005 0
-7128 9892 48 0
-7128 -9892 -9913 -48 0
-7128 2005 0
-7128 9892 9913 0
7129 -9893 9913 -2005 0
7129 -9893 47 -2005 0
7129 9893 -9913 -47 -2005 0
-7129 9893 47 0
-7129 -9893 -9913 -47 0
-7129 2005 0
-7129 9893 9913 0
7130 -9894 9913 -2005 0
7130 -9894 46 -2005 0
7130 9894 -9913 -46 -2005 0
-7130 9894 46 0
-7130 -9894 -9913 -46 0
-7130 2005 0
-7130 9894 9913 0
7131 -9895 9913 -2005 0
7131 -9895 45 -2005 0
7131 9895 -9913 -45 -2005 0
-7131 9895 45 0
-7131 -9895 -9913 -45 0
-7131 2005 0
-7131 9895 9913 0
7132 -9896 9913 -2005 0
7132 -9896 44 -2005 0
7132 9896 -9913 -44 -2005 0
-7132 9896 44 0
-7132 -9896 -9913 -44 0
-7132 2005 0
-7132 9896 9913 0
7133 -9897 9913 -2005 0
7133 -9897 43 -2005 0
7133 9897 -9913 -43 -2005 0
-7133 9897 43 0
-7133 -9897 -9913 -43 0
-7133 2005 0
-7133 9897 9913 0
7134 -9898 9913 -2005 0
7134 -9898 42 -2005 0
7134 9898 -9913 -42 -2005 0
-7134 9898 42 0
-7134 -9898 -9913 -42 0
-7134 2005 0
-7134 9898 9913 0
7135 -9899 9913 -2005 0
7135 -9899 41 -2005 0
7135 9899 -9913 -41 -2005 0
-7135 9899 41 0
-7135 -9899 -9913 -41 0
-7135 2005 0
-7135 9899 9913 0
7136 -9900 9913 -2005 0
7136 -9900 40 -2005 0
7136 9900 -9913 -40 -2005 0
-7136 9900 40 0
-7136 -9900 -9913 -40 0
-7136 2005 0
-7136 9900 9913 0
7137 9913 -9914 -39 0
-7137 -9913 0
-7137 9914 0
-7137 39 0
-7138 5621 7139 0
-7138 7139 7264 0
-7138 5621 7264 0
7138 -7139 -7264 0
7138 -5621 -7139 0
7138 -5621 -7264 0
-7139 7140 7142 0
-7139 7142 7263 0
-7139 7140 7263 0
7139 -7142 -7263 0
7139 -7140 -7142 0
7139 -7140 -7263 0
-7140 7013 7141 0
-7140 -7013 -7141 0
7140 -7013 7141 0
7140 7013 -7141 0
-7141 -5623 -7136 0
-7141 5623 7136 0
7141 5623 -7136 0
7141 -5623 7136 0
-7142 7143 7145 0
-7142 7145 7262 0
-7142 7143 7262 0
7142 -7145 -7262 0
7142 -7143 -7145 0
7142 -7143 -7262 0
-7143 7016 7144 0
-7143 -7016 -7144 0
7143 -7016 7144 0
7143 7016 -7144 0
-7144 -7014 -7135 0
-7144 7014 7135 0
7144 7014 -7135 0
7144 -7014 7135 0
-7145 7146 7148 0
-7145 7148 7261 0
-7145 7146 7261 0
7145 -7148 -7261 0
7145 -7146 -7148 0
7145 -7146 -7261 0
-7146 7019 7147 0
-7146 -7019 -7147 0
7146 -7019 7147 0
7146 7019 -7147 0
-7147 -7017 -7134 0
-7147 7017 7134 0
7147 7017 -7134 0
7147 -7017 7134 0
-7148 7149 7151 0
-7148 7151 7260 0
-7148 7149 7260 0
7148 -7151 -7260 0
7148 -7149 -7151 0
7148 -7149 -7260 0
-7149 7022 7150 0
-7149 -7022 -7150 0
7149 -7022 7150 0
7149 7022 -7150 0
-7150 -7020 -7133 0
-7150 7020 7133 0
7150 7020 -7133 0
7150 -7020 7133 0
-7151 7152 7154 0
-7151 7154 7259 0
-7151 7152 7259 0
7151 -7154 -7259 0
7151 -7152 -7154 0
7151 -7152 -7259 0
-7152 7025 7153 0
-7152 -7025 -7153 0
7152 -7025 7153 0
7152 7025 -7153 0
-7153 -7023 -7132 0
-7153 7023 7132 0
7153 7023 -7132 0
7153 -7023 7132 0
-7154 7155 7157 0
-7154 7157 7258 0
-7154 7155 7258 0
7154 -7157 -7258 0
7154 -7155 -7157 0
7154 -7155 -7258 0
-7155 7028 7156 0
-7155 -7028 -7156 0
7155 -7028 7156 0
7155 7028 -7156 0
-7156 -7026 -7131 0
-7156 7026 7131 0
7156 7026 -7131 0
7156 -7026 7131 0
-7157 7158 7160 0
-7157 7160 7257 0
-7157 7158 7257 0
7157 -7160 -7257 0
7157 -7158 -7160 0
7157 -7158 -7257 0
-7158 7031 7159 0
-7158 -7031 -7159 0
7158 -7031 7159 0
7158 7031 -7159 0
-7159 -7029 -7130 0
-7159 7029 7130 0
7159 7029 -7130 0
7159 -7029 7130 0
-7160 7161 7163 0
-7160 7163 7256 0
-7160 7161 7256 0
7160 -7163 -7256 0
7160 -7161 -7163 0
7160 -7161 -7256 0
-7161 7034 7162 0
-7161 -7034 -7162 0
7161 -7034 7162 0
7161 7034 -7162 0
-7162 -7032 -7129 0
-7162 7032 7129 0
7162 7032 -7129 0
7162 -7032 7129 0
-7163 7164 7166 0
-7163 7166 7255 0
-7163 7164 7255 0
7163 -7166 -7255 0
7163 -7164 -7166 0
7163 -7164 -7255 0
-7164 7037 7165 0
-7164 -7037 -7165 0
7164 -7037 7165 0
7164 7037 -7165 0
-7165 -7035 -7128 0
-7165 7035 7128 0
7165 7035 -7128 0
7165 -7035 7128 0
-7166 7167 7169 0
-7166 7169 7254 0
-7166 7167 7254 0
7166 -7169 -7254 0
7166 -7167 -7169 0
7166 -7167 -7254 0
-7167 7040 7168 0
-7167 -7040 -7168 0
7167 -7040 7168 0
7167 7040 -7168 0
-7168 -7038 -7127 0
-7168 7038 7127 0
7168 7038 -7127 0
7168 -7038 7127 0
-7169 7170 7172 0
-7169 7172 7253 0
-7169 7170 7253 0
7169 -7172 -7253 0
7169 -7170 -7172 0
7169 -7170 -7253 0
-7170 7043 7171 0
-7170 -7043 -7171 0
7170 -7043 7171 0
7170 7043 -7171 0
-7171 -7041 -7126 0
-7171 7041 7126 0
7171 7041 -7126 0
7171 -7041 7126 0
-7172 7173 7175 0
-7172 7175 7252 0
-7172 7173 7252 0
7172 -7175 -7252 0
7172 -7173 -7175 0
7172 -7173 -7252 0
-7173 7046 7174 0
-7173 -7046 -7174 0
7173 -7046 7174 0
7173 7046 -7174 0
-7174 -7044 -7125 0
-7174 7044 7125 0
7174 7044 -7125 0
7174 -7044 7125 0
-7175 7176 7178 0
-7175 7178 7251 0
-7175 7176 7251 0
7175 -7178 -7251 0
7175 -7176 -7178 0
7175 -7176 -7251 0
-7176 7049 7177 0
-7176 -7049 -7177 0
7176 -7049 7177 0
7176 7049 -7177 0
-7177 -7047 -7124 0
-7177 7047 7124 0
7177 7047 -7124 0
7177 -7047 7124 0
-7178 7179 7181 0
-7178 7181 7250 0
-7178 7179 7250 0
7178 -7181 -7250 0
7178 -7179 -7181 0
7178 -7179 -7250 0
-7179 7052 7180 0
-7179 -7052 -7180 0
7179 -7052 7180 0
7179 7052 -7180 0
-7180 -7050 -7123 0
-7180 7050 7123 0
7180 7050 -7123 0
7180 -7050 7123 0
-7181 7182 7184 0
-7181 7184 7249 0
-7181 7182 7249 0
7181 -7184 -7249 0
7181 -7182 -7184 0
7181 -7182 -7249 0
-7182 7055 7183 0
-7182 -7055 -7183 0
7182 -7055 7183 0
7182 7055 -7183 0
-7183 -7053 -7122 0
-7183 7053 7122 0
7183 7053 -7122 0
7183 -7053 7122 0
-7184 7185 7187 0
-7184 7187 7248 0
-7184 7185 7248 0
7184 -7187 -7248 0
7184 -7185 -7187 0
7184 -7185 -7248 0
-7185 7058 7186 0
-7185 -7058 -7186 0
7185 -7058 7186 0
7185 7058 -7186 0
-7186 -7056 -7121 0
-7186 7056 7121 0
7186 7056 -7121 0
7186 -7056 7121 0
-7187 7188 7190 0
-7187 7190 7247 0
-7187 7188 7247 0
7187 -7190 -7247 0
7187 -7188 -7190 0
7187 -7188 -7247 0
-7188 7061 7189 0
-7188 -7061 -7189 0
7188 -7061 7189 0
7188 7061 -7189 0
-7189 -7059 -7120 0
-7189 7059 7120 0
7189 7059 -7120 0
7189 -7059 7120 0
-7190 7191 7193 0
-7190 7193 7246 0
-7190 7191 7246 0
7190 -7193 -7246 0
7190 -7191 -7193 0
7190 -7191 -7246 0
-7191 7064 7192 0
-7191 -7064 -7192 0
7191 -7064 7192 0
7191 7064 -7192 0
-7192 -7062 -7119 0
-7192 7062 7119 0
7192 7062 -7119 0
7192 -7062 7119 0
-7193 7194 7196 0
-7193 7196 7245 0
-7193 7194 7245 0
7193 -7196 -7245 0
7193 -7194 -7196 0
7193 -7194 -7245 0
-7194 7067 7195 0
-7194 -7067 -7195 0
7194 -7067 7195 0
7194 7067 -7195 0
-7195 -7065 -7118 0
-7195 7065 7118 0
7195 7065 -7118 0
7195 -7065 7118 0
-7196 7197 7199 0
-7196 7199 7244 0
-7196 7197 7244 0
7196 -7199 -7244 0
7196 -7197 -7199 0
7196 -7197 -7244 0
-7197 7070 7198 0
-7197 -7070 -7198 0
7197 -7070 7198 0
7197 7070 -7198 0
-7198 -7068 -7117 0
-7198 7068 7117 0
7198 7068 -7117 0
7198 -7068 7117 0
-7199 7200 7202 0
-7199 7202 7243 0
-7199 7200 7243 0
7199 -7202 -7243 0
7199 -7200 -7202 0
7199 -7200 -7243 0
-7200 7073 7201 0
-7200 -7073 -7201 0
7200 -7073 7201 0
7200 7073 -7201 0
-7201 -7071 -7116 0
-7201 7071 7116 0
7201 7071 -7116 0
7201 -7071 7116 0
-7202 7203 7205 0
-7202 7205 7242 0
-7202 7203 7242 0
7202 -7205 -7242 0
7202 -7203 -7205 0
7202 -7203 -7242 0
-7203 7076 7204 0
-7203 -7076 -7204 0
7203 -7076 7204 0
7203 7076 -7204 0
-7204 -7074 -7115 0
-7204 7074 7115 0
7204 7074 -7115 0
7204 -7074 7115 0
-7205 7206 7208 0
-7205 7208 7241 0
-7205 7206 7241 0
7205 -7208 -7241 0
7205 -7206 -7208 0
7205 -7206 -7241 0
-7206 7079 7207 0
-7206 -7079 -7207 0
7206 -7079 7207 0
7206 7079 -7207 0
-7207 -7077 -7114 0
-7207 7077 7114 0
7207 7077 -7114 0
7207 -7077 7114 0
-7208 7209 7211 0
-7208 7211 7240 0
-7208 7209 7240 0
7208 -7211 -7240 0
7208 -7209 -7211 0
7208 -7209 -7240 0
-7209 7082 7210 0
-7209 -7082 -7210 0
7209 -7082 7210 0
7209 7082 -7210 0
-7210 -7080 -7113 0
-7210 7080 7113 0
7210 7080 -7113 0
7210 -7080 7113 0
-7211 7212 7214 0
-7211 7214 7239 0
-7211 7212 7239 0
7211 -7214 -7239 0
7211 -7212 -7214 0
7211 -7212 -7239 0
-7212 7085 7213 0
-7212 -7085 -7213 0
7212 -7085 7213 0
7212 7085 -7213 0
-7213 -7083 -7112 0
-7213 7083 7112 0
7213 7083 -7112 0
7213 -7083 7112 0
-7214 7215 7217 0
-7214 7217 7238 0
-7214 7215 7238 0
7214 -7217 -7238 0
7214 -7215 -7217 0
7214 -7215 -7238 0
-7215 7088 7216 0
-7215 -7088 -7216 0
7215 -7088 7216 0
7215 7088 -7216 0
-7216 -7086 -7111 0
-7216 7086 7111 0
7216 7086 -7111 0
7216 -7086 7111 0
-7217 7218 7220 0
-7217 7220 7237 0
-7217 7218 7237 0
7217 -7220 -7237 0
7217 -7218 -7220 0
7217 -7218 -7237 0
-7218 7091 7219 0
-7218 -7091 -7219 0
7218 -7091 7219 0
7218 7091 -7219 0
-7219 -7089 -7110 0
-7219 7089 7110 0
7219 7089 -7110 0
7219 -7089 7110 0
-7220 7221 7223 0
-7220 7223 7236 0
-7220 7221 7236 0
7220 -7223 -7236 0
7220 -7221 -7223 0
7220 -7221 -7236 0
-7221 7094 7222 0
-7221 -7094 -7222 0
7221 -7094 7222 0
7221 7094 -7222 0
-7222 -7092 -7109 0
-7222 7092 7109 0
7222 7092 -7109 0
7222 -7092 7109 0
-7223 7224 7226 0
-7223 7226 7235 0
-7223 7224 7235 0
7223 -7226 -7235 0
7223 -7224 -7226 0
7223 -7224 -7235 0
-7224 7097 7225 0
-7224 -7097 -7225 0
7224 -7097 7225 0
7224 7097 -7225 0
-7225 -7095 -7108 0
-7225 7095 7108 0
7225 7095 -7108 0
7225 -7095 7108 0
-7226 7229 7234 0
-7226 7227 7229 0
-7226 7227 7234 0
7226 -7227 -7229 0
7226 -7229 -7234 0
7226 -7227 -7234 0
-7227 7100 7228 0
-7227 -7100 -7228 0
7227 -7100 7228 0
7227 7100 -7228 0
-7228 -7098 -7107 0
-7228 7098 7107 0
7228 7098 -7107 0
7228 -7098 7107 0
7229 -7230 -7232 0
-7229 7230 0
-7229 7232 0
7230 -9869 -7231 0
-7230 9869 0
-7230 7231 0
-7231 -9913 -9914 0
-7231 9913 9914 0
7231 9913 -9914 0
7231 -9913 9914 0
-7232 7103 7233 0
-7232 -7103 -7233 0
7232 -7103 7233 0
7232 7103 -7233 0
-7233 -7101 -7106 0
-7233 7101 7106 0
7233 7101 -7106 0
7233 -7101 7106 0
7234 9869 -9870 -7231 0
7234 -9870 9914 -7231 0
7234 -9869 9870 -9914 -7231 0
-7234 9870 9914 0
-7234 9869 9870 0
-7234 7231 0
-7234 -9869 -9870 -9914 0
7235 -9871 9914 -7231 0
7235 -9871 69 -7231 0
7235 9871 -9914 -69 -7231 0
-7235 9871 69 0
-7235 -9871 -9914 -69 0
-7235 7231 0
-7235 9871 9914 0
7236 -9872 9914 -7231 0
7236 -9872 68 -7231 0
7236 9872 -9914 -68 -7231 0
-7236 9872 68 0
-7236 -9872 -9914 -68 0
-7236 7231 0
-7236 9872 9914 0
7237 -9873 9914 -7231 0
7237 -9873 67 -7231 0
7237 9873 -9914 -67 -7231 0
-7237 9873 67 0
-7237 -9873 -9914 -67 0
-7237 7231 0
-7237 9873 9914 0
7238 -9874 9914 -7231 0
7238 -9874 66 -7231 0
7238 9874 -9914 -66 -7231 0
-7238 9874 66 0
-7238 -9874 -9914 -66 0
-7238 7231 0
-7238 9874 9914 0
7239 -9875 9914 -7231 0
7239 -9875 65 -7231 0
7239 9875 -9914 -65 -7231 0
-7239 9875 65 0
-7239 -9875 -9914 -65 0
-7239 7231 0
-7239 9875 9914 0
7240 -9876 9914 -7231 0
7240 -9876 64 -7231 0
7240 9876 -9914 -64 -7231 0
-7240 9876 64 0
-7240 -9876 -9914 -64 0
-7240 7231 0
-7240 9876 9914 0
7241 -9877 9914 -7231 0
7241 -9877 63 -7231 0
7241 9877 -9914 -63 -7231 0
-7241 9877 63 0
-7241 -9877 -9914 -63 0
-7241 7231 0
-7241 9877 9914 0
7242 -9878 9914 -7231 0
7242 -9878 62 -7231 0
7242 9878 -9914 -62 -7231 0
-7242 9878 62 0
-7242 -9878 -9914 -62 0
-7242 7231 0
-7242 9878 9914 0
7243 -9879 9914 -7231 0
7243 -9879 61 -7231 0
7243 9879 -9914 -61 -7231 0
-7243 9879 61 0
-7243 -9879 -9914 -61 0
-7243 7231 0
-7243 9879 9914 0
7244 -9880 9914 -7231 0
7244 -9880 60 -7231 0
7244 9880 -9914 -60 -7231 0
-7244 9880 60 0
-7244 -9880 -9914 -60 0
-7244 7231 0
-7244 9880 9914 0
7245 -9881 9914 -7231 0
7245 -9881 59 -7231 0
7245 9881 -9914 -59 -7231 0
-7245 9881 59 0
-7245 -9881 -9914 -59 0
-7245 7231 0
-7245 9881 9914 0
7246 -9882 9914 -7231 0
7246 -9882 58 -7231 0
7246 9882 -9914 -58 -7231 0
-7246 9882 58 0
-7246 -9882 -9914 -58 0
-7246 7231 0
-7246 9882 9914 0
7247 -9883 9914 -7231 0
7247 -9883 57 -7231 0
7247 9883 -9914 -57 -7231 0
-7247 9883 57 0
-7247 -9883 -9914 -57 0
-7247 7231 0
-7247 9883 9914 0
7248 -9884 9914 -7231 0
7248 -9884 56 -7231 0
7248 9884 -9914 -56 -7231 0
-7248 9884 56 0
-7248 -9884 -9914 -56 0
-7248 7231 0
-7248 9884 9914 0
7249 -9885 9914 -7231 0
7249 -9885 55 -7231 0
7249 9885 -9914 -55 -7231 0
-7249 9885 55 0
-7249 -9885 -9914 -55 0
-7249 7231 0
-7249 9885 9914 0
7250 -9886 9914 -7231 0
7250 -9886 54 -7231 0
7250 9886 -9914 -54 -7231 0
-7250 9886 54 0
-7250 -9886 -9914 -54 0
-7250 7231 0
-7250 9886 9914 0
7251 -9887 9914 -7231 0
7251 -9887 53 -7231 0
7251 9887 -9914 -53 -7231 0
-7251 9887 53 0
-7251 -9887 -9914 -53 0
-7251 7231 0
-7251 9887 9914 0
7252 -9888 9914 -7231 0
7252 -9888 52 -7231 0
7252 9888 -9914 -52 -7231 0
-7252 9888 52 0
-7252 -9888 -9914 -52 0
-7252 7231 0
-7252 9888 9914 0
7253 -9889 9914 -7231 0
7253 -9889 51 -7231 0
7253 9889 -9914 -51 -7231 0
-7253 9889 51 0
-7253 -9889 -9914 -51 0
-7253 7231 0
-7253 9889 9914 0
7254 -9890 9914 -7231 0
7254 -9890 50 -7231 0
7254 9890 -9914 -50 -7231 0
-7254 9890 50 0
-7254 -9890 -9914 -50 0
-7254 7231 0
-7254 9890 9914 0
7255 -9891 9914 -7231 0
7255 -9891 49 -7231 0
7255 9891 -9914 -49 -7231 0
-7255 9891 49 0
-7255 -9891 -9914 -49 0
-7255 7231 0
-7255 9891 9914 0
7256 -9892 9914 -7231 0
7256 -9892 48 -7231 0
7256 9892 -9914 -48 -7231 0
-7256 9892 48 0
-7256 -9892 -9914 -48 0
-7256 7231 0
-7256 9892 9914 0
7257 -9893 9914 -7231 0
7257 -9893 47 -7231 0
7257 9893 -9914 -47 -7231 0
-7257 9893 47 0
-7257 -9893 -9914 -47 0
-7257 7231 0
-7257 9893 9914 0
7258 -9894 9914 -7231 0
7258 -9894 46 -7231 0
7258 9894 -9914 -46 -7231 0
-7258 9894 46 0
-7258 -9894 -9914 -46 0
-7258 7231 0
-7258 9894 9914 0
7259 -9895 9914 -7231 0
7259 -9895 45 -7231 0
7259 9895 -9914 -45 -7231 0
-7259 9895 45 0
-7259 -9895 -9914 -45 0
-7259 7231 0
-7259 9895 9914 0
7260 -9896 9914 -7231 0
7260 -9896 44 -7231 0
7260 9896 -9914 -44 -7231 0
-7260 9896 44 0
-7260 -9896 -9914 -44 0
-7260 7231 0
-7260 9896 9914 0
7261 -9897 9914 -7231 0
7261 -9897 43 -7231 0
7261 9897 -9914 -43 -7231 0
-7261 9897 43 0
-7261 -9897 -9914 -43 0
-7261 7231 0
-7261 9897 9914 0
7262 -9898 9914 -7231 0
7262 -9898 42 -7231 0
7262 9898 -9914 -42 -7231 0
-7262 9898 42 0
-7262 -9898 -9914 -42 0
-7262 7231 0
-7262 9898 9914 0
7263 -9899 9914 -7231 0
7263 -9899 41 -7231 0
7263 9899 -9914 -41 -7231 0
-7263 9899 41 0
-7263 -9899 -9914 -41 0
-7263 7231 0
-7263 9899 9914 0
7264 -9900 9914 -7231 0
7264 -9900 40 -7231 0
7264 9900 -9914 -40 -7231 0
-7264 9900 40 0
-7264 -9900 -9914 -40 0
-7264 7231 0
-7264 9900 9914 0
7265 9914 -9915 -39 0
-7265 -9914 0
-7265 9915 0
-7265 39 0
-7266 5619 7267 0
-7266 7267 7390 0
-7266 5619 7390 0
7266 -7267 -7390 0
7266 -5619 -7267 0
7266 -5619 -7390 0
-7267 7268 7270 0
-7267 7270 7389 0
-7267 7268 7389 0
7267 -7270 -7389 0
7267 -7268 -7270 0
7267 -7268 -7389 0
-7268 7139 7269 0
-7268 -7139 -7269 0
7268 -7139 7269 0
7268 7139 -7269 0
-7269 -5621 -7264 0
-7269 5621 7264 0
7269 5621 -7264 0
7269 -5621 7264 0
-7270 7271 7273 0
-7270 7273 7388 0
-7270 7271 7388 0
7270 -7273 -7388 0
7270 -7271 -7273 0
7270 -7271 -7388 0
-7271 7142 7272 0
-7271 -7142 -7272 0
7271 -7142 7272 0
7271 7142 -7272 0
-7272 -7140 -7263 0
-7272 7140 7263 0
7272 7140 -7263 0
7272 -7140 7263 0
-7273 7274 7276 0
-7273 7276 7387 0
-7273 7274 7387 0
7273 -7276 -7387 0
7273 -7274 -7276 0
7273 -7274 -7387 0
-7274 7145 7275 0
-7274 -7145 -7275 0
7274 -7145 7275 0
7274 7145 -7275 0
-7275 -7143 -7262 0
-7275 7143 7262 0
7275 7143 -7262 0
7275 -7143 7262 0
-7276 7277 7279 0
-7276 7279 7386 0
-7276 7277 7386 0
7276 -7279 -7386 0
7276 -7277 -7279 0
7276 -7277 -7386 0
-7277 7148 7278 0
-7277 -7148 -7278 0
7277 -7148 7278 0
7277 7148 -7278 0
-7278 -7146 -7261 0
-7278 7146 7261 0
7278 7146 -7261 0
7278 -7146 7261 0
-7279 7280 7282 0
-7279 7282 7385 0
-7279 7280 7385 0
7279 -7282 -7385 0
7279 -7280 -7282 0
7279 -7280 -7385 0
-7280 7151 7281 0
-7280 -7151 -7281 0
7280 -7151 7281 0
7280 7151 -7281 0
-7281 -7149 -7260 0
-7281 7149 7260 0
7281 7149 -7260 0
7281 -7149 7260 0
-7282 7283 7285 0
-7282 7285 7384 0
-7282 7283 7384 0
7282 -7285 -7384 0
7282 -7283 -7285 0
7282 -7283 -7384 0
-7283 7154 7284 0
-7283 -7154 -7284 0
7283 -7154 7284 0
7283 7154 -7284 0
-7284 -7152 -7259 0
-7284 7152 7259 0
7284 7152 -7259 0
7284 -7152 7259 0
-7285 7286 7288 0
-7285 7288 7383 0
-7285 7286 7383 0
7285 -7288 -7383 0
7285 -7286 -7288 0
7285 -7286 -7383 0
-7286 7157 7287 0
-7286 -7157 -7287 0
7286 -7157 7287 0
7286 7157 -7287 0
-7287 -7155 -7258 0
-7287 7155 7258 0
7287 7155 -7258 0
7287 -7155 7258 0
-7288 7289 7291 0
-7288 7291 7382 0
-7288 7289 7382 0
7288 -7291 -7382 0
7288 -7289 -7291 0
7288 -7289 -7382 0
-7289 7160 7290 0
-7289 -7160 -7290 0
7289 -7160 7290 0
7289 7160 -7290 0
-7290 -7158 -7257 0
-7290 7158 7257 0
7290 7158 -7257 0
7290 -7158 7257 0
-7291 7292 7294 0
-7291 7294 7381 0
-7291 7292 7381 0
7291 -7294 -7381 0
7291 -7292 -7294 0
7291 -7292 -7381 0
-7292 7163 7293 0
-7292 -7163 -7293 0
7292 -7163 7293 0
7292 7163 -7293 0
-7293 -7161 -7256 0
-7293 7161 7256 0
7293 7161 -7256 0
7293 -7161 7256 0
-7294 7295 7297 0
-7294 7297 7380 0
-7294 7295 7380 0
7294 -7297 -7380 0
7294 -7295 -7297 0
7294 -7295 -7380 0
-7295 7166 7296 0
-7295 -7166 -7296 0
7295 -7166 7296 0
7295 7166 -7296 0
-7296 -7164 -7255 0
-7296 7164 7255 0
7296 7164 -7255 0
7296 -7164 7255 0
-7297 7298 7300 0
-7297 7300 7379 0
-7297 7298 7379 0
7297 -7300 -7379 0
7297 -7298 -7300 0
7297 -7298 -7379 0
-7298 7169 7299 0
-7298 -7169 -7299 0
7298 -7169 7299 0
7298 7169 -7299 0
-7299 -7167 -7254 0
-7299 7167 7254 0
7299 7167 -7254 0
7299 -7167 7254 0
-7300 7301 7303 0
-7300 7303 7378 0
-7300 7301 7378 0
7300 -7303 -7378 0
7300 -7301 -7303 0
7300 -7301 -7378 0
-7301 7172 7302 0
-7301 -7172 -7302 0
7301 -7172 7302 0
7301 7172 -7302 0
-7302 -7170 -7253 0
-7302 7170 7253 0
7302 7170 -7253 0
7302 -7170 7253 0
-7303 7304 7306 0
-7303 7306 7377 0
-7303 7304 7377 0
7303 -7306 -7377 0
7303 -7304 -7306 0
7303 -7304 -7377 0
-7304 7175 7305 0
-7304 -7175 -7305 0
7304 -7175 7305 0
7304 7175 -7305 0
-7305 -7173 -7252 0
-7305 7173 7252 0
7305 7173 -7252 0
7305 -7173 7252 0
-7306 7307 7309 0
-7306 7309 7376 0
-7306 7307 7376 0
7306 -7309 -7376 0
7306 -7307 -7309 0
7306 -7307 -7376 0
-7307 7178 7308 0
-7307 -7178 -7308 0
7307 -7178 7308 0
7307 7178 -7308 0
-7308 -7176 -7251 0
-7308 7176 7251 0
7308 7176 -7251 0
7308 -7176 7251 0
-7309 7310 7312 0
-7309 7312 7375 0
-7309 7310 7375 0
7309 -7312 -7375 0
7309 -7310 -7312 0
7309 -7310 -7375 0
-7310 7181 7311 0
-7310 -7181 -7311 0
7310 -7181 7311 0
7310 7181 -7311 0
-7311 -7179 -7250 0
-7311 7179 7250 0
7311 7179 -7250 0
7311 -7179 7250 0
-7312 7313 7315 0
-7312 7315 7374 0
-7312 7313 7374 0
7312 -7315 -7374 0
7312 -7313 -7315 0
7312 -7313 -7374 0
-7313 7184 7314 0
-7313 -7184 -7314 0
7313 -7184 7314 0
7313 7184 -7314 0
-7314 -7182 -7249 0
-7314 7182 7249 0
7314 7182 -7249 0
7314 -7182 7249 0
-7315 7316 7318 0
-7315 7318 7373 0
-7315 7316 7373 0
7315 -7318 -7373 0
7315 -7316 -7318 0
7315 -7316 -7373 0
-7316 7187 7317 0
-7316 -7187 -7317 0
7316 -7187 7317 0
7316 7187 -7317 0
-7317 -7185 -7248 0
-7317 7185 7248 0
7317 7185 -7248 0
7317 -7185 7248 0
-7318 7319 7321 0
-7318 7321 7372 0
-7318 7319 7372 0
7318 -7321 -7372 0
7318 -7319 -7321 0
7318 -7319 -7372 0
-7319 7190 7320 0
-7319 -7190 -7320 0
7319 -7190 7320 0
7319 7190 -7320 0
-7320 -7188 -7247 0
-7320 7188 7247 0
7320 7188 -7247 0
7320 -7188 7247 0
-7321 7322 7324 0
-7321 7324 7371 0
-7321 7322 7371 0
7321 -7324 -7371 0
7321 -7322 -7324 0
7321 -7322 -7371 0
-7322 7193 7323 0
-7322 -7193 -7323 0
7322 -7193 7323 0
7322 7193 -7323 0
-7323 -7191 -7246 0
-7323 7191 7246 0
7323 7191 -7246 0
7323 -7191 7246 0
-7324 7325 7327 0
-7324 7327 7370 0
-7324 7325 7370 0
7324 -7327 -7370 0
7324 -7325 -7327 0
7324 -7325 -7370 0
-7325 7196 7326 0
-7325 -7196 -7326 0
7325 -7196 7326 0
7325 7196 -7326 0
-7326 -7194 -7245 0
-7326 7194 7245 0
7326 7194 -7245 0
7326 -7194 7245 0
-7327 7328 7330 0
-7327 7330 7369 0
-7327 7328 7369 0
7327 -7330 -7369 0
7327 -7328 -7330 0
7327 -7328 -7369 0
-7328 7199 7329 0
-7328 -7199 -7329 0
7328 -7199 7329 0
7328 7199 -7329 0
-7329 -7197 -7244 0
-7329 7197 7244 0
7329 7197 -7244 0
7329 -7197 7244 0
-7330 7331 7333 0
-7330 7333 7368 0
-7330 7331 7368 0
7330 -7333 -7368 0
7330 -7331 -7333 0
7330 -7331 -7368 0
-7331 7202 7332 0
-7331 -7202 -7332 0
7331 -7202 7332 0
7331 7202 -7332 0
-7332 -7200 -7243 0
-7332 7200 7243 0
7332 7200 -7243 0
7332 -7200 7243 0
-7333 7334 7336 0
-7333 7336 7367 0
-7333 7334 7367 0
7333 -7336 -7367 0
7333 -7334 -7336 0
7333 -7334 -7367 0
-7334 7205 7335 0
-7334 -7205 -7335 0
7334 -7205 7335 0
7334 7205 -7335 0
-7335 -7203 -7242 0
-7335 7203 7242 0
7335 7203 -7242 0
7335 -7203 7242 0
-7336 7337 7339 0
-7336 7339 7366 0
-7336 7337 7366 0
7336 -7339 -7366 0
7336 -7337 -7339 0
7336 -7337 -7366 0
-7337 7208 7338 0
-7337 -7208 -7338 0
7337 -7208 7338 0
7337 7208 -7338 0
-7338 -7206 -7241 0
-7338 7206 7241 0
7338 7206 -7241 0
7338 -7206 7241 0
-7339 7340 7342 0
-7339 7342 7365 0
-7339 7340 7365 0
7339 -7342 -7365 0
7339 -7340 -7342 0
7339 -7340 -7365 0
-7340 7211 7341 0
-7340 -7211 -7341 0
7340 -7211 7341 0
7340 7211 -7341 0
-7341 -7209 -7240 0
-7341 7209 7240 0
7341 7209 -7240 0
7341 -7209 7240 0
-7342 7343 7345 0
-7342 7345 7364 0
-7342 7343 7364 0
7342 -7345 -7364 0
7342 -7343 -7345 0
7342 -7343 -7364 0
-7343 7214 7344 0
-7343 -7214 -7344 0
7343 -7214 7344 0
7343 7214 -7344 0
-7344 -7212 -7239 0
-7344 7212 7239 0
7344 7212 -7239 0
7344 -7212 7239 0
-7345 7346 7348 0
-7345 7348 7363 0
-7345 7346 7363 0
7345 -7348 -7363 0
7345 -7346 -7348 0
7345 -7346 -7363 0
-7346 7217 7347 0
-7346 -7217 -7347 0
7346 -7217 7347 0
7346 7217 -7347 0
-7347 -7215 -7238 0
-7347 7215 7238 0
7347 7215 -7238 0
7347 -7215 7238 0
-7348 7349 7351 0
-7348 7351 7362 0
-7348 7349 7362 0
7348 -7351 -7362 0
7348 -7349 -7351 0
7348 -7349 -7362 0
-7349 7220 7350 0
-7349 -7220 -7350 0
7349 -7220 7350 0
7349 7220 -7350 0
-7350 -7218 -7237 0
-7350 7218 7237 0
7350 7218 -7237 0
7350 -7218 7237 0
-7351 7352 7354 0
-7351 7354 7361 0
-7351 7352 7361 0
7351 -7354 -7361 0
7351 -7352 -7354 0
7351 -7352 -7361 0
-7352 7223 7353 0
-7352 -7223 -7353 0
7352 -7223 7353 0
7352 7223 -7353 0
-7353 -7221 -7236 0
-7353 7221 7236 0
7353 7221 -7236 0
7353 -7221 7236 0
-7354 7357 7360 0
-7354 7355 7357 0
-7354 7355 7360 0
7354 -7355 -7357 0
7354 -7357 -7360 0
7354 -7355 -7360 0
-7355 7226 7356 0
-7355 -7226 -7356 0
7355 -7226 7356 0
7355 7226 -7356 0
-7356 -7224 -7235 0
-7356 7224 7235 0
7356 7224 -7235 0
7356 -7224 7235 0
7357 -2359 -7358 0
-7357 2359 0
-7357 7358 0
-7358 7229 7359 0
-7358 -7229 -7359 0
7358 -7229 7359 0
7358 7229 -7359 0
-7359 -7227 -7234 0
-7359 7227 7234 0
7359 7227 -7234 0
7359 -7227 7234 0
7360 9869 -9870 -2360 0
7360 -9870 9915 -2360 0
7360 -9869 9870 -9915 -2360 0
-7360 9870 9915 0
-7360 9869 9870 0
-7360 2360 0
-7360 -9869 -9870 -9915 0
7361 -9871 9915 -2360 0
7361 -9871 69 -2360 0
7361 9871 -9915 -69 -2360 0
-7361 9871 69 0
-7361 -9871 -9915 -69 0
-7361 2360 0
-7361 9871 9915 0
7362 -9872 9915 -2360 0
7362 -9872 68 -2360 0
7362 9872 -9915 -68 -2360 0
-7362 9872 68 0
-7362 -9872 -9915 -68 0
-7362 2360 0
-7362 9872 9915 0
7363 -9873 9915 -2360 0
7363 -9873 67 -2360 0
7363 9873 -9915 -67 -2360 0
-7363 9873 67 0
-7363 -9873 -9915 -67 0
-7363 2360 0
-7363 9873 9915 0
7364 -9874 9915 -2360 0
7364 -9874 66 -2360 0
7364 9874 -9915 -66 -2360 0
-7364 9874 66 0
-7364 -9874 -9915 -66 0
-7364 2360 0
-7364 9874 9915 0
7365 -9875 9915 -2360 0
7365 -9875 65 -2360 0
7365 9875 -9915 -65 -2360 0
-7365 9875 65 0
-7365 -9875 -9915 -65 0
-7365 2360 0
-7365 9875 9915 0
7366 -9876 9915 -2360 0
7366 -9876 64 -2360 0
7366 9876 -9915 -64 -2360 0
-7366 9876 64 0
-7366 -9876 -9915 -64 0
-7366 2360 0
-7366 9876 9915 0
7367 -9877 9915 -2360 0
7367 -9877 63 -2360 0
7367 9877 -9915 -63 -2360 0
-7367 9877 63 0
-7367 -9877 -9915 -63 0
-7367 2360 0
-7367 9877 9915 0
7368 -9878 9915 -2360 0
7368 -9878 62 -2360 0
7368 9878 -9915 -62 -2360 0
-7368 9878 62 0
-7368 -9878 -9915 -62 0
-7368 2360 0
-7368 9878 9915 0
7369 -9879 9915 -2360 0
7369 -9879 61 -2360 0
7369 9879 -9915 -61 -2360 0
-7369 9879 61 0
-7369 -9879 -9915 -61 0
-7369 2360 0
-7369 9879 9915 0
7370 -9880 9915 -2360 0
7370 -9880 60 -2360 0
7370 9880 -9915 -60 -2360 0
-7370 9880 60 0
-7370 -9880 -9915 -60 0
-7370 2360 0
-7370 9880 9915 0
7371 -9881 9915 -2360 0
7371 -9881 59 -2360 0
7371 9881 -9915 -59 -2360 0
-7371 9881 59 0
-7371 -9881 -9915 -59 0
-7371 2360 0
-7371 9881 9915 0
7372 -9882 9915 -2360 0
7372 -9882 58 -2360 0
7372 9882 -9915 -58 -2360 0
-7372 9882 58 0
-7372 -9882 -9915 -58 0
-7372 2360 0
-7372 9882 9915 0
7373 -9883 9915 -2360 0
7373 -9883 57 -2360 0
7373 9883 -9915 -57 -2360 0
-7373 9883 57 0
-7373 -9883 -9915 -57 0
-7373 2360 0
-7373 9883 9915 0
7374 -9884 9915 -2360 0
7374 -9884 56 -2360 0
7374 9884 -9915 -56 -2360 0
-7374 9884 56 0
-7374 -9884 -9915 -56 0
-7374 2360 0
-7374 9884 9915 0
7375 -9885 9915 -2360 0
7375 -9885 55 -2360 0
7375 9885 -9915 -55 -2360 0
-7375 9885 55 0
-7375 -9885 -9915 -55 0
-7375 2360 0
-7375 9885 9915 0
7376 -9886 9915 -2360 0
7376 -9886 54 -2360 0
7376 9886 -9915 -54 -2360 0
-7376 9886 54 0
-7376 -9886 -9915 -54 0
-7376 2360 0
-7376 9886 9915 0
7377 -9887 9915 -2360 0
7377 -9887 53 -2360 0
7377 9887 -9915 -53 -2360 0
-7377 9887 53 0
-7377 -9887 -9915 -53 0
-7377 2360 0
-7377 9887 9915 0
7378 -9888 9915 -2360 0
7378 -9888 52 -2360 0
7378 9888 -9915 -52 -2360 0
-7378 9888 52 0
-7378 -9888 -9915 -52 0
-7378 2360 0
-7378 9888 9915 0
7379 -9889 9915 -2360 0
7379 -9889 51 -2360 0
7379 9889 -9915 -51 -2360 0
-7379 9889 51 0
-7379 -9889 -9915 -51 0
-7379 2360 0
-7379 9889 9915 0
7380 -9890 9915 -2360 0
7380 -9890 50 -2360 0
7380 9890 -9915 -50 -2360 0
-7380 9890 50 0
-7380 -9890 -9915 -50 0
-7380 2360 0
-7380 9890 9915 0
7381 -9891 9915 -2360 0
7381 -9891 49 -2360 0
7381 9891 -9915 -49 -2360 0
-7381 9891 49 0
-7381 -9891 -9915 -49 0
-7381 2360 0
-7381 9891 9915 0
7382 -9892 9915 -2360 0
7382 -9892 48 -2360 0
7382 9892 -9915 -48 -2360 0
-7382 9892 48 0
-7382 -9892 -9915 -48 0
-7382 2360 0
-7382 9892 9915 0
7383 -9893 9915 -2360 0
7383 -9893 47 -2360 0
7383 9893 -9915 -47 -2360 0
-7383 9893 47 0
-7383 -9893 -9915 -47 0
-7383 2360 0
-7383 9893 9915 0
7384 -9894 9915 -2360 0
7384 -9894 46 -2360 0
7384 9894 -9915 -46 -2360 0
-7384 9894 46 0
-7384 -9894 -9915 -46 0
-7384 2360 0
-7384 9894 9915 0
7385 -9895 9915 -2360 0
7385 -9895 45 -2360 0
7385 9895 -9915 -45 -2360 0
-7385 9895 45 0
-7385 -9895 -9915 -45 0
-7385 2360 0
-7385 9895 9915 0
7386 -9896 9915 -2360 0
7386 -9896 44 -2360 0
7386 9896 -9915 -44 -2360 0
-7386 9896 44 0
-7386 -9896 -9915 -44 0
-7386 2360 0
-7386 9896 9915 0
7387 -9897 9915 -2360 0
7387 -9897 43 -2360 0
7387 9897 -9915 -43 -2360 0
-7387 9897 43 0
-7387 -9897 -9915 -43 0
-7387 2360 0
-7387 9897 9915 0
7388 -9898 9915 -2360 0
7388 -9898 42 -2360 0
7388 9898 -9915 -42 -2360 0
-7388 9898 42 0
-7388 -9898 -9915 -42 0
-7388 2360 0
-7388 9898 9915 0
7389 -9899 9915 -2360 0
7389 -9899 41 -2360 0
7389 9899 -9915 -41 -2360 0
-7389 9899 41 0
-7389 -9899 -9915 -41 0
-7389 2360 0
-7389 9899 9915 0
7390 -9900 9915 -2360 0
7390 -9900 40 -2360 0
7390 9900 -9915 -40 -2360 0
-7390 9900 40 0
-7390 -9900 -9915 -40 0
-7390 2360 0
-7390 9900 9915 0
7391 9915 -9916 -39 0
-7391 -9915 0
-7391 9916 0
-7391 39 0
-7392 5617 7393 0
-7392 7393 7518 0
-7392 5617 7518 0
7392 -7393 -7518 0
7392 -5617 -7393 0
7392 -5617 -7518 0
-7393 7394 7396 0
-7393 7396 7517 0
-7393 7394 7517 0
7393 -7396 -7517 0
7393 -7394 -7396 0
7393 -7394 -7517 0
-7394 7267 7395 0
-7394 -7267 -7395 0
7394 -7267 7395 0
7394 7267 -7395 0
-7395 -5619 -7390 0
-7395 5619 7390 0
7395 5619 -7390 0
7395 -5619 7390 0
-7396 7397 7399 0
-7396 7399 7516 0
-7396 7397 7516 0
7396 -7399 -7516 0
7396 -7397 -7399 0
7396 -7397 -7516 0
-7397 7270 7398 0
-7397 -7270 -7398 0
7397 -7270 7398 0
7397 7270 -7398 0
-7398 -7268 -7389 0
-7398 7268 7389 0
7398 7268 -7389 0
7398 -7268 7389 0
-7399 7400 7402 0
-7399 7402 7515 0
-7399 7400 7515 0
7399 -7402 -7515 0
7399 -7400 -7402 0
7399 -7400 -7515 0
-7400 7273 7401 0
-7400 -7273 -7401 0
7400 -7273 7401 0
7400 7273 -7401 0
-7401 -7271 -7388 0
-7401 7271 7388 0
7401 7271 -7388 0
7401 -7271 7388 0
-7402 7403 7405 0
-7402 7405 7514 0
-7402 7403 7514 0
7402 -7405 -7514 0
7402 -7403 -7405 0
7402 -7403 -7514 0
-7403 7276 7404 0
-7403 -7276 -7404 0
7403 -7276 7404 0
7403 7276 -7404 0
-7404 -7274 -7387 0
-7404 7274 7387 0
7404 7274 -7387 0
7404 -7274 7387 0
-7405 7406 7408 0
-7405 7408 7513 0
-7405 7406 7513 0
7405 -7408 -7513 0
7405 -7406 -7408 0
7405 -7406 -7513 0
-7406 7279 7407 0
-7406 -7279 -7407 0
7406 -7279 7407 0
7406 7279 -7407 0
-7407 -7277 -7386 0
-7407 7277 7386 0
7407 7277 -7386 0
7407 -7277 7386 0
-7408 7409 7411 0
-7408 7411 7512 0
-7408 7409 7512 0
7408 -7411 -7512 0
7408 -7409 -7411 0
7408 -7409 -7512 0
-7409 7282 7410 0
-7409 -7282 -7410 0
7409 -7282 7410 0
7409 7282 -7410 0
-7410 -7280 -7385 0
-7410 7280 7385 0
7410 7280 -7385 0
7410 -7280 7385 0
-7411 7412 7414 0
-7411 7414 7511 0
-7411 7412 7511 0
7411 -7414 -7511 0
7411 -7412 -7414 0
7411 -7412 -7511 0
-7412 7285 7413 0
-7412 -7285 -7413 0
7412 -7285 7413 0
7412 7285 -7413 0
-7413 -7283 -7384 0
-7413 7283 7384 0
7413 7283 -7384 0
7413 -7283 7384 0
-7414 7415 7417 0
-7414 7417 7510 0
-7414 7415 7510 0
7414 -7417 -7510 0
7414 -7415 -7417 0
7414 -7415 -7510 0
-7415 7288 7416 0
-7415 -7288 -7416 0
7415 -7288 7416 0
7415 7288 -7416 0
-7416 -7286 -7383 0
-7416 7286 7383 0
7416 7286 -7383 0
7416 -7286 7383 0
-7417 7418 7420 0
-7417 7420 7509 0
-7417 7418 7509 0
7417 -7420 -7509 0
7417 -7418 -7420 0
7417 -7418 -7509 0
-7418 7291 7419 0
-7418 -7291 -7419 0
7418 -7291 7419 0
7418 7291 -7419 0
-7419 -7289 -7382 0
-7419 7289 7382 0
7419 7289 -7382 0
7419 -7289 7382 0
-7420 7421 7423 0
-7420 7423 7508 0
-7420 7421 7508 0
7420 -7423 -7508 0
7420 -7421 -7423 0
7420 -7421 -7508 0
-7421 7294 7422 0
-7421 -7294 -7422 0
7421 -7294 7422 0
7421 7294 -7422 0
-7422 -7292 -7381 0
-7422 7292 7381 0
7422 7292 -7381 0
7422 -7292 7381 0
-7423 7424 7426 0
-7423 7426 7507 0
-7423 7424 7507 0
7423 -7426 -7507 0
7423 -7424 -7426 0
7423 -7424 -7507 0
-7424 7297 7425 0
-7424 -7297 -7425 0
7424 -7297 7425 0
7424 7297 -7425 0
-7425 -7295 -7380 0
-7425 7295 7380 0
7425 7295 -7380 0
7425 -7295 7380 0
-7426 7427 7429 0
-7426 7429 7506 0
-7426 7427 7506 0
7426 -7429 -7506 0
7426 -7427 -7429 0
7426 -7427 -7506 0
-7427 7300 7428 0
-7427 -7300 -7428 0
7427 -7300 7428 0
7427 7300 -7428 0
-7428 -7298 -7379 0
-7428 7298 7379 0
7428 7298 -7379 0
7428 -7298 7379 0
-7429 7430 7432 0
-7429 7432 7505 0
-7429 7430 7505 0
7429 -7432 -7505 0
7429 -7430 -7432 0
7429 -7430 -7505 0
-7430 7303 7431 0
-7430 -7303 -7431 0
7430 -7303 7431 0
7430 7303 -7431 0
-7431 -7301 -7378 0
-7431 7301 7378 0
7431 7301 -7378 0
7431 -7301 7378 0
-7432 7433 7435 0
-7432 7435 7504 0
-7432 7433 7504 0
7432 -7435 -7504 0
7432 -7433 -7435 0
7432 -7433 -7504 0
-7433 7306 7434 0
-7433 -7306 -7434 0
7433 -7306 7434 0
7433 7306 -7434 0
-7434 -7304 -7377 0
-7434 7304 7377 0
7434 7304 -7377 0
7434 -7304 7377 0
-7435 7436 7438 0
-7435 7438 7503 0
-7435 7436 7503 0
7435 -7438 -7503 0
7435 -7436 -7438 0
7435 -7436 -7503 0
-7436 7309 7437 0
-7436 -7309 -7437 0
7436 -7309 7437 0
7436 7309 -7437 0
-7437 -7307 -7376 0
-7437 7307 7376 0
7437 7307 -7376 0
7437 -7307 7376 0
-7438 7439 7441 0
-7438 7441 7502 0
-7438 7439 7502 0
7438 -7441 -7502 0
7438 -7439 -7441 0
7438 -7439 -7502 0
-7439 7312 7440 0
-7439 -7312 -7440 0
7439 -7312 7440 0
7439 7312 -7440 0
-7440 -7310 -7375 0
-7440 7310 7375 0
7440 7310 -7375 0
7440 -7310 7375 0
-7441 7442 7444 0
-7441 7444 7501 0
-7441 7442 7501 0
7441 -7444 -7501 0
7441 -7442 -7444 0
7441 -7442 -7501 0
-7442 7315 7443 0
-7442 -7315 -7443 0
7442 -7315 7443 0
7442 7315 -7443 0
-7443 -7313 -7374 0
-7443 7313 7374 0
7443 7313 -7374 0
7443 -7313 7374 0
-7444 7445 7447 0
-7444 7447 7500 0
-7444 7445 7500 0
7444 -7447 -7500 0
7444 -7445 -7447 0
7444 -7445 -7500 0
-7445 7318 7446 0
-7445 -7318 -7446 0
7445 -7318 7446 0
7445 7318 -7446 0
-7446 -7316 -7373 0
-7446 7316 7373 0
7446 7316 -7373 0
7446 -7316 7373 0
-7447 7448 7450 0
-7447 7450 7499 0
-7447 7448 7499 0
7447 -7450 -7499 0
7447 -7448 -7450 0
7447 -7448 -7499 0
-7448 7321 7449 0
-7448 -7321 -7449 0
7448 -7321 7449 0
7448 7321 -7449 0
-7449 -7319 -7372 0
-7449 7319 7372 0
7449 7319 -7372 0
7449 -7319 7372 0
-7450 7451 7453 0
-7450 7453 7498 0
-7450 7451 7498 0
7450 -7453 -7498 0
7450 -7451 -7453 0
7450 -7451 -7498 0
-7451 7324 7452 0
-7451 -7324 -7452 0
7451 -7324 7452 0
7451 7324 -7452 0
-7452 -7322 -7371 0
-7452 7322 7371 0
7452 7322 -7371 0
7452 -7322 7371 0
-7453 7454 7456 0
-7453 7456 7497 0
-7453 7454 7497 0
7453 -7456 -7497 0
7453 -7454 -7456 0
7453 -7454 -7497 0
-7454 7327 7455 0
-7454 -7327 -7455 0
7454 -7327 7455 0
7454 7327 -7455 0
-7455 -7325 -7370 0
-7455 7325 7370 0
7455 7325 -7370 0
7455 -7325 7370 0
-7456 7457 7459 0
-7456 7459 7496 0
-7456 7457 7496 0
7456 -7459 -7496 0
7456 -7457 -7459 0
7456 -7457 -7496 0
-7457 7330 7458 0
-7457 -7330 -7458 0
7457 -7330 7458 0
7457 7330 -7458 0
-7458 -7328 -7369 0
-7458 7328 7369 0
7458 7328 -7369 0
7458 -7328 7369 0
-7459 7460 7462 0
-7459 7462 7495 0
-7459 7460 7495 0
7459 -7462 -7495 0
7459 -7460 -7462 0
7459 -7460 -7495 0
-7460 7333 7461 0
-7460 -7333 -7461 0
7460 -7333 7461 0
7460 7333 -7461 0
-7461 -7331 -7368 0
-7461 7331 7368 0
7461 7331 -7368 0
7461 -7331 7368 0
-7462 7463 7465 0
-7462 7465 7494 0
-7462 7463 7494 0
7462 -7465 -7494 0
7462 -7463 -7465 0
7462 -7463 -7494 0
-7463 7336 7464 0
-7463 -7336 -7464 0
7463 -7336 7464 0
7463 7336 -7464 0
-7464 -7334 -7367 0
-7464 7334 7367 0
7464 7334 -7367 0
7464 -7334 7367 0
-7465 7466 7468 0
-7465 7468 7493 0
-7465 7466 7493 0
7465 -7468 -7493 0
7465 -7466 -7468 0
7465 -7466 -7493 0
-7466 7339 7467 0
-7466 -7339 -7467 0
7466 -7339 7467 0
7466 7339 -7467 0
-7467 -7337 -7366 0
-7467 7337 7366 0
7467 7337 -7366 0
7467 -7337 7366 0
-7468 7469 7471 0
-7468 7471 7492 0
-7468 7469 7492 0
7468 -7471 -7492 0
7468 -7469 -7471 0
7468 -7469 -7492 0
-7469 7342 7470 0
-7469 -7342 -7470 0
7469 -7342 7470 0
7469 7342 -7470 0
-7470 -7340 -7365 0
-7470 7340 7365 0
7470 7340 -7365 0
7470 -7340 7365 0
-7471 7472 7474 0
-7471 7474 7491 0
-7471 7472 7491 0
7471 -7474 -7491 0
7471 -7472 -7474 0
7471 -7472 -7491 0
-7472 7345 7473 0
-7472 -7345 -7473 0
7472 -7345 7473 0
7472 7345 -7473 0
-7473 -7343 -7364 0
-7473 7343 7364 0
7473 7343 -7364 0
7473 -7343 7364 0
-7474 7475 7477 0
-7474 7477 7490 0
-7474 7475 7490 0
7474 -7477 -7490 0
7474 -7475 -7477 0
7474 -7475 -7490 0
-7475 7348 7476 0
-7475 -7348 -7476 0
7475 -7348 7476 0
7475 7348 -7476 0
-7476 -7346 -7363 0
-7476 7346 7363 0
7476 7346 -7363 0
7476 -7346 7363 0
-7477 7478 7480 0
-7477 7480 7489 0
-7477 7478 7489 0
7477 -7480 -7489 0
7477 -7478 -7480 0
7477 -7478 -7489 0
-7478 7351 7479 0
-7478 -7351 -7479 0
7478 -7351 7479 0
7478 7351 -7479 0
-7479 -7349 -7362 0
-7479 7349 7362 0
7479 7349 -7362 0
7479 -7349 7362 0
-7480 7483 7488 0
-7480 7481 7483 0
-7480 7481 7488 0
7480 -7481 -7483 0
7480 -7483 -7488 0
7480 -7481 -7488 0
-7481 7354 7482 0
-7481 -7354 -7482 0
7481 -7354 7482 0
7481 7354 -7482 0
-7482 -7352 -7361 0
-7482 7352 7361 0
7482 7352 -7361 0
7482 -7352 7361 0
7483 -7484 -7486 0
-7483 7484 0
-7483 7486 0
7484 -9869 -7485 0
-7484 9869 0
-7484 7485 0
-7485 -9915 -9916 0
-7485 9915 9916 0
7485 9915 -9916 0
7485 -9915 9916 0
-7486 7357 7487 0
-7486 -7357 -7487 0
7486 -7357 7487 0
7486 7357 -7487 0
-7487 -7355 -7360 0
-7487 7355 7360 0
7487 7355 -7360 0
7487 -7355 7360 0
7488 9869 -9870 -7485 0
7488 -9870 9916 -7485 0
7488 -9869 9870 -9916 -7485 0
-7488 9870 9916 0
-7488 9869 9870 0
-7488 7485 0
-7488 -9869 -9870 -9916 0
7489 -9871 9916 -7485 0
7489 -9871 69 -7485 0
7489 9871 -9916 -69 -7485 0
-7489 9871 69 0
-7489 -9871 -9916 -69 0
-7489 7485 0
-7489 9871 9916 0
7490 -9872 9916 -7485 0
7490 -9872 68 -7485 0
7490 9872 -9916 -68 -7485 0
-7490 9872 68 0
-7490 -9872 -9916 -68 0
-7490 7485 0
-7490 9872 9916 0
7491 -9873 9916 -7485 0
7491 -9873 67 -7485 0
7491 9873 -9916 -67 -7485 0
-7491 9873 67 0
-7491 -9873 -9916 -67 0
-7491 7485 0
-7491 9873 9916 0
7492 -9874 9916 -7485 0
7492 -9874 66 -7485 0
7492 9874 -9916 -66 -7485 0
-7492 9874 66 0
-7492 -9874 -9916 -66 0
-7492 7485 0
-7492 9874 9916 0
7493 -9875 9916 -7485 0
7493 -9875 65 -7485 0
7493 9875 -9916 -65 -7485 0
-7493 9875 65 0
-7493 -9875 -9916 -65 0
-7493 7485 0
-7493 9875 9916 0
7494 -9876 9916 -7485 0
7494 -9876 64 -7485 0
7494 9876 -9916 -64 -7485 0
-7494 9876 64 0
-7494 -9876 -9916 -64 0
-7494 7485 0
-7494 9876 9916 0
7495 -9877 9916 -7485 0
7495 -9877 63 -7485 0
7495 9877 -9916 -63 -7485 0
-7495 9877 63 0
-7495 -9877 -9916 -63 0
-7495 7485 0
-7495 9877 9916 0
7496 -9878 9916 -7485 0
7496 -9878 62 -7485 0
7496 9878 -9916 -62 -7485 0
-7496 9878 62 0
-7496 -9878 -9916 -62 0
-7496 7485 0
-7496 9878 9916 0
7497 -9879 9916 -7485 0
7497 -9879 61 -7485 0
7497 9879 -9916 -61 -7485 0
-7497 9879 61 0
-7497 -9879 -9916 -61 0
-7497 7485 0
-7497 9879 9916 0
7498 -9880 9916 -7485 0
7498 -9880 60 -7485 0
7498 9880 -9916 -60 -7485 0
-7498 9880 60 0
-7498 -9880 -9916 -60 0
-7498 7485 0
-7498 9880 9916 0
7499 -9881 9916 -7485 0
7499 -9881 59 -7485 0
7499 9881 -9916 -59 -7485 0
-7499 9881 59 0
-7499 -9881 -9916 -59 0
-7499 7485 0
-7499 9881 9916 0
7500 -9882 9916 -7485 0
7500 -9882 58 -7485 0
7500 9882 -9916 -58 -7485 0
-7500 9882 58 0
-7500 -9882 -9916 -58 0
-7500 7485 0
-7500 9882 9916 0
7501 -9883 9916 -7485 0
7501 -9883 57 -7485 0
7501 9883 -9916 -57 -7485 0
-7501 9883 57 0
-7501 -9883 -9916 -57 0
-7501 7485 0
-7501 9883 9916 0
7502 -9884 9916 -7485 0
7502 -9884 56 -7485 0
7502 9884 -9916 -56 -7485 0
-7502 9884 56 0
-7502 -9884 -9916 -56 0
-7502 7485 0
-7502 9884 9916 0
7503 -9885 9916 -7485 0
7503 -9885 55 -7485 0
7503 9885 -9916 -55 -7485 0
-7503 9885 55 0
-7503 -9885 -9916 -55 0
-7503 7485 0
-7503 9885 9916 0
7504 -9886 9916 -7485 0
7504 -9886 54 -7485 0
7504 9886 -9916 -54 -7485 0
-7504 9886 54 0
-7504 -9886 -9916 -54 0
-7504 7485 0
-7504 9886 9916 0
7505 -9887 9916 -7485 0
7505 -9887 53 -7485 0
7505 9887 -9916 -53 -7485 0
-7505 9887 53 0
-7505 -9887 -9916 -53 0
-7505 7485 0
-7505 9887 9916 0
7506 -9888 9916 -7485 0
7506 -9888 52 -7485 0
7506 9888 -9916 -52 -7485 0
-7506 9888 52 0
-7506 -9888 -9916 -52 0
-7506 7485 0
-7506 9888 9916 0
7507 -9889 9916 -7485 0
7507 -9889 51 -7485 0
7507 9889 -9916 -51 -7485 0
-7507 9889 51 0
-7507 -9889 -9916 -51 0
-7507 7485 0
-7507 9889 9916 0
7508 -9890 9916 -7485 0
7508 -9890 50 -7485 0
7508 9890 -9916 -50 -7485 0
-7508 9890 50 0
-7508 -9890 -9916 -50 0
-7508 7485 0
-7508 9890 9916 0
7509 -9891 9916 -7485 0
7509 -9891 49 -7485 0
7509 9891 -9916 -49 -7485 0
-7509 9891 49 0
-7509 -9891 -9916 -49 0
-7509 7485 0
-7509 9891 9916 0
7510 -9892 9916 -7485 0
7510 -9892 48 -7485 0
7510 9892 -9916 -48 -7485 0
-7510 9892 48 0
-7510 -9892 -9916 -48 0
-7510 7485 0
-7510 9892 9916 0
7511 -9893 9916 -7485 0
7511 -9893 47 -7485 0
7511 9893 -9916 -47 -7485 0
-7511 9893 47 0
-7511 -9893 -9916 -47 0
-7511 7485 0
-7511 9893 9916 0
7512 -9894 9916 -7485 0
7512 -9894 46 -7485 0
7512 9894 -9916 -46 -7485 0
-7512 9894 46 0
-7512 -9894 -9916 -46 0
-7512 7485 0
-7512 9894 9916 0
7513 -9895 9916 -7485 0
7513 -9895 45 -7485 0
7513 9895 -9916 -45 -7485 0
-7513 9895 45 0
-7513 -9895 -9916 -45 0
-7513 7485 0
-7513 9895 9916 0
7514 -9896 9916 -7485 0
7514 -9896 44 -7485 0
7514 9896 -9916 -44 -7485 0
-7514 9896 44 0
-7514 -9896 -9916 -44 0
-7514 7485 0
-7514 9896 9916 0
7515 -9897 9916 -7485 0
7515 -9897 43 -7485 0
7515 9897 -9916 -43 -7485 0
-7515 9897 43 0
-7515 -9897 -9916 -43 0
-7515 7485 0
-7515 9897 9916 0
7516 -9898 9916 -7485 0
7516 -9898 42 -7485 0
7516 9898 -9916 -42 -7485 0
-7516 9898 42 0
-7516 -9898 -9916 -42 0
-7516 7485 0
-7516 9898 9916 0
7517 -9899 9916 -7485 0
7517 -9899 41 -7485 0
7517 9899 -9916 -41 -7485 0
-7517 9899 41 0
-7517 -9899 -9916 -41 0
-7517 7485 0
-7517 9899 9916 0
7518 -9900 9916 -7485 0
7518 -9900 40 -7485 0
7518 9900 -9916 -40 -7485 0
-7518 9900 40 0
-7518 -9900 -9916 -40 0
-7518 7485 0
-7518 9900 9916 0
7519 9916 -9917 -39 0
-7519 -9916 0
-7519 9917 0
-7519 39 0
-7520 5615 7521 0
-7520 7521 7644 0
-7520 5615 7644 0
7520 -7521 -7644 0
7520 -5615 -7521 0
7520 -5615 -7644 0
-7521 7522 7524 0
-7521 7524 7643 0
-7521 7522 7643 0
7521 -7524 -7643 0
7521 -7522 -7524 0
7521 -7522 -7643 0
-7522 7393 7523 0
-7522 -7393 -7523 0
7522 -7393 7523 0
7522 7393 -7523 0
-7523 -5617 -7518 0
-7523 5617 7518 0
7523 5617 -7518 0
7523 -5617 7518 0
-7524 7525 7527 0
-7524 7527 7642 0
-7524 7525 7642 0
7524 -7527 -7642 0
7524 -7525 -7527 0
7524 -7525 -7642 0
-7525 7396 7526 0
-7525 -7396 -7526 0
7525 -7396 7526 0
7525 7396 -7526 0
-7526 -7394 -7517 0
-7526 7394 7517 0
7526 7394 -7517 0
7526 -7394 7517 0
-7527 7528 7530 0
-7527 7530 7641 0
-7527 7528 7641 0
7527 -7530 -7641 0
7527 -7528 -7530 0
7527 -7528 -7641 0
-7528 7399 7529 0
-7528 -7399 -7529 0
7528 -7399 7529 0
7528 7399 -7529 0
-7529 -7397 -7516 0
-7529 7397 7516 0
7529 7397 -7516 0
7529 -7397 7516 0
-7530 7531 7533 0
-7530 7533 7640 0
-7530 7531 7640 0
7530 -7533 -7640 0
7530 -7531 -7533 0
7530 -7531 -7640 0
-7531 7402 7532 0
-7531 -7402 -7532 0
7531 -7402 7532 0
7531 7402 -7532 0
-7532 -7400 -7515 0
-7532 7400 7515 0
7532 7400 -7515 0
7532 -7400 7515 0
-7533 7534 7536 0
-7533 7536 7639 0
-7533 7534 7639 0
7533 -7536 -7639 0
7533 -7534 -7536 0
7533 -7534 -7639 0
-7534 7405 7535 0
-7534 -7405 -7535 0
7534 -7405 7535 0
7534 7405 -7535 0
-7535 -7403 -7514 0
-7535 7403 7514 0
7535 7403 -7514 0
7535 -7403 7514 0
-7536 7537 7539 0
-7536 7539 7638 0
-7536 7537 7638 0
7536 -7539 -7638 0
7536 -7537 -7539 0
7536 -7537 -7638 0
-7537 7408 7538 0
-7537 -7408 -7538 0
7537 -7408 7538 0
7537 7408 -7538 0
-7538 -7406 -7513 0
-7538 7406 7513 0
7538 7406 -7513 0
7538 -7406 7513 0
-7539 7540 7542 0
-7539 7542 7637 0
-7539 7540 7637 0
7539 -7542 -7637 0
7539 -7540 -7542 0
7539 -7540 -7637 0
-7540 7411 7541 0
-7540 -7411 -7541 0
7540 -7411 7541 0
7540 7411 -7541 0
-7541 -7409 -7512 0
-7541 7409 7512 0
7541 7409 -7512 0
7541 -7409 7512 0
-7542 7543 7545 0
-7542 7545 7636 0
-7542 7543 7636 0
7542 -7545 -7636 0
7542 -7543 -7545 0
7542 -7543 -7636 0
-7543 7414 7544 0
-7543 -7414 -7544 0
7543 -7414 7544 0
7543 7414 -7544 0
-7544 -7412 -7511 0
-7544 7412 7511 0
7544 7412 -7511 0
7544 -7412 7511 0
-7545 7546 7548 0
-7545 7548 7635 0
-7545 7546 7635 0
7545 -7548 -7635 0
7545 -7546 -7548 0
7545 -7546 -7635 0
-7546 7417 7547 0
-7546 -7417 -7547 0
7546 -7417 7547 0
7546 7417 -7547 0
-7547 -7415 -7510 0
-7547 7415 7510 0
7547 7415 -7510 0
7547 -7415 7510 0
-7548 7549 7551 0
-7548 7551 7634 0
-7548 7549 7634 0
7548 -7551 -7634 0
7548 -7549 -7551 0
7548 -7549 -7634 0
-7549 7420 7550 0
-7549 -7420 -7550 0
7549 -7420 7550 0
7549 7420 -7550 0
-7550 -7418 -7509 0
-7550 7418 7509 0
7550 7418 -7509 0
7550 -7418 7509 0
-7551 7552 7554 0
-7551 7554 7633 0
-7551 7552 7633 0
7551 -7554 -7633 0
7551 -7552 -7554 0
7551 -7552 -7633 0
-7552 7423 7553 0
-7552 -7423 -7553 0
7552 -7423 7553 0
7552 7423 -7553 0
-7553 -7421 -7508 0
-7553 7421 7508 0
7553 7421 -7508 0
7553 -7421 7508 0
-7554 7555 7557 0
-7554 7557 7632 0
-7554 7555 7632 0
7554 -7557 -7632 0
7554 -7555 -7557 0
7554 -7555 -7632 0
-7555 7426 7556 0
-7555 -7426 -7556 0
7555 -7426 7556 0
7555 7426 -7556 0
-7556 -7424 -7507 0
-7556 7424 7507 0
7556 7424 -7507 0
7556 -7424 7507 0
-7557 7558 7560 0
-7557 7560 7631 0
-7557 7558 7631 0
7557 -7560 -7631 0
7557 -7558 -7560 0
7557 -7558 -7631 0
-7558 7429 7559 0
-7558 -7429 -7559 0
7558 -7429 7559 0
7558 7429 -7559 0
-7559 -7427 -7506 0
-7559 7427 7506 0
7559 7427 -7506 0
7559 -7427 7506 0
-7560 7561 7563 0
-7560 7563 7630 0
-7560 7561 7630 0
7560 -7563 -7630 0
7560 -7561 -7563 0
7560 -7561 -7630 0
-7561 7432 7562 0
-7561 -7432 -7562 0
7561 -7432 7562 0
7561 7432 -7562 0
-7562 -7430 -7505 0
-7562 7430 7505 0
7562 7430 -7505 0
7562 -7430 7505 0
-7563 7564 7566 0
-7563 7566 7629 0
-7563 7564 7629 0
7563 -7566 -7629 0
7563 -7564 -7566 0
7563 -7564 -7629 0
-7564 7435 7565 0
-7564 -7435 -7565 0
7564 -7435 7565 0
7564 7435 -7565 0
-7565 -7433 -7504 0
-7565 7433 7504 0
7565 7433 -7504 0
7565 -7433 7504 0
-7566 7567 7569 0
-7566 7569 7628 0
-7566 7567 7628 0
7566 -7569 -7628 0
7566 -7567 -7569 0
7566 -7567 -7628 0
-7567 7438 7568 0
-7567 -7438 -7568 0
7567 -7438 7568 0
7567 7438 -7568 0
-7568 -7436 -7503 0
-7568 7436 7503 0
7568 7436 -7503 0
7568 -7436 7503 0
-7569 7570 7572 0
-7569 7572 7627 0
-7569 7570 7627 0
7569 -7572 -7627 0
7569 -7570 -7572 0
7569 -7570 -7627 0
-7570 7441 7571 0
-7570 -7441 -7571 0
7570 -7441 7571 0
7570 7441 -7571 0
-7571 -7439 -7502 0
-7571 7439 7502 0
7571 7439 -7502 0
7571 -7439 7502 0
-7572 7573 7575 0
-7572 7575 7626 0
-7572 7573 7626 0
7572 -7575 -7626 0
7572 -7573 -7575 0
7572 -7573 -7626 0
-7573 7444 7574 0
-7573 -7444 -7574 0
7573 -7444 7574 0
7573 7444 -7574 0
-7574 -7442 -7501 0
-7574 7442 7501 0
7574 7442 -7501 0
7574 -7442 7501 0
-7575 7576 7578 0
-7575 7578 7625 0
-7575 7576 7625 0
7575 -7578 -7625 0
7575 -7576 -7578 0
7575 -7576 -7625 0
-7576 7447 7577 0
-7576 -7447 -7577 0
7576 -7447 7577 0
7576 7447 -7577 0
-7577 -7445 -7500 0
-7577 7445 7500 0
7577 7445 -7500 0
7577 -7445 7500 0
-7578 7579 7581 0
-7578 7581 7624 0
-7578 7579 7624 0
7578 -7581 -7624 0
7578 -7579 -7581 0
7578 -7579 -7624 0
-7579 7450 7580 0
-7579 -7450 -7580 0
7579 -7450 7580 0
7579 7450 -7580 0
-7580 -7448 -7499 0
-7580 7448 7499 0
7580 7448 -7499 0
7580 -7448 7499 0
-7581 7582 7584 0
-7581 7584 7623 0
-7581 7582 7623 0
7581 -7584 -7623 0
7581 -7582 -7584 0
7581 -7582 -7623 0
-7582 7453 7583 0
-7582 -7453 -7583 0
7582 -7453 7583 0
7582 7453 -7583 0
-7583 -7451 -7498 0
-7583 7451 7498 0
7583 7451 -7498 0
7583 -7451 7498 0
-7584 7585 7587 0
-7584 7587 7622 0
-7584 7585 7622 0
7584 -7587 -7622 0
7584 -7585 -7587 0
7584 -7585 -7622 0
-7585 7456 7586 0
-7585 -7456 -7586 0
7585 -7456 7586 0
7585 7456 -7586 0
-7586 -7454 -7497 0
-7586 7454 7497 0
7586 7454 -7497 0
7586 -7454 7497 0
-7587 7588 7590 0
-7587 7590 7621 0
-7587 7588 7621 0
7587 -7590 -7621 0
7587 -7588 -7590 0
7587 -7588 -7621 0
-7588 7459 7589 0
-7588 -7459 -7589 0
7588 -7459 7589 0
7588 7459 -7589 0
-7589 -7457 -7496 0
-7589 7457 7496 0
7589 7457 -7496 0
7589 -7457 7496 0
-7590 7591 7593 0
-7590 7593 7620 0
-7590 7591 7620 0
7590 -7593 -7620 0
7590 -7591 -7593 0
7590 -7591 -7620 0
-7591 7462 7592 0
-7591 -7462 -7592 0
7591 -7462 7592 0
7591 7462 -7592 0
-7592 -7460 -7495 0
-7592 7460 7495 0
7592 7460 -7495 0
7592 -7460 7495 0
-7593 7594 7596 0
-7593 7596 7619 0
-7593 7594 7619 0
7593 -7596 -7619 0
7593 -7594 -7596 0
7593 -7594 -7619 0
-7594 7465 7595 0
-7594 -7465 -7595 0
7594 -7465 7595 0
7594 7465 -7595 0
-7595 -7463 -7494 0
-7595 7463 7494 0
7595 7463 -7494 0
7595 -7463 7494 0
-7596 7597 7599 0
-7596 7599 7618 0
-7596 7597 7618 0
7596 -7599 -7618 0
7596 -7597 -7599 0
7596 -7597 -7618 0
-7597 7468 7598 0
-7597 -7468 -7598 0
7597 -7468 7598 0
7597 7468 -7598 0
-7598 -7466 -7493 0
-7598 7466 7493 0
7598 7466 -7493 0
7598 -7466 7493 0
-7599 7600 7602 0
-7599 7602 7617 0
-7599 7600 7617 0
7599 -7602 -7617 0
7599 -7600 -7602 0
7599 -7600 -7617 0
-7600 7471 7601 0
-7600 -7471 -7601 0
7600 -7471 7601 0
7600 7471 -7601 0
-7601 -7469 -7492 0
-7601 7469 7492 0
7601 7469 -7492 0
7601 -7469 7492 0
-7602 7603 7605 0
-7602 7605 7616 0
-7602 7603 7616 0
7602 -7605 -7616 0
7602 -7603 -7605 0
7602 -7603 -7616 0
-7603 7474 7604 0
-7603 -7474 -7604 0
7603 -7474 7604 0
7603 7474 -7604 0
-7604 -7472 -7491 0
-7604 7472 7491 0
7604 7472 -7491 0
7604 -7472 7491 0
-7605 7606 7608 0
-7605 7608 7615 0
-7605 7606 7615 0
7605 -7608 -7615 0
7605 -7606 -7608 0
7605 -7606 -7615 0
-7606 7477 7607 0
-7606 -7477 -7607 0
7606 -7477 7607 0
7606 7477 -7607 0
-7607 -7475 -7490 0
-7607 7475 7490 0
7607 7475 -7490 0
7607 -7475 7490 0
-7608 7611 7614 0
-7608 7609 7611 0
-7608 7609 7614 0
7608 -7609 -7611 0
7608 -7611 -7614 0
7608 -7609 -7614 0
-7609 7480 7610 0
-7609 -7480 -7610 0
7609 -7480 7610 0
7609 7480 -7610 0
-7610 -7478 -7489 0
-7610 7478 7489 0
7610 7478 -7489 0
7610 -7478 7489 0
7611 -2714 -7612 0
-7611 2714 0
-7611 7612 0
-7612 7483 7613 0
-7612 -7483 -7613 0
7612 -7483 7613 0
7612 7483 -7613 0
-7613 -7481 -7488 0
-7613 7481 7488 0
7613 7481 -7488 0
7613 -7481 7488 0
7614 9869 -9870 -2715 0
7614 -9870 9917 -2715 0
7614 -9869 9870 -9917 -2715 0
-7614 9870 9917 0
-7614 9869 9870 0
-7614 2715 0
-7614 -9869 -9870 -9917 0
7615 -9871 9917 -2715 0
7615 -9871 69 -2715 0
7615 9871 -9917 -69 -2715 0
-7615 9871 69 0
-7615 -9871 -9917 -69 0
-7615 2715 0
-7615 9871 9917 0
7616 -9872 9917 -2715 0
7616 -9872 68 -2715 0
7616 9872 -9917 -68 -2715 0
-7616 9872 68 0
-7616 -9872 -9917 -68 0
-7616 2715 0
-7616 9872 9917 0
7617 -9873 9917 -2715 0
7617 -9873 67 -2715 0
7617 9873 -9917 -67 -2715 0
-7617 9873 67 0
-7617 -9873 -9917 -67 0
-7617 2715 0
-7617 9873 9917 0
7618 -9874 9917 -2715 0
7618 -9874 66 -2715 0
7618 9874 -9917 -66 -2715 0
-7618 9874 66 0
-7618 -9874 -9917 -66 0
-7618 2715 0
-7618 9874 9917 0
7619 -9875 9917 -2715 0
7619 -9875 65 -2715 0
7619 9875 -9917 -65 -2715 0
-7619 9875 65 0
-7619 -9875 -9917 -65 0
-7619 2715 0
-7619 9875 9917 0
7620 -9876 9917 -2715 0
7620 -9876 64 -2715 0
7620 9876 -9917 -64 -2715 0
-7620 9876 64 0
-7620 -9876 -9917 -64 0
-7620 2715 0
-7620 9876 9917 0
7621 -9877 9917 -2715 0
7621 -9877 63 -2715 0
7621 9877 -9917 -63 -2715 0
-7621 9877 63 0
-7621 -9877 -9917 -63 0
-7621 2715 0
-7621 9877 9917 0
7622 -9878 9917 -2715 0
7622 -9878 62 -2715 0
7622 9878 -9917 -62 -2715 0
-7622 9878 62 0
-7622 -9878 -9917 -62 0
-7622 2715 0
-7622 9878 9917 0
7623 -9879 9917 -2715 0
7623 -9879 61 -2715 0
7623 9879 -9917 -61 -2715 0
-7623 9879 61 0
-7623 -9879 -9917 -61 0
-7623 2715 0
-7623 9879 9917 0
7624 -9880 9917 -2715 0
7624 -9880 60 -2715 0
7624 9880 -9917 -60 -2715 0
-7624 9880 60 0
-7624 -9880 -9917 -60 0
-7624 2715 0
-7624 9880 9917 0
7625 -9881 9917 -2715 0
7625 -9881 59 -2715 0
7625 9881 -9917 -59 -2715 0
-7625 9881 59 0
-7625 -9881 -9917 -59 0
-7625 2715 0
-7625 9881 9917 0
7626 -9882 9917 -2715 0
7626 -9882 58 -2715 0
7626 9882 -9917 -58 -2715 0
-7626 9882 58 0
-7626 -9882 -9917 -58 0
-7626 2715 0
-7626 9882 9917 0
7627 -9883 9917 -2715 0
7627 -9883 57 -2715 0
7627 9883 -9917 -57 -2715 0
-7627 9883 57 0
-7627 -9883 -9917 -57 0
-7627 2715 0
-7627 9883 9917 0
7628 -9884 9917 -2715 0
7628 -9884 56 -2715 0
7628 9884 -9917 -56 -2715 0
-7628 9884 56 0
-7628 -9884 -9917 -56 0
-7628 2715 0
-7628 9884 9917 0
7629 -9885 9917 -2715 0
7629 -9885 55 -2715 0
7629 9885 -9917 -55 -2715 0
-7629 9885 55 0
-7629 -9885 -9917 -55 0
-7629 2715 0
-7629 9885 9917 0
7630 -9886 9917 -2715 0
7630 -9886 54 -2715 0
7630 9886 -9917 -54 -2715 0
-7630 9886 54 0
-7630 -9886 -9917 -54 0
-7630 2715 0
-7630 9886 9917 0
7631 -9887 9917 -2715 0
7631 -9887 53 -2715 0
7631 9887 -9917 -53 -2715 0
-7631 9887 53 0
-7631 -9887 -9917 -53 0
-7631 2715 0
-7631 9887 9917 0
7632 -9888 9917 -2715 0
7632 -9888 52 -2715 0
7632 9888 -9917 -52 -2715 0
-7632 9888 52 0
-7632 -9888 -9917 -52 0
-7632 2715 0
-7632 9888 9917 0
7633 -9889 9917 -2715 0
7633 -9889 51 -2715 0
7633 9889 -9917 -51 -2715 0
-7633 9889 51 0
-7633 -9889 -9917 -51 0
-7633 2715 0
-7633 9889 9917 0
7634 -9890 9917 -2715 0
7634 -9890 50 -2715 0
7634 9890 -9917 -50 -2715 0
-7634 9890 50 0
-7634 -9890 -9917 -50 0
-7634 2715 0
-7634 9890 9917 0
7635 -9891 9917 -2715 0
7635 -9891 49 -2715 0
7635 9891 -9917 -49 -2715 0
-7635 9891 49 0
-7635 -9891 -9917 -49 0
-7635 2715 0
-7635 9891 9917 0
7636 -9892 9917 -2715 0
7636 -9892 48 -2715 0
7636 9892 -9917 -48 -2715 0
-7636 9892 48 0
-7636 -9892 -9917 -48 0
-7636 2715 0
-7636 9892 9917 0
7637 -9893 9917 -2715 0
7637 -9893 47 -2715 0
7637 9893 -9917 -47 -2715 0
-7637 9893 47 0
-7637 -9893 -9917 -47 0
-7637 2715 0
-7637 9893 9917 0
7638 -9894 9917 -2715 0
7638 -9894 46 -2715 0
7638 9894 -9917 -46 -2715 0
-7638 9894 46 0
-7638 -9894 -9917 -46 0
-7638 2715 0
-7638 9894 9917 0
7639 -9895 9917 -2715 0
7639 -9895 45 -2715 0
7639 9895 -9917 -45 -2715 0
-7639 9895 45 0
-7639 -9895 -9917 -45 0
-7639 2715 0
-7639 9895 9917 0
7640 -9896 9917 -2715 0
7640 -9896 44 -2715 0
7640 9896 -9917 -44 -2715 0
-7640 9896 44 0
-7640 -9896 -9917 -44 0
-7640 2715 0
-7640 9896 9917 0
7641 -9897 9917 -2715 0
7641 -9897 43 -2715 0
7641 9897 -9917 -43 -2715 0
-7641 9897 43 0
-7641 -9897 -9917 -43 0
-7641 2715 0
-7641 9897 9917 0
7642 -9898 9917 -2715 0
7642 -9898 42 -2715 0
7642 9898 -9917 -42 -2715 0
-7642 9898 42 0
-7642 -9898 -9917 -42 0
-7642 2715 0
-7642 9898 9917 0
7643 -9899 9917 -2715 0
7643 -9899 41 -2715 0
7643 9899 -9917 -41 -2715 0
-7643 9899 41 0
-7643 -9899 -9917 -41 0
-7643 2715 0
-7643 9899 9917 0
7644 -9900 9917 -2715 0
7644 -9900 40 -2715 0
7644 9900 -9917 -40 -2715 0
-7644 9900 40 0
-7644 -9900 -9917 -40 0
-7644 2715 0
-7644 9900 9917 0
7645 9917 -9918 -39 0
-7645 -9917 0
-7645 9918 0
-7645 39 0
-7646 5613 7647 0
-7646 7647 7772 0
-7646 5613 7772 0
7646 -7647 -7772 0
7646 -5613 -7647 0
7646 -5613 -7772 0
-7647 7648 7650 0
-7647 7650 7771 0
-7647 7648 7771 0
7647 -7650 -7771 0
7647 -7648 -7650 0
7647 -7648 -7771 0
-7648 7521 7649 0
-7648 -7521 -7649 0
7648 -7521 7649 0
7648 7521 -7649 0
-7649 -5615 -7644 0
-7649 5615 7644 0
7649 5615 -7644 0
7649 -5615 7644 0
-7650 7651 7653 0
-7650 7653 7770 0
-7650 7651 7770 0
7650 -7653 -7770 0
7650 -7651 -7653 0
7650 -7651 -7770 0
-7651 7524 7652 0
-7651 -7524 -7652 0
7651 -7524 7652 0
7651 7524 -7652 0
-7652 -7522 -7643 0
-7652 7522 7643 0
7652 7522 -7643 0
7652 -7522 7643 0
-7653 7654 7656 0
-7653 7656 7769 0
-7653 7654 7769 0
7653 -7656 -7769 0
7653 -7654 -7656 0
7653 -7654 -7769 0
-7654 7527 7655 0
-7654 -7527 -7655 0
7654 -7527 7655 0
7654 7527 -7655 0
-7655 -7525 -7642 0
-7655 7525 7642 0
7655 7525 -7642 0
7655 -7525 7642 0
-7656 7657 7659 0
-7656 7659 7768 0
-7656 7657 7768 0
7656 -7659 -7768 0
7656 -7657 -7659 0
7656 -7657 -7768 0
-7657 7530 7658 0
-7657 -7530 -7658 0
7657 -7530 7658 0
7657 7530 -7658 0
-7658 -7528 -7641 0
-7658 7528 7641 0
7658 7528 -7641 0
7658 -7528 7641 0
-7659 7660 7662 0
-7659 7662 7767 0
-7659 7660 7767 0
7659 -7662 -7767 0
7659 -7660 -7662 0
7659 -7660 -7767 0
-7660 7533 7661 0
-7660 -7533 -7661 0
7660 -7533 7661 0
7660 7533 -7661 0
-7661 -7531 -7640 0
-7661 7531 7640 0
7661 7531 -7640 0
7661 -7531 7640 0
-7662 7663 7665 0
-7662 7665 7766 0
-7662 7663 7766 0
7662 -7665 -7766 0
7662 -7663 -7665 0
7662 -7663 -7766 0
-7663 7536 7664 0
-7663 -7536 -7664 0
7663 -7536 7664 0
7663 7536 -7664 0
-7664 -7534 -7639 0
-7664 7534 7639 0
7664 7534 -7639 0
7664 -7534 7639 0
-7665 7666 7668 0
-7665 7668 7765 0
-7665 7666 7765 0
7665 -7668 -7765 0
7665 -7666 -7668 0
7665 -7666 -7765 0
-7666 7539 7667 0
-7666 -7539 -7667 0
7666 -7539 7667 0
7666 7539 -7667 0
-7667 -7537 -7638 0
-7667 7537 7638 0
7667 7537 -7638 0
7667 -7537 7638 0
-7668 7669 7671 0
-7668 7671 7764 0
-7668 7669 7764 0
7668 -7671 -7764 0
7668 -7669 -7671 0
7668 -7669 -7764 0
-7669 7542 7670 0
-7669 -7542 -7670 0
7669 -7542 7670 0
7669 7542 -7670 0
-7670 -7540 -7637 0
-7670 7540 7637 0
7670 7540 -7637 0
7670 -7540 7637 0
-7671 7672 7674 0
-7671 7674 7763 0
-7671 7672 7763 0
7671 -7674 -7763 0
7671 -7672 -7674 0
7671 -7672 -7763 0
-7672 7545 7673 0
-7672 -7545 -7673 0
7672 -7545 7673 0
7672 7545 -7673 0
-7673 -7543 -7636 0
-7673 7543 7636 0
7673 7543 -7636 0
7673 -7543 7636 0
-7674 7675 7677 0
-7674 7677 7762 0
-7674 7675 7762 0
7674 -7677 -7762 0
7674 -7675 -7677 0
7674 -7675 -7762 0
-7675 7548 7676 0
-7675 -7548 -7676 0
7675 -7548 7676 0
7675 7548 -7676 0
-7676 -7546 -7635 0
-7676 7546 7635 0
7676 7546 -7635 0
7676 -7546 7635 0
-7677 7678 7680 0
-7677 7680 7761 0
-7677 7678 7761 0
7677 -7680 -7761 0
7677 -7678 -7680 0
7677 -7678 -7761 0
-7678 7551 7679 0
-7678 -7551 -7679 0
7678 -7551 7679 0
7678 7551 -7679 0
-7679 -7549 -7634 0
-7679 7549 7634 0
7679 7549 -7634 0
7679 -7549 7634 0
-7680 7681 7683 0
-7680 7683 7760 0
-7680 7681 7760 0
7680 -7683 -7760 0
7680 -7681 -7683 0
7680 -7681 -7760 0
-7681 7554 7682 0
-7681 -7554 -7682 0
7681 -7554 7682 0
7681 7554 -7682 0
-7682 -7552 -7633 0
-7682 7552 7633 0
7682 7552 -7633 0
7682 -7552 7633 0
-7683 7684 7686 0
-7683 7686 7759 0
-7683 7684 7759 0
7683 -7686 -7759 0
7683 -7684 -7686 0
7683 -7684 -7759 0
-7684 7557 7685 0
-7684 -7557 -7685 0
7684 -7557 7685 0
7684 7557 -7685 0
-7685 -7555 -7632 0
-7685 7555 7632 0
7685 7555 -7632 0
7685 -7555 7632 0
-7686 7687 7689 0
-7686 7689 7758 0
-7686 7687 7758 0
7686 -7689 -7758 0
7686 -7687 -7689 0
7686 -7687 -7758 0
-7687 7560 7688 0
-7687 -7560 -7688 0
7687 -7560 7688 0
7687 7560 -7688 0
-7688 -7558 -7631 0
-7688 7558 7631 0
7688 7558 -7631 0
7688 -7558 7631 0
-7689 7690 7692 0
-7689 7692 7757 0
-7689 7690 7757 0
7689 -7692 -7757 0
7689 -7690 -7692 0
7689 -7690 -7757 0
-7690 7563 7691 0
-7690 -7563 -7691 0
7690 -7563 7691 0
7690 7563 -7691 0
-7691 -7561 -7630 0
-7691 7561 7630 0
7691 7561 -7630 0
7691 -7561 7630 0
-7692 7693 7695 0
-7692 7695 7756 0
-7692 7693 7756 0
7692 -7695 -7756 0
7692 -7693 -7695 0
7692 -7693 -7756 0
-7693 7566 7694 0
-7693 -7566 -7694 0
7693 -7566 7694 0
7693 7566 -7694 0
-7694 -7564 -7629 0
-7694 7564 7629 0
7694 7564 -7629 0
7694 -7564 7629 0
-7695 7696 7698 0
-7695 7698 7755 0
-7695 7696 7755 0
7695 -7698 -7755 0
7695 -7696 -7698 0
7695 -7696 -7755 0
-7696 7569 7697 0
-7696 -7569 -7697 0
7696 -7569 7697 0
7696 7569 -7697 0
-7697 -7567 -7628 0
-7697 7567 7628 0
7697 7567 -7628 0
7697 -7567 7628 0
-7698 7699 7701 0
-7698 7701 7754 0
-7698 7699 7754 0
7698 -7701 -7754 0
7698 -7699 -7701 0
7698 -7699 -7754 0
-7699 7572 7700 0
-7699 -7572 -7700 0
7699 -7572 7700 0
7699 7572 -7700 0
-7700 -7570 -7627 0
-7700 7570 7627 0
7700 7570 -7627 0
7700 -7570 7627 0
-7701 7702 7704 0
-7701 7704 7753 0
-7701 7702 7753 0
7701 -7704 -7753 0
7701 -7702 -7704 0
7701 -7702 -7753 0
-7702 7575 7703 0
-7702 -7575 -7703 0
7702 -7575 7703 0
7702 7575 -7703 0
-7703 -7573 -7626 0
-7703 7573 7626 0
7703 7573 -7626 0
7703 -7573 7626 0
-7704 7705 7707 0
-7704 7707 7752 0
-7704 7705 7752 0
7704 -7707 -7752 0
7704 -7705 -7707 0
7704 -7705 -7752 0
-7705 7578 7706 0
-7705 -7578 -7706 0
7705 -7578 7706 0
7705 7578 -7706 0
-7706 -7576 -7625 0
-7706 7576 7625 0
7706 7576 -7625 0
7706 -7576 7625 0
-7707 7708 7710 0
-7707 7710 7751 0
-7707 7708 7751 0
7707 -7710 -7751 0
7707 -7708 -7710 0
7707 -7708 -7751 0
-7708 7581 7709 0
-7708 -7581 -7709 0
7708 -7581 7709 0
7708 7581 -7709 0
-7709 -7579 -7624 0
-7709 7579 7624 0
7709 7579 -7624 0
7709 -7579 7624 0
-7710 7711 7713 0
-7710 7713 7750 0
-7710 7711 7750 0
7710 -7713 -7750 0
7710 -7711 -7713 0
7710 -7711 -7750 0
-7711 7584 7712 0
-7711 -7584 -7712 0
7711 -7584 7712 0
7711 7584 -7712 0
-7712 -7582 -7623 0
-7712 7582 7623 0
7712 7582 -7623 0
7712 -7582 7623 0
-7713 7714 7716 0
-7713 7716 7749 0
-7713 7714 7749 0
7713 -7716 -7749 0
7713 -7714 -7716 0
7713 -7714 -7749 0
-7714 7587 7715 0
-7714 -7587 -7715 0
7714 -7587 7715 0
7714 7587 -7715 0
-7715 -7585 -7622 0
-7715 7585 7622 0
7715 7585 -7622 0
7715 -7585 7622 0
-7716 7717 7719 0
-7716 7719 7748 0
-7716 7717 7748 0
7716 -7719 -7748 0
7716 -7717 -7719 0
7716 -7717 -7748 0
-7717 7590 7718 0
-7717 -7590 -7718 0
7717 -7590 7718 0
7717 7590 -7718 0
-7718 -7588 -7621 0
-7718 7588 7621 0
7718 7588 -7621 0
7718 -7588 7621 0
-7719 7720 7722 0
-7719 7722 7747 0
-7719 7720 7747 0
7719 -7722 -7747 0
7719 -7720 -7722 0
7719 -7720 -7747 0
-7720 7593 7721 0
-7720 -7593 -7721 0
7720 -7593 7721 0
7720 7593 -7721 0
-7721 -7591 -7620 0
-7721 7591 7620 0
7721 7591 -7620 0
7721 -7591 7620 0
-7722 7723 7725 0
-7722 7725 7746 0
-7722 7723 7746 0
7722 -7725 -7746 0
7722 -7723 -7725 0
7722 -7723 -7746 0
-7723 7596 7724 0
-7723 -7596 -7724 0
7723 -7596 7724 0
7723 7596 -7724 0
-7724 -7594 -7619 0
-7724 7594 7619 0
7724 7594 -7619 0
7724 -7594 7619 0
-7725 7726 7728 0
-7725 7728 7745 0
-7725 7726 7745 0
7725 -7728 -7745 0
7725 -7726 -7728 0
7725 -7726 -7745 0
-7726 7599 7727 0
-7726 -7599 -7727 0
7726 -7599 7727 0
7726 7599 -7727 0
-7727 -7597 -7618 0
-7727 7597 7618 0
7727 7597 -7618 0
7727 -7597 7618 0
-7728 7729 7731 0
-7728 7731 7744 0
-7728 7729 7744 0
7728 -7731 -7744 0
7728 -7729 -7731 0
7728 -7729 -7744 0
-7729 7602 7730 0
-7729 -7602 -7730 0
7729 -7602 7730 0
7729 7602 -7730 0
-7730 -7600 -7617 0
-7730 7600 7617 0
7730 7600 -7617 0
7730 -7600 7617 0
-7731 7732 7734 0
-7731 7734 7743 0
-7731 7732 7743 0
7731 -7734 -7743 0
7731 -7732 -7734 0
7731 -7732 -7743 0
-7732 7605 7733 0
-7732 -7605 -7733 0
7732 -7605 7733 0
7732 7605 -7733 0
-7733 -7603 -7616 0
-7733 7603 7616 0
7733 7603 -7616 0
7733 -7603 7616 0
-7734 7737 7742 0
-7734 7735 7737 0
-7734 7735 7742 0
7734 -7735 -7737 0
7734 -7737 -7742 0
7734 -7735 -7742 0
-7735 7608 7736 0
-7735 -7608 -7736 0
7735 -7608 7736 0
7735 7608 -7736 0
-7736 -7606 -7615 0
-7736 7606 7615 0
7736 7606 -7615 0
7736 -7606 7615 0
7737 -7738 -7740 0
-7737 7738 0
-7737 7740 0
7738 -9869 -7739 0
-7738 9869 0
-7738 7739 0
-7739 -9917 -9918 0
-7739 9917 9918 0
7739 9917 -9918 0
7739 -9917 9918 0
-7740 7611 7741 0
-7740 -7611 -7741 0
7740 -7611 7741 0
7740 7611 -7741 0
-7741 -7609 -7614 0
-7741 7609 7614 0
7741 7609 -7614 0
7741 -7609 7614 0
7742 9869 -9870 -7739 0
7742 -9870 9918 -7739 0
7742 -9869 9870 -9918 -7739 0
-7742 9870 9918 0
-7742 9869 9870 0
-7742 7739 0
-7742 -9869 -9870 -9918 0
7743 -9871 9918 -7739 0
7743 -9871 69 -7739 0
7743 9871 -9918 -69 -7739 0
-7743 9871 69 0
-7743 -9871 -9918 -69 0
-7743 7739 0
-7743 9871 9918 0
7744 -9872 9918 -7739 0
7744 -9872 68 -7739 0
7744 9872 -9918 -68 -7739 0
-7744 9872 68 0
-7744 -9872 -9918 -68 0
-7744 7739 0
-7744 9872 9918 0
7745 -9873 9918 -7739 0
7745 -9873 67 -7739 0
7745 9873 -9918 -67 -7739 0
-7745 9873 67 0
-7745 -9873 -9918 -67 0
-7745 7739 0
-7745 9873 9918 0
7746 -9874 9918 -7739 0
7746 -9874 66 -7739 0
7746 9874 -9918 -66 -7739 0
-7746 9874 66 0
-7746 -9874 -9918 -66 0
-7746 7739 0
-7746 9874 9918 0
7747 -9875 9918 -7739 0
7747 -9875 65 -7739 0
7747 9875 -9918 -65 -7739 0
-7747 9875 65 0
-7747 -9875 -9918 -65 0
-7747 7739 0
-7747 9875 9918 0
7748 -9876 9918 -7739 0
7748 -9876 64 -7739 0
7748 9876 -9918 -64 -7739 0
-7748 9876 64 0
-7748 -9876 -9918 -64 0
-7748 7739 0
-7748 9876 9918 0
7749 -9877 9918 -7739 0
7749 -9877 63 -7739 0
7749 9877 -9918 -63 -7739 0
-7749 9877 63 0
-7749 -9877 -9918 -63 0
-7749 7739 0
-7749 9877 9918 0
7750 -9878 9918 -7739 0
7750 -9878 62 -7739 0
7750 9878 -9918 -62 -7739 0
-7750 9878 62 0
-7750 -9878 -9918 -62 0
-7750 7739 0
-7750 9878 9918 0
7751 -9879 9918 -7739 0
7751 -9879 61 -7739 0
7751 9879 -9918 -61 -7739 0
-7751 9879 61 0
-7751 -9879 -9918 -61 0
-7751 7739 0
-7751 9879 9918 0
7752 -9880 9918 -7739 0
7752 -9880 60 -7739 0
7752 9880 -9918 -60 -7739 0
-7752 9880 60 0
-7752 -9880 -9918 -60 0
-7752 7739 0
-7752 9880 9918 0
7753 -9881 9918 -7739 0
7753 -9881 59 -7739 0
7753 9881 -9918 -59 -7739 0
-7753 9881 59 0
-7753 -9881 -9918 -59 0
-7753 7739 0
-7753 9881 9918 0
7754 -9882 9918 -7739 0
7754 -9882 58 -7739 0
7754 9882 -9918 -58 -7739 0
-7754 9882 58 0
-7754 -9882 -9918 -58 0
-7754 7739 0
-7754 9882 9918 0
7755 -9883 9918 -7739 0
7755 -9883 57 -7739 0
7755 9883 -9918 -57 -7739 0
-7755 9883 57 0
-7755 -9883 -9918 -57 0
-7755 7739 0
-7755 9883 9918 0
7756 -9884 9918 -7739 0
7756 -9884 56 -7739 0
7756 9884 -9918 -56 -7739 0
-7756 9884 56 0
-7756 -9884 -9918 -56 0
-7756 7739 0
-7756 9884 9918 0
7757 -9885 9918 -7739 0
7757 -9885 55 -7739 0
7757 9885 -9918 -55 -7739 0
-7757 9885 55 0
-7757 -9885 -9918 -55 0
-7757 7739 0
-7757 9885 9918 0
7758 -9886 9918 -7739 0
7758 -9886 54 -7739 0
7758 9886 -9918 -54 -7739 0
-7758 9886 54 0
-7758 -9886 -9918 -54 0
-7758 7739 0
-7758 9886 9918 0
7759 -9887 9918 -7739 0
7759 -9887 53 -7739 0
7759 9887 -9918 -53 -7739 0
-7759 9887 53 0
-7759 -9887 -9918 -53 0
-7759 7739 0
-7759 9887 9918 0
7760 -9888 9918 -7739 0
7760 -9888 52 -7739 0
7760 9888 -9918 -52 -7739 0
-7760 9888 52 0
-7760 -9888 -9918 -52 0
-7760 7739 0
-7760 9888 9918 0
7761 -9889 9918 -7739 0
7761 -9889 51 -7739 0
7761 9889 -9918 -51 -7739 0
-7761 9889 51 0
-7761 -9889 -9918 -51 0
-7761 7739 0
-7761 9889 9918 0
7762 -9890 9918 -7739 0
7762 -9890 50 -7739 0
7762 9890 -9918 -50 -7739 0
-7762 9890 50 0
-7762 -9890 -9918 -50 0
-7762 7739 0
-7762 9890 9918 0
7763 -9891 9918 -7739 0
7763 -9891 49 -7739 0
7763 9891 -9918 -49 -7739 0
-7763 9891 49 0
-7763 -9891 -9918 -49 0
-7763 7739 0
-7763 9891 9918 0
7764 -9892 9918 -7739 0
7764 -9892 48 -7739 0
7764 9892 -9918 -48 -7739 0
-7764 9892 48 0
-7764 -9892 -9918 -48 0
-7764 7739 0
-7764 9892 9918 0
7765 -9893 9918 -7739 0
7765 -9893 47 -7739 0
7765 9893 -9918 -47 -7739 0
-7765 9893 47 0
-7765 -9893 -9918 -47 0
-7765 7739 0
-7765 9893 9918 0
7766 -9894 9918 -7739 0
7766 -9894 46 -7739 0
7766 9894 -9918 -46 -7739 0
-7766 9894 46 0
-7766 -9894 -9918 -46 0
-7766 7739 0
-7766 9894 9918 0
7767 -9895 9918 -7739 0
7767 -9895 45 -7739 0
7767 9895 -9918 -45 -7739 0
-7767 9895 45 0
-7767 -9895 -9918 -45 0
-7767 7739 0
-7767 9895 9918 0
7768 -9896 9918 -7739 0
7768 -9896 44 -7739 0
7768 9896 -9918 -44 -7739 0
-7768 9896 44 0
-7768 -9896 -9918 -44 0
-7768 7739 0
-7768 9896 9918 0
7769 -9897 9918 -7739 0
7769 -9897 43 -7739 0
7769 9897 -9918 -43 -7739 0
-7769 9897 43 0
-7769 -9897 -9918 -43 0
-7769 7739 0
-7769 9897 9918 0
7770 -9898 9918 -7739 0
7770 -9898 42 -7739 0
7770 9898 -9918 -42 -7739 0
-7770 9898 42 0
-7770 -9898 -9918 -42 0
-7770 7739 0
-7770 9898 9918 0
7771 -9899 9918 -7739 0
7771 -9899 41 -7739 0
7771 9899 -9918 -41 -7739 0
-7771 9899 41 0
-7771 -9899 -9918 -41 0
-7771 7739 0
-7771 9899 9918 0
7772 -9900 9918 -7739 0
7772 -9900 40 -7739 0
7772 9900 -9918 -40 -7739 0
-7772 9900 40 0
-7772 -9900 -9918 -40 0
-7772 7739 0
-7772 9900 9918 0
7773 9918 -9919 -39 0
-7773 -9918 0
-7773 9919 0
-7773 39 0
-7774 5611 7775 0
-7774 7775 7898 0
-7774 5611 7898 0
7774 -7775 -7898 0
7774 -5611 -7775 0
7774 -5611 -7898 0
-7775 7776 7778 0
-7775 7778 7897 0
-7775 7776 7897 0
7775 -7778 -7897 0
7775 -7776 -7778 0
7775 -7776 -7897 0
-7776 7647 7777 0
-7776 -7647 -7777 0
7776 -7647 7777 0
7776 7647 -7777 0
-7777 -5613 -7772 0
-7777 5613 7772 0
7777 5613 -7772 0
7777 -5613 7772 0
-7778 7779 7781 0
-7778 7781 7896 0
-7778 7779 7896 0
7778 -7781 -7896 0
7778 -7779 -7781 0
7778 -7779 -7896 0
-7779 7650 7780 0
-7779 -7650 -7780 0
7779 -7650 7780 0
7779 7650 -7780 0
-7780 -7648 -7771 0
-7780 7648 7771 0
7780 7648 -7771 0
7780 -7648 7771 0
-7781 7782 7784 0
-7781 7784 7895 0
-7781 7782 7895 0
7781 -7784 -7895 0
7781 -7782 -7784 0
7781 -7782 -7895 0
-7782 7653 7783 0
-7782 -7653 -7783 0
7782 -7653 7783 0
7782 7653 -7783 0
-7783 -7651 -7770 0
-7783 7651 7770 0
7783 7651 -7770 0
7783 -7651 7770 0
-7784 7785 7787 0
-7784 7787 7894 0
-7784 7785 7894 0
7784 -7787 -7894 0
7784 -7785 -7787 0
7784 -7785 -7894 0
-7785 7656 7786 0
-7785 -7656 -7786 0
7785 -7656 7786 0
7785 7656 -7786 0
-7786 -7654 -7769 0
-7786 7654 7769 0
7786 7654 -7769 0
7786 -7654 7769 0
-7787 7788 7790 0
-7787 7790 7893 0
-7787 7788 7893 0
7787 -7790 -7893 0
7787 -7788 -7790 0
7787 -7788 -7893 0
-7788 7659 7789 0
-7788 -7659 -7789 0
7788 -7659 7789 0
7788 7659 -7789 0
-7789 -7657 -7768 0
-7789 7657 7768 0
7789 7657 -7768 0
7789 -7657 7768 0
-7790 7791 7793 0
-7790 7793 7892 0
-7790 7791 7892 0
7790 -7793 -7892 0
7790 -7791 -7793 0
7790 -7791 -7892 0
-7791 7662 7792 0
-7791 -7662 -7792 0
7791 -7662 7792 0
7791 7662 -7792 0
-7792 -7660 -7767 0
-7792 7660 7767 0
7792 7660 -7767 0
7792 -7660 7767 0
-7793 7794 7796 0
-7793 7796 7891 0
-7793 7794 7891 0
7793 -7796 -7891 0
7793 -7794 -7796 0
7793 -7794 -7891 0
-7794 7665 7795 0
-7794 -7665 -7795 0
7794 -7665 7795 0
7794 7665 -7795 0
-7795 -7663 -7766 0
-7795 7663 7766 0
7795 7663 -7766 0
7795 -7663 7766 0
-7796 7797 7799 0
-7796 7799 7890 0
-7796 7797 7890 0
7796 -7799 -7890 0
7796 -7797 -7799 0
7796 -7797 -7890 0
-7797 7668 7798 0
-7797 -7668 -7798 0
7797 -7668 7798 0
7797 7668 -7798 0
-7798 -7666 -7765 0
-7798 7666 7765 0
7798 7666 -7765 0
7798 -7666 7765 0
-7799 7800 7802 0
-7799 7802 7889 0
-7799 7800 7889 0
7799 -7802 -7889 0
7799 -7800 -7802 0
7799 -7800 -7889 0
-7800 7671 7801 0
-7800 -7671 -7801 0
7800 -7671 7801 0
7800 7671 -7801 0
-7801 -7669 -7764 0
-7801 7669 7764 0
7801 7669 -7764 0
7801 -7669 7764 0
-7802 7803 7805 0
-7802 7805 7888 0
-7802 7803 7888 0
7802 -7805 -7888 0
7802 -7803 -7805 0
7802 -7803 -7888 0
-7803 7674 7804 0
-7803 -7674 -7804 0
7803 -7674 7804 0
7803 7674 -7804 0
-7804 -7672 -7763 0
-7804 7672 7763 0
7804 7672 -7763 0
7804 -7672 7763 0
-7805 7806 7808 0
-7805 7808 7887 0
-7805 7806 7887 0
7805 -7808 -7887 0
7805 -7806 -7808 0
7805 -7806 -7887 0
-7806 7677 7807 0
-7806 -7677 -7807 0
7806 -7677 7807 0
7806 7677 -7807 0
-7807 -7675 -7762 0
-7807 7675 7762 0
7807 7675 -7762 0
7807 -7675 7762 0
-7808 7809 7811 0
-7808 7811 7886 0
-7808 7809 7886 0
7808 -7811 -7886 0
7808 -7809 -7811 0
7808 -7809 -7886 0
-7809 7680 7810 0
-7809 -7680 -7810 0
7809 -7680 7810 0
7809 7680 -7810 0
-7810 -7678 -7761 0
-7810 7678 7761 0
7810 7678 -7761 0
7810 -7678 7761 0
-7811 7812 7814 0
-7811 7814 7885 0
-7811 7812 7885 0
7811 -7814 -7885 0
7811 -7812 -7814 0
7811 -7812 -7885 0
-7812 7683 7813 0
-7812 -7683 -7813 0
7812 -7683 7813 0
7812 7683 -7813 0
-7813 -7681 -7760 0
-7813 7681 7760 0
7813 7681 -7760 0
7813 -7681 7760 0
-7814 7815 7817 0
-7814 7817 7884 0
-7814 7815 7884 0
7814 -7817 -7884 0
7814 -7815 -7817 0
7814 -7815 -7884 0
-7815 7686 7816 0
-7815 -7686 -7816 0
7815 -7686 7816 0
7815 7686 -7816 0
-7816 -7684 -7759 0
-7816 7684 7759 0
7816 7684 -7759 0
7816 -7684 7759 0
-7817 7818 7820 0
-7817 7820 7883 0
-7817 7818 7883 0
7817 -7820 -7883 0
7817 -7818 -7820 0
7817 -7818 -7883 0
-7818 7689 7819 0
-7818 -7689 -7819 0
7818 -7689 7819 0
7818 7689 -7819 0
-7819 -7687 -7758 0
-7819 7687 7758 0
7819 7687 -7758 0
7819 -7687 7758 0
-7820 7821 7823 0
-7820 7823 7882 0
-7820 7821 7882 0
7820 -7823 -7882 0
7820 -7821 -7823 0
7820 -7821 -7882 0
-7821 7692 7822 0
-7821 -7692 -7822 0
7821 -7692 7822 0
7821 7692 -7822 0
-7822 -7690 -7757 0
-7822 7690 7757 0
7822 7690 -7757 0
7822 -7690 7757 0
-7823 7824 7826 0
-7823 7826 7881 0
-7823 7824 7881 0
7823 -7826 -7881 0
7823 -7824 -7826 0
7823 -7824 -7881 0
-7824 7695 7825 0
-7824 -7695 -7825 0
7824 -7695 7825 0
7824 7695 -7825 0
-7825 -7693 -7756 0
-7825 7693 7756 0
7825 7693 -7756 0
7825 -7693 7756 0
-7826 7827 7829 0
-7826 7829 7880 0
-7826 7827 7880 0
7826 -7829 -7880 0
7826 -7827 -7829 0
7826 -7827 -7880 0
-7827 7698 7828 0
-7827 -7698 -7828 0
7827 -7698 7828 0
7827 7698 -7828 0
-7828 -7696 -7755 0
-7828 7696 7755 0
7828 7696 -7755 0
7828 -7696 7755 0
-7829 7830 7832 0
-7829 7832 7879 0
-7829 7830 7879 0
7829 -7832 -7879 0
7829 -7830 -7832 0
7829 -7830 -7879 0
-7830 7701 7831 0
-7830 -7701 -7831 0
7830 -7701 7831 0
7830 7701 -7831 0
-7831 -7699 -7754 0
-7831 7699 7754 0
7831 7699 -7754 0
7831 -7699 7754 0
-7832 7833 7835 0
-7832 7835 7878 0
-7832 7833 7878 0
7832 -7835 -7878 0
7832 -7833 -7835 0
7832 -7833 -7878 0
-7833 7704 7834 0
-7833 -7704 -7834 0
7833 -7704 7834 0
7833 7704 -7834 0
-7834 -7702 -7753 0
-7834 7702 7753 0
7834 7702 -7753 0
7834 -7702 7753 0
-7835 7836 7838 0
-7835 7838 7877 0
-7835 7836 7877 0
7835 -7838 -7877 0
7835 -7836 -7838 0
7835 -7836 -7877 0
-7836 7707 7837 0
-7836 -7707 -7837 0
7836 -7707 7837 0
7836 7707 -7837 0
-7837 -7705 -7752 0
-7837 7705 7752 0
7837 7705 -7752 0
7837 -7705 7752 0
-7838 7839 7841 0
-7838 7841 7876 0
-7838 7839 7876 0
7838 -7841 -7876 0
7838 -7839 -7841 0
7838 -7839 -7876 0
-7839 7710 7840 0
-7839 -7710 -7840 0
7839 -7710 7840 0
7839 7710 -7840 0
-7840 -7708 -7751 0
-7840 7708 7751 0
7840 7708 -7751 0
7840 -7708 7751 0
-7841 7842 7844 0
-7841 7844 7875 0
-7841 7842 7875 0
7841 -7844 -7875 0
7841 -7842 -7844 0
7841 -7842 -7875 0
-7842 7713 7843 0
-7842 -7713 -7843 0
7842 -7713 7843 0
7842 7713 -7843 0
-7843 -7711 -7750 0
-7843 7711 7750 0
7843 7711 -7750 0
7843 -7711 7750 0
-7844 7845 7847 0
-7844 7847 7874 0
-7844 7845 7874 0
7844 -7847 -7874 0
7844 -7845 -7847 0
7844 -7845 -7874 0
-7845 7716 7846 0
-7845 -7716 -7846 0
7845 -7716 7846 0
7845 7716 -7846 0
-7846 -7714 -7749 0
-7846 7714 7749 0
7846 7714 -7749 0
7846 -7714 7749 0
-7847 7848 7850 0
-7847 7850 7873 0
-7847 7848 7873 0
7847 -7850 -7873 0
7847 -7848 -7850 0
7847 -7848 -7873 0
-7848 7719 7849 0
-7848 -7719 -7849 0
7848 -7719 7849 0
7848 7719 -7849 0
-7849 -7717 -7748 0
-7849 7717 7748 0
7849 7717 -7748 0
7849 -7717 7748 0
-7850 7851 7853 0
-7850 7853 7872 0
-7850 7851 7872 0
7850 -7853 -7872 0
7850 -7851 -7853 0
7850 -7851 -7872 0
-7851 7722 7852 0
-7851 -7722 -7852 0
7851 -7722 7852 0
7851 7722 -7852 0
-7852 -7720 -7747 0
-7852 7720 7747 0
7852 7720 -7747 0
7852 -7720 7747 0
-7853 7854 7856 0
-7853 7856 7871 0
-7853 7854 7871 0
7853 -7856 -7871 0
7853 -7854 -7856 0
7853 -7854 -7871 0
-7854 7725 7855 0
-7854 -7725 -7855 0
7854 -7725 7855 0
7854 7725 -7855 0
-7855 -7723 -7746 0
-7855 7723 7746 0
7855 7723 -7746 0
7855 -7723 7746 0
-7856 7857 7859 0
-7856 7859 7870 0
-7856 7857 7870 0
7856 -7859 -7870 0
7856 -7857 -7859 0
7856 -7857 -7870 0
-7857 7728 7858 0
-7857 -7728 -7858 0
7857 -7728 7858 0
7857 7728 -7858 0
-7858 -7726 -7745 0
-7858 7726 7745 0
7858 7726 -7745 0
7858 -7726 7745 0
-7859 7860 7862 0
-7859 7862 7869 0
-7859 7860 7869 0
7859 -7862 -7869 0
7859 -7860 -7862 0
7859 -7860 -7869 0
-7860 7731 7861 0
-7860 -7731 -7861 0
7860 -7731 7861 0
7860 7731 -7861 0
-7861 -7729 -7744 0
-7861 7729 7744 0
7861 7729 -7744 0
7861 -7729 7744 0
-7862 7865 7868 0
-7862 7863 7865 0
-7862 7863 7868 0
7862 -7863 -7865 0
7862 -7865 -7868 0
7862 -7863 -7868 0
-7863 7734 7864 0
-7863 -7734 -7864 0
7863 -7734 7864 0
7863 7734 -7864 0
-7864 -7732 -7743 0
-7864 7732 7743 0
7864 7732 -7743 0
7864 -7732 7743 0
7865 -3069 -7866 0
-7865 3069 0
-7865 7866 0
-7866 7737 7867 0
-7866 -7737 -7867 0
7866 -7737 7867 0
7866 7737 -7867 0
-7867 -7735 -7742 0
-7867 7735 7742 0
7867 7735 -7742 0
7867 -7735 7742 0
7868 9869 -9870 -3070 0
7868 -9870 9919 -3070 0
7868 -9869 9870 -9919 -3070 0
-7868 9870 9919 0
-7868 9869 9870 0
-7868 3070 0
-7868 -9869 -9870 -9919 0
7869 -9871 9919 -3070 0
7869 -9871 69 -3070 0
7869 9871 -9919 -69 -3070 0
-7869 9871 69 0
-7869 -9871 -9919 -69 0
-7869 3070 0
-7869 9871 9919 0
7870 -9872 9919 -3070 0
7870 -9872 68 -3070 0
7870 9872 -9919 -68 -3070 0
-7870 9872 68 0
-7870 -9872 -9919 -68 0
-7870 3070 0
-7870 9872 9919 0
7871 -9873 9919 -3070 0
7871 -9873 67 -3070 0
7871 9873 -9919 -67 -3070 0
-7871 9873 67 0
-7871 -9873 -9919 -67 0
-7871 3070 0
-7871 9873 9919 0
7872 -9874 9919 -3070 0
7872 -9874 66 -3070 0
7872 9874 -9919 -66 -3070 0
-7872 9874 66 0
-7872 -9874 -9919 -66 0
-7872 3070 0
-7872 9874 9919 0
7873 -9875 9919 -3070 0
7873 -9875 65 -3070 0
7873 9875 -9919 -65 -3070 0
-7873 9875 65 0
-7873 -9875 -9919 -65 0
-7873 3070 0
-7873 9875 9919 0
7874 -9876 9919 -3070 0
7874 -9876 64 -3070 0
7874 9876 -9919 -64 -3070 0
-7874 9876 64 0
-7874 -9876 -9919 -64 0
-7874 3070 0
-7874 9876 9919 0
7875 -9877 9919 -3070 0
7875 -9877 63 -3070 0
7875 9877 -9919 -63 -3070 0
-7875 9877 63 0
-7875 -9877 -9919 -63 0
-7875 3070 0
-7875 9877 9919 0
7876 -9878 9919 -3070 0
7876 -9878 62 -3070 0
7876 9878 -9919 -62 -3070 0
-7876 9878 62 0
-7876 -9878 -9919 -62 0
-7876 3070 0
-7876 9878 9919 0
7877 -9879 9919 -3070 0
7877 -9879 61 -3070 0
7877 9879 -9919 -61 -3070 0
-7877 9879 61 0
-7877 -9879 -9919 -61 0
-7877 3070 0
-7877 9879 9919 0
7878 -9880 9919 -3070 0
7878 -9880 60 -3070 0
7878 9880 -9919 -60 -3070 0
-7878 9880 60 0
-7878 -9880 -9919 -60 0
-7878 3070 0
-7878 9880 9919 0
7879 -9881 9919 -3070 0
7879 -9881 59 -3070 0
7879 9881 -9919 -59 -3070 0
-7879 9881 59 0
-7879 -9881 -9919 -59 0
-7879 3070 0
-7879 9881 9919 0
7880 -9882 9919 -3070 0
7880 -9882 58 -3070 0
7880 9882 -9919 -58 -3070 0
-7880 9882 58 0
-7880 -9882 -9919 -58 0
-7880 3070 0
-7880 9882 9919 0
7881 -9883 9919 -3070 0
7881 -9883 57 -3070 0
7881 9883 -9919 -57 -3070 0
-7881 9883 57 0
-7881 -9883 -9919 -57 0
-7881 3070 0
-7881 9883 9919 0
7882 -9884 9919 -3070 0
7882 -9884 56 -3070 0
7882 9884 -9919 -56 -3070 0
-7882 9884 56 0
-7882 -9884 -9919 -56 0
-7882 3070 0
-7882 9884 9919 0
7883 -9885 9919 -3070 0
7883 -9885 55 -3070 0
7883 9885 -9919 -55 -3070 0
-7883 9885 55 0
-7883 -9885 -9919 -55 0
-7883 3070 0
-7883 9885 9919 0
7884 -9886 9919 -3070 0
7884 -9886 54 -3070 0
7884 9886 -9919 -54 -3070 0
-7884 9886 54 0
-7884 -9886 -9919 -54 0
-7884 3070 0
-7884 9886 9919 0
7885 -9887 9919 -3070 0
7885 -9887 53 -3070 0
7885 9887 -9919 -53 -3070 0
-7885 9887 53 0
-7885 -9887 -9919 -53 0
-7885 3070 0
-7885 9887 9919 0
7886 -9888 9919 -3070 0
7886 -9888 52 -3070 0
7886 9888 -9919 -52 -3070 0
-7886 9888 52 0
-7886 -9888 -9919 -52 0
-7886 3070 0
-7886 9888 9919 0
7887 -9889 9919 -3070 0
7887 -9889 51 -3070 0
7887 9889 -9919 -51 -3070 0
-7887 9889 51 0
-7887 -9889 -9919 -51 0
-7887 3070 0
-7887 9889 9919 0
7888 -9890 9919 -3070 0
7888 -9890 50 -3070 0
7888 9890 -9919 -50 -3070 0
-7888 9890 50 0
-7888 -9890 -9919 -50 0
-7888 3070 0
-7888 9890 9919 0
7889 -9891 9919 -3070 0
7889 -9891 49 -3070 0
7889 9891 -9919 -49 -3070 0
-7889 9891 49 0
-7889 -9891 -9919 -49 0
-7889 3070 0
-7889 9891 9919 0
7890 -9892 9919 -3070 0
7890 -9892 48 -3070 0
7890 9892 -9919 -48 -3070 0
-7890 9892 48 0
-7890 -9892 -9919 -48 0
-7890 3070 0
-7890 9892 9919 0
7891 -9893 9919 -3070 0
7891 -9893 47 -3070 0
7891 9893 -9919 -47 -3070 0
-7891 9893 47 0
-7891 -9893 -9919 -47 0
-7891 3070 0
-7891 9893 9919 0
7892 -9894 9919 -3070 0
7892 -9894 46 -3070 0
7892 9894 -9919 -46 -3070 0
-7892 9894 46 0
-7892 -9894 -9919 -46 0
-7892 3070 0
-7892 9894 9919 0
7893 -9895 9919 -3070 0
7893 -9895 45 -3070 0
7893 9895 -9919 -45 -3070 0
-7893 9895 45 0
-7893 -9895 -9919 -45 0
-7893 3070 0
-7893 9895 9919 0
7894 -9896 9919 -3070 0
7894 -9896 44 -3070 0
7894 9896 -9919 -44 -3070 0
-7894 9896 44 0
-7894 -9896 -9919 -44 0
-7894 3070 0
-7894 9896 9919 0
7895 -9897 9919 -3070 0
7895 -9897 43 -3070 0
7895 9897 -9919 -43 -3070 0
-7895 9897 43 0
-7895 -9897 -9919 -43 0
-7895 3070 0
-7895 9897 9919 0
7896 -9898 9919 -3070 0
7896 -9898 42 -3070 0
7896 9898 -9919 -42 -3070 0
-7896 9898 42 0
-7896 -9898 -9919 -42 0
-7896 3070 0
-7896 9898 9919 0
7897 -9899 9919 -3070 0
7897 -9899 41 -3070 0
7897 9899 -9919 -41 -3070 0
-7897 9899 41 0
-7897 -9899 -9919 -41 0
-7897 3070 0
-7897 9899 9919 0
7898 -9900 9919 -3070 0
7898 -9900 40 -3070 0
7898 9900 -9919 -40 -3070 0
-7898 9900 40 0
-7898 -9900 -9919 -40 0
-7898 3070 0
-7898 9900 9919 0
7899 9919 -9920 -39 0
-7899 -9919 0
-7899 9920 0
-7899 39 0
-7900 5609 7901 0
-7900 7901 8026 0
-7900 5609 8026 0
7900 -7901 -8026 0
7900 -5609 -7901 0
7900 -5609 -8026 0
-7901 7902 7904 0
-7901 7904 8025 0
-7901 7902 8025 0
7901 -7904 -8025 0
7901 -7902 -7904 0
7901 -7902 -8025 0
-7902 7775 7903 0
-7902 -7775 -7903 0
7902 -7775 7903 0
7902 7775 -7903 0
-7903 -5611 -7898 0
-7903 5611 7898 0
7903 5611 -7898 0
7903 -5611 7898 0
-7904 7905 7907 0
-7904 7907 8024 0
-7904 7905 8024 0
7904 -7907 -8024 0
7904 -7905 -7907 0
7904 -7905 -8024 0
-7905 7778 7906 0
-7905 -7778 -7906 0
7905 -7778 7906 0
7905 7778 -7906 0
-7906 -7776 -7897 0
-7906 7776 7897 0
7906 7776 -7897 0
7906 -7776 7897 0
-7907 7908 7910 0
-7907 7910 8023 0
-7907 7908 8023 0
7907 -7910 -8023 0
7907 -7908 -7910 0
7907 -7908 -8023 0
-7908 7781 7909 0
-7908 -7781 -7909 0
7908 -7781 7909 0
7908 7781 -7909 0
-7909 -7779 -7896 0
-7909 7779 7896 0
7909 7779 -7896 0
7909 -7779 7896 0
-7910 7911 7913 0
-7910 7913 8022 0
-7910 7911 8022 0
7910 -7913 -8022 0
7910 -7911 -7913 0
7910 -7911 -8022 0
-7911 7784 7912 0
-7911 -7784 -7912 0
7911 -7784 7912 0
7911 7784 -7912 0
-7912 -7782 -7895 0
-7912 7782 7895 0
7912 7782 -7895 0
7912 -7782 7895 0
-7913 7914 7916 0
-7913 7916 8021 0
-7913 7914 8021 0
7913 -7916 -8021 0
7913 -7914 -7916 0
7913 -7914 -8021 0
-7914 7787 7915 0
-7914 -7787 -7915 0
7914 -7787 7915 0
7914 7787 -7915 0
-7915 -7785 -7894 0
-7915 7785 7894 0
7915 7785 -7894 0
7915 -7785 7894 0
-7916 7917 7919 0
-7916 7919 8020 0
-7916 7917 8020 0
7916 -7919 -8020 0
7916 -7917 -7919 0
7916 -7917 -8020 0
-7917 7790 7918 0
-7917 -7790 -7918 0
7917 -7790 7918 0
7917 7790 -7918 0
-7918 -7788 -7893 0
-7918 7788 7893 0
7918 7788 -7893 0
7918 -7788 7893 0
-7919 7920 7922 0
-7919 7922 8019 0
-7919 7920 8019 0
7919 -7922 -8019 0
7919 -7920 -7922 0
7919 -7920 -8019 0
-7920 7793 7921 0
-7920 -7793 -7921 0
7920 -7793 7921 0
7920 7793 -7921 0
-7921 -7791 -7892 0
-7921 7791 7892 0
7921 7791 -7892 0
7921 -7791 7892 0
-7922 7923 7925 0
-7922 7925 8018 0
-7922 7923 8018 0
7922 -7925 -8018 0
7922 -7923 -7925 0
7922 -7923 -8018 0
-7923 7796 7924 0
-7923 -7796 -7924 0
7923 -7796 7924 0
7923 7796 -7924 0
-7924 -7794 -7891 0
-7924 7794 7891 0
7924 7794 -7891 0
7924 -7794 7891 0
-7925 7926 7928 0
-7925 7928 8017 0
-7925 7926 8017 0
7925 -7928 -8017 0
7925 -7926 -7928 0
7925 -7926 -8017 0
-7926 7799 7927 0
-7926 -7799 -7927 0
7926 -7799 7927 0
7926 7799 -7927 0
-7927 -7797 -7890 0
-7927 7797 7890 0
7927 7797 -7890 0
7927 -7797 7890 0
-7928 7929 7931 0
-7928 7931 8016 0
-7928 7929 8016 0
7928 -7931 -8016 0
7928 -7929 -7931 0
7928 -7929 -8016 0
-7929 7802 7930 0
-7929 -7802 -7930 0
7929 -7802 7930 0
7929 7802 -7930 0
-7930 -7800 -7889 0
-7930 7800 7889 0
7930 7800 -7889 0
7930 -7800 7889 0
-7931 7932 7934 0
-7931 7934 8015 0
-7931 7932 8015 0
7931 -7934 -8015 0
7931 -7932 -7934 0
7931 -7932 -8015 0
-7932 7805 7933 0
-7932 -7805 -7933 0
7932 -7805 7933 0
7932 7805 -7933 0
-7933 -7803 -7888 0
-7933 7803 7888 0
7933 7803 -7888 0
7933 -7803 7888 0
-7934 7935 7937 0
-7934 7937 8014 0
-7934 7935 8014 0
7934 -7937 -8014 0
7934 -7935 -7937 0
7934 -7935 -8014 0
-7935 7808 7936 0
-7935 -7808 -7936 0
7935 -7808 7936 0
7935 7808 -7936 0
-7936 -7806 -7887 0
-7936 7806 7887 0
7936 7806 -7887 0
7936 -7806 7887 0
-7937 7938 7940 0
-7937 7940 8013 0
-7937 7938 8013 0
7937 -7940 -8013 0
7937 -7938 -7940 0
7937 -7938 -8013 0
-7938 7811 7939 0
-7938 -7811 -7939 0
7938 -7811 7939 0
7938 7811 -7939 0
-7939 -7809 -7886 0
-7939 7809 7886 0
7939 7809 -7886 0
7939 -7809 7886 0
-7940 7941 7943 0
-7940 7943 8012 0
-7940 7941 8012 0
7940 -7943 -8012 0
7940 -7941 -7943 0
7940 -7941 -8012 0
-7941 7814 7942 0
-7941 -7814 -7942 0
7941 -7814 7942 0
7941 7814 -7942 0
-7942 -7812 -7885 0
-7942 7812 7885 0
7942 7812 -7885 0
7942 -7812 7885 0
-7943 7944 7946 0
-7943 7946 8011 0
-7943 7944 8011 0
7943 -7946 -8011 0
7943 -7944 -7946 0
7943 -7944 -8011 0
-7944 7817 7945 0
-7944 -7817 -7945 0
7944 -7817 7945 0
7944 7817 -7945 0
-7945 -7815 -7884 0
-7945 7815 7884 0
7945 7815 -7884 0
7945 -7815 7884 0
-7946 7947 7949 0
-7946 7949 8010 0
-7946 7947 8010 0
7946 -7949 -8010 0
7946 -7947 -7949 0
7946 -7947 -8010 0
-7947 7820 7948 0
-7947 -7820 -7948 0
7947 -7820 7948 0
7947 7820 -7948 0
-7948 -7818 -7883 0
-7948 7818 7883 0
7948 7818 -7883 0
7948 -7818 7883 0
-7949 7950 7952 0
-7949 7952 8009 0
-7949 7950 8009 0
7949 -7952 -8009 0
7949 -7950 -7952 0
7949 -7950 -8009 0
-7950 7823 7951 0
-7950 -7823 -7951 0
7950 -7823 7951 0
7950 7823 -7951 0
-7951 -7821 -7882 0
-7951 7821 7882 0
7951 7821 -7882 0
7951 -7821 7882 0
-7952 7953 7955 0
-7952 7955 8008 0
-7952 7953 8008 0
7952 -7955 -8008 0
7952 -7953 -7955 0
7952 -7953 -8008 0
-7953 7826 7954 0
-7953 -7826 -7954 0
7953 -7826 7954 0
7953 7826 -7954 0
-7954 -7824 -7881 0
-7954 7824 7881 0
7954 7824 -7881 0
7954 -7824 7881 0
-7955 7956 7958 0
-7955 7958 8007 0
-7955 7956 8007 0
7955 -7958 -8007 0
7955 -7956 -7958 0
7955 -7956 -8007 0
-7956 7829 7957 0
-7956 -7829 -7957 0
7956 -7829 7957 0
7956 7829 -7957 0
-7957 -7827 -7880 0
-7957 7827 7880 0
7957 7827 -7880 0
7957 -7827 7880 0
-7958 7959 7961 0
-7958 7961 8006 0
-7958 7959 8006 0
7958 -7961 -8006 0
7958 -7959 -7961 0
7958 -7959 -8006 0
-7959 7832 7960 0
-7959 -7832 -7960 0
7959 -7832 7960 0
7959 7832 -7960 0
-7960 -7830 -7879 0
-7960 7830 7879 0
7960 7830 -7879 0
7960 -7830 7879 0
-7961 7962 7964 0
-7961 7964 8005 0
-7961 7962 8005 0
7961 -7964 -8005 0
7961 -7962 -7964 0
7961 -7962 -8005 0
-7962 7835 7963 0
-7962 -7835 -7963 0
7962 -7835 7963 0
7962 7835 -7963 0
-7963 -7833 -7878 0
-7963 7833 7878 0
7963 7833 -7878 0
7963 -7833 7878 0
-7964 7965 7967 0
-7964 7967 8004 0
-7964 7965 8004 0
7964 -7967 -8004 0
7964 -7965 -7967 0
7964 -7965 -8004 0
-7965 7838 7966 0
-7965 -7838 -7966 0
7965 -7838 7966 0
7965 7838 -7966 0
-7966 -7836 -7877 0
-7966 7836 7877 0
7966 7836 -7877 0
7966 -7836 7877 0
-7967 7968 7970 0
-7967 7970 8003 0
-7967 7968 8003 0
7967 -7970 -8003 0
7967 -7968 -7970 0
7967 -7968 -8003 0
-7968 7841 7969 0
-7968 -7841 -7969 0
7968 -7841 7969 0
7968 7841 -7969 0
-7969 -7839 -7876 0
-7969 7839 7876 0
7969 7839 -7876 0
7969 -7839 7876 0
-7970 7971 7973 0
-7970 7973 8002 0
-7970 7971 8002 0
7970 -7973 -8002 0
7970 -7971 -7973 0
7970 -7971 -8002 0
-7971 7844 7972 0
-7971 -7844 -7972 0
7971 -7844 7972 0
7971 7844 -7972 0
-7972 -7842 -7875 0
-7972 7842 7875 0
7972 7842 -7875 0
7972 -7842 7875 0
-7973 7974 7976 0
-7973 7976 8001 0
-7973 7974 8001 0
7973 -7976 -8001 0
7973 -7974 -7976 0
7973 -7974 -8001 0
-7974 7847 7975 0
-7974 -7847 -7975 0
7974 -7847 7975 0
7974 7847 -7975 0
-7975 -7845 -7874 0
-7975 7845 7874 0
7975 7845 -7874 0
7975 -7845 7874 0
-7976 7977 7979 0
-7976 7979 8000 0
-7976 7977 8000 0
7976 -7979 -8000 0
7976 -7977 -7979 0
7976 -7977 -8000 0
-7977 7850 7978 0
-7977 -7850 -7978 0
7977 -7850 7978 0
7977 7850 -7978 0
-7978 -7848 -7873 0
-7978 7848 7873 0
7978 7848 -7873 0
7978 -7848 7873 0
-7979 7980 7982 0
-7979 7982 7999 0
-7979 7980 7999 0
7979 -7982 -7999 0
7979 -7980 -7982 0
7979 -7980 -7999 0
-7980 7853 7981 0
-7980 -7853 -7981 0
7980 -7853 7981 0
7980 7853 -7981 0
-7981 -7851 -7872 0
-7981 7851 7872 0
7981 7851 -7872 0
7981 -7851 7872 0
-7982 7983 7985 0
-7982 7985 7998 0
-7982 7983 7998 0
7982 -7985 -7998 0
7982 -7983 -7985 0
7982 -7983 -7998 0
-7983 7856 7984 0
-7983 -7856 -7984 0
7983 -7856 7984 0
7983 7856 -7984 0
-7984 -7854 -7871 0
-7984 7854 7871 0
7984 7854 -7871 0
7984 -7854 7871 0
-7985 7986 7988 0
-7985 7988 7997 0
-7985 7986 7997 0
7985 -7988 -7997 0
7985 -7986 -7988 0
7985 -7986 -7997 0
-7986 7859 7987 0
-7986 -7859 -7987 0
7986 -7859 7987 0
7986 7859 -7987 0
-7987 -7857 -7870 0
-7987 7857 7870 0
7987 7857 -7870 0
7987 -7857 7870 0
-7988 7991 7996 0
-7988 7989 7991 0
-7988 7989 7996 0
7988 -7989 -7991 0
7988 -7991 -7996 0
7988 -7989 -7996 0
-7989 7862 7990 0
-7989 -7862 -7990 0
7989 -7862 7990 0
7989 7862 -7990 0
-7990 -7860 -7869 0
-7990 7860 7869 0
7990 7860 -7869 0
7990 -7860 7869 0
7991 -7992 -7994 0
-7991 7992 0
-7991 7994 0
7992 -9869 -7993 0
-7992 9869 0
-7992 7993 0
-7993 -9919 -9920 0
-7993 9919 9920 0
7993 9919 -9920 0
7993 -9919 9920 0
-7994 7865 7995 0
-7994 -7865 -7995 0
7994 -7865 7995 0
7994 7865 -7995 0
-7995 -7863 -7868 0
-7995 7863 7868 0
7995 7863 -7868 0
7995 -7863 7868 0
7996 9869 -9870 -7993 0
7996 -9870 9920 -7993 0
7996 -9869 9870 -9920 -7993 0
-7996 9870 9920 0
-7996 9869 9870 0
-7996 7993 0
-7996 -9869 -9870 -9920 0
7997 -9871 9920 -7993 0
7997 -9871 69 -7993 0
7997 9871 -9920 -69 -7993 0
-7997 9871 69 0
-7997 -9871 -9920 -69 0
-7997 7993 0
-7997 9871 9920 0
7998 -9872 9920 -7993 0
7998 -9872 68 -7993 0
7998 9872 -9920 -68 -7993 0
-7998 9872 68 0
-7998 -9872 -9920 -68 0
-7998 7993 0
-7998 9872 9920 0
7999 -9873 9920 -7993 0
7999 -9873 67 -7993 0
7999 9873 -9920 -67 -7993 0
-7999 9873 67 0
-7999 -9873 -9920 -67 0
-7999 7993 0
-7999 9873 9920 0
8000 -9874 9920 -7993 0
8000 -9874 66 -7993 0
8000 9874 -9920 -66 -7993 0
-8000 9874 66 0
-8000 -9874 -9920 -66 0
-8000 7993 0
-8000 9874 9920 0
8001 -9875 9920 -7993 0
8001 -9875 65 -7993 0
8001 9875 -9920 -65 -7993 0
-8001 9875 65 0
-8001 -9875 -9920 -65 0
-8001 7993 0
-8001 9875 9920 0
8002 -9876 9920 -7993 0
8002 -9876 64 -7993 0
8002 9876 -9920 -64 -7993 0
-8002 9876 64 0
-8002 -9876 -9920 -64 0
-8002 7993 0
-8002 9876 9920 0
8003 -9877 9920 -7993 0
8003 -9877 63 -7993 0
8003 9877 -9920 -63 -7993 0
-8003 9877 63 0
-8003 -9877 -9920 -63 0
-8003 7993 0
-8003 9877 9920 0
8004 -9878 9920 -7993 0
8004 -9878 62 -7993 0
8004 9878 -9920 -62 -7993 0
-8004 9878 62 0
-8004 -9878 -9920 -62 0
-8004 7993 0
-8004 9878 9920 0
8005 -9879 9920 -7993 0
8005 -9879 61 -7993 0
8005 9879 -9920 -61 -7993 0
-8005 9879 61 0
-8005 -9879 -9920 -61 0
-8005 7993 0
-8005 9879 9920 0
8006 -9880 9920 -7993 0
8006 -9880 60 -7993 0
8006 9880 -9920 -60 -7993 0
-8006 9880 60 0
-8006 -9880 -9920 -60 0
-8006 7993 0
-8006 9880 9920 0
8007 -9881 9920 -7993 0
8007 -9881 59 -7993 0
8007 9881 -9920 -59 -7993 0
-8007 9881 59 0
-8007 -9881 -9920 -59 0
-8007 7993 0
-8007 9881 9920 0
8008 -9882 9920 -7993 0
8008 -9882 58 -7993 0
8008 9882 -9920 -58 -7993 0
-8008 9882 58 0
-8008 -9882 -9920 -58 0
-8008 7993 0
-8008 9882 9920 0
8009 -9883 9920 -7993 0
8009 -9883 57 -7993 0
8009 9883 -9920 -57 -7993 0
-8009 9883 57 0
-8009 -9883 -9920 -57 0
-8009 7993 0
-8009 9883 9920 0
8010 -9884 9920 -7993 0
8010 -9884 56 -7993 0
8010 9884 -9920 -56 -7993 0
-8010 9884 56 0
-8010 -9884 -9920 -56 0
-8010 7993 0
-8010 9884 9920 0
8011 -9885 9920 -7993 0
8011 -9885 55 -7993 0
8011 9885 -9920 -55 -7993 0
-8011 9885 55 0
-8011 -9885 -9920 -55 0
-8011 7993 0
-8011 9885 9920 0
8012 -9886 9920 -7993 0
8012 -9886 54 -7993 0
8012 9886 -9920 -54 -7993 0
-8012 9886 54 0
-8012 -9886 -9920 -54 0
-8012 7993 0
-8012 9886 9920 0
8013 -9887 9920 -7993 0
8013 -9887 53 -7993 0
8013 9887 -9920 -53 -7993 0
-8013 9887 53 0
-8013 -9887 -9920 -53 0
-8013 7993 0
-8013 9887 9920 0
8014 -9888 9920 -7993 0
8014 -9888 52 -7993 0
8014 9888 -9920 -52 -7993 0
-8014 9888 52 0
-8014 -9888 -9920 -52 0
-8014 7993 0
-8014 9888 9920 0
8015 -9889 9920 -7993 0
8015 -9889 51 -7993 0
8015 9889 -9920 -51 -7993 0
-8015 9889 51 0
-8015 -9889 -9920 -51 0
-8015 7993 0
-8015 9889 9920 0
8016 -9890 9920 -7993 0
8016 -9890 50 -7993 0
8016 9890 -9920 -50 -7993 0
-8016 9890 50 0
-8016 -9890 -9920 -50 0
-8016 7993 0
-8016 9890 9920 0
8017 -9891 9920 -7993 0
8017 -9891 49 -7993 0
8017 9891 -9920 -49 -7993 0
-8017 9891 49 0
-8017 -9891 -9920 -49 0
-8017 7993 0
-8017 9891 9920 0
8018 -9892 9920 -7993 0
8018 -9892 48 -7993 0
8018 9892 -9920 -48 -7993 0
-8018 9892 48 0
-8018 -9892 -9920 -48 0
-8018 7993 0
-8018 9892 9920 0
8019 -9893 9920 -7993 0
8019 -9893 47 -7993 0
8019 9893 -9920 -47 -7993 0
-8019 9893 47 0
-8019 -9893 -9920 -47 0
-8019 7993 0
-8019 9893 9920 0
8020 -9894 9920 -7993 0
8020 -9894 46 -7993 0
8020 9894 -9920 -46 -7993 0
-8020 9894 46 0
-8020 -9894 -9920 -46 0
-8020 7993 0
-8020 9894 9920 0
8021 -9895 9920 -7993 0
8021 -9895 45 -7993 0
8021 9895 -9920 -45 -7993 0
-8021 9895 45 0
-8021 -9895 -9920 -45 0
-8021 7993 0
-8021 9895 9920 0
8022 -9896 9920 -7993 0
8022 -9896 44 -7993 0
8022 9896 -9920 -44 -7993 0
-8022 9896 44 0
-8022 -9896 -9920 -44 0
-8022 7993 0
-8022 9896 9920 0
8023 -9897 9920 -7993 0
8023 -9897 43 -7993 0
8023 9897 -9920 -43 -7993 0
-8023 9897 43 0
-8023 -9897 -9920 -43 0
-8023 7993 0
-8023 9897 9920 0
8024 -9898 9920 -7993 0
8024 -9898 42 -7993 0
8024 9898 -9920 -42 -7993 0
-8024 9898 42 0
-8024 -9898 -9920 -42 0
-8024 7993 0
-8024 9898 9920 0
8025 -9899 9920 -7993 0
8025 -9899 41 -7993 0
8025 9899 -9920 -41 -7993 0
-8025 9899 41 0
-8025 -9899 -9920 -41 0
-8025 7993 0
-8025 9899 9920 0
8026 -9900 9920 -7993 0
8026 -9900 40 -7993 0
8026 9900 -9920 -40 -7993 0
-8026 9900 40 0
-8026 -9900 -9920 -40 0
-8026 7993 0
-8026 9900 9920 0
8027 9920 -9921 -39 0
-8027 -9920 0
-8027 9921 0
-8027 39 0
-8028 5607 8029 0
-8028 8029 8152 0
-8028 5607 8152 0
8028 -8029 -8152 0
8028 -5607 -8029 0
8028 -5607 -8152 0
-8029 8030 8032 0
-8029 8032 8151 0
-8029 8030 8151 0
8029 -8032 -8151 0
8029 -8030 -8032 0
8029 -8030 -8151 0
-8030 7901 8031 0
-8030 -7901 -8031 0
8030 -7901 8031 0
8030 7901 -8031 0
-8031 -5609 -8026 0
-8031 5609 8026 0
8031 5609 -8026 0
8031 -5609 8026 0
-8032 8033 8035 0
-8032 8035 8150 0
-8032 8033 8150 0
8032 -8035 -8150 0
8032 -8033 -8035 0
8032 -8033 -8150 0
-8033 7904 8034 0
-8033 -7904 -8034 0
8033 -7904 8034 0
8033 7904 -8034 0
-8034 -7902 -8025 0
-8034 7902 8025 0
8034 7902 -8025 0
8034 -7902 8025 0
-8035 8036 8038 0
-8035 8038 8149 0
-8035 8036 8149 0
8035 -8038 -8149 0
8035 -8036 -8038 0
8035 -8036 -8149 0
-8036 7907 8037 0
-8036 -7907 -8037 0
8036 -7907 8037 0
8036 7907 -8037 0
-8037 -7905 -8024 0
-8037 7905 8024 0
8037 7905 -8024 0
8037 -7905 8024 0
-8038 8039 8041 0
-8038 8041 8148 0
-8038 8039 8148 0
8038 -8041 -8148 0
8038 -8039 -8041 0
8038 -8039 -8148 0
-8039 7910 8040 0
-8039 -7910 -8040 0
8039 -7910 8040 0
8039 7910 -8040 0
-8040 -7908 -8023 0
-8040 7908 8023 0
8040 7908 -8023 0
8040 -7908 8023 0
-8041 8042 8044 0
-8041 8044 8147 0
-8041 8042 8147 0
8041 -8044 -8147 0
8041 -8042 -8044 0
8041 -8042 -8147 0
-8042 7913 8043 0
-8042 -7913 -8043 0
8042 -7913 8043 0
8042 7913 -8043 0
-8043 -7911 -8022 0
-8043 7911 8022 0
8043 7911 -8022 0
8043 -7911 8022 0
-8044 8045 8047 0
-8044 8047 8146 0
-8044 8045 8146 0
8044 -8047 -8146 0
8044 -8045 -8047 0
8044 -8045 -8146 0
-8045 7916 8046 0
-8045 -7916 -8046 0
8045 -7916 8046 0
8045 7916 -8046 0
-8046 -7914 -8021 0
-8046 7914 8021 0
8046 7914 -8021 0
8046 -7914 8021 0
-8047 8048 8050 0
-8047 8050 8145 0
-8047 8048 8145 0
8047 -8050 -8145 0
8047 -8048 -8050 0
8047 -8048 -8145 0
-8048 7919 8049 0
-8048 -7919 -8049 0
8048 -7919 8049 0
8048 7919 -8049 0
-8049 -7917 -8020 0
-8049 7917 8020 0
8049 7917 -8020 0
8049 -7917 8020 0
-8050 8051 8053 0
-8050 8053 8144 0
-8050 8051 8144 0
8050 -8053 -8144 0
8050 -8051 -8053 0
8050 -8051 -8144 0
-8051 7922 8052 0
-8051 -7922 -8052 0
8051 -7922 8052 0
8051 7922 -8052 0
-8052 -7920 -8019 0
-8052 7920 8019 0
8052 7920 -8019 0
8052 -7920 8019 0
-8053 8054 8056 0
-8053 8056 8143 0
-8053 8054 8143 0
8053 -8056 -8143 0
8053 -8054 -8056 0
8053 -8054 -8143 0
-8054 7925 8055 0
-8054 -7925 -8055 0
8054 -7925 8055 0
8054 7925 -8055 0
-8055 -7923 -8018 0
-8055 7923 8018 0
8055 7923 -8018 0
8055 -7923 8018 0
-8056 8057 8059 0
-8056 8059 8142 0
-8056 8057 8142 0
8056 -8059 -8142 0
8056 -8057 -8059 0
8056 -8057 -8142 0
-8057 7928 8058 0
-8057 -7928 -8058 0
8057 -7928 8058 0
8057 7928 -8058 0
-8058 -7926 -8017 0
-8058 7926 8017 0
8058 7926 -8017 0
8058 -7926 8017 0
-8059 8060 8062 0
-8059 8062 8141 0
-8059 8060 8141 0
8059 -8062 -8141 0
8059 -8060 -8062 0
8059 -8060 -8141 0
-8060 7931 8061 0
-8060 -7931 -8061 0
8060 -7931 8061 0
8060 7931 -8061 0
-8061 -7929 -8016 0
-8061 7929 8016 0
8061 7929 -8016 0
8061 -7929 8016 0
-8062 8063 8065 0
-8062 8065 8140 0
-8062 8063 8140 0
8062 -8065 -8140 0
8062 -8063 -8065 0
8062 -8063 -8140 0
-8063 7934 8064 0
-8063 -7934 -8064 0
8063 -7934 8064 0
8063 7934 -8064 0
-8064 -7932 -8015 0
-8064 7932 8015 0
8064 7932 -8015 0
8064 -7932 8015 0
-8065 8066 8068 0
-8065 8068 8139 0
-8065 8066 8139 0
8065 -8068 -8139 0
8065 -8066 -8068 0
8065 -8066 -8139 0
-8066 7937 8067 0
-8066 -7937 -8067 0
8066 -7937 8067 0
8066 7937 -8067 0
-8067 -7935 -8014 0
-8067 7935 8014 0
8067 7935 -8014 0
8067 -7935 8014 0
-8068 8069 8071 0
-8068 8071 8138 0
-8068 8069 8138 0
8068 -8071 -8138 0
8068 -8069 -8071 0
8068 -8069 -8138 0
-8069 7940 8070 0
-8069 -7940 -8070 0
8069 -7940 8070 0
8069 7940 -8070 0
-8070 -7938 -8013 0
-8070 7938 8013 0
8070 7938 -8013 0
8070 -7938 8013 0
-8071 8072 8074 0
-8071 8074 8137 0
-8071 8072 8137 0
8071 -8074 -8137 0
8071 -8072 -8074 0
8071 -8072 -8137 0
-8072 7943 8073 0
-8072 -7943 -8073 0
8072 -7943 8073 0
8072 7943 -8073 0
-8073 -7941 -8012 0
-8073 7941 8012 0
8073 7941 -8012 0
8073 -7941 8012 0
-8074 8075 8077 0
-8074 8077 8136 0
-8074 8075 8136 0
8074 -8077 -8136 0
8074 -8075 -8077 0
8074 -8075 -8136 0
-8075 7946 8076 0
-8075 -7946 -8076 0
8075 -7946 8076 0
8075 7946 -8076 0
-8076 -7944 -8011 0
-8076 7944 8011 0
8076 7944 -8011 0
8076 -7944 8011 0
-8077 8078 8080 0
-8077 8080 8135 0
-8077 8078 8135 0
8077 -8080 -8135 0
8077 -8078 -8080 0
8077 -8078 -8135 0
-8078 7949 8079 0
-8078 -7949 -8079 0
8078 -7949 8079 0
8078 7949 -8079 0
-8079 -7947 -8010 0
-8079 7947 8010 0
8079 7947 -8010 0
8079 -7947 8010 0
-8080 8081 8083 0
-8080 8083 8134 0
-8080 8081 8134 0
8080 -8083 -8134 0
8080 -8081 -8083 0
8080 -8081 -8134 0
-8081 7952 8082 0
-8081 -7952 -8082 0
8081 -7952 8082 0
8081 7952 -8082 0
-8082 -7950 -8009 0
-8082 7950 8009 0
8082 7950 -8009 0
8082 -7950 8009 0
-8083 8084 8086 0
-8083 8086 8133 0
-8083 8084 8133 0
8083 -8086 -8133 0
8083 -8084 -8086 0
8083 -8084 -8133 0
-8084 7955 8085 0
-8084 -7955 -8085 0
8084 -7955 8085 0
8084 7955 -8085 0
-8085 -7953 -8008 0
-8085 7953 8008 0
8085 7953 -8008 0
8085 -7953 8008 0
-8086 8087 8089 0
-8086 8089 8132 0
-8086 8087 8132 0
8086 -8089 -8132 0
8086 -8087 -8089 0
8086 -8087 -8132 0
-8087 7958 8088 0
-8087 -7958 -8088 0
8087 -7958 8088 0
8087 7958 -8088 0
-8088 -7956 -8007 0
-8088 7956 8007 0
8088 7956 -8007 0
8088 -7956 8007 0
-8089 8090 8092 0
-8089 8092 8131 0
-8089 8090 8131 0
8089 -8092 -8131 0
8089 -8090 -8092 0
8089 -8090 -8131 0
-8090 7961 8091 0
-8090 -7961 -8091 0
8090 -7961 8091 0
8090 7961 -8091 0
-8091 -7959 -8006 0
-8091 7959 8006 0
8091 7959 -8006 0
8091 -7959 8006 0
-8092 8093 8095 0
-8092 8095 8130 0
-8092 8093 8130 0
8092 -8095 -8130 0
8092 -8093 -8095 0
8092 -8093 -8130 0
-8093 7964 8094 0
-8093 -7964 -8094 0
8093 -7964 8094 0
8093 7964 -8094 0
-8094 -7962 -8005 0
-8094 7962 8005 0
8094 7962 -8005 0
8094 -7962 8005 0
-8095 8096 8098 0
-8095 8098 8129 0
-8095 8096 8129 0
8095 -8098 -8129 0
8095 -8096 -8098 0
8095 -8096 -8129 0
-8096 7967 8097 0
-8096 -7967 -8097 0
8096 -7967 8097 0
8096 7967 -8097 0
-8097 -7965 -8004 0
-8097 7965 8004 0
8097 7965 -8004 0
8097 -7965 8004 0
-8098 8099 8101 0
-8098 8101 8128 0
-8098 8099 8128 0
8098 -8101 -8128 0
8098 -8099 -8101 0
8098 -8099 -8128 0
-8099 7970 8100 0
-8099 -7970 -8100 0
8099 -7970 8100 0
8099 7970 -8100 0
-8100 -7968 -8003 0
-8100 7968 8003 0
8100 7968 -8003 0
8100 -7968 8003 0
-8101 8102 8104 0
-8101 8104 8127 0
-8101 8102 8127 0
8101 -8104 -8127 0
8101 -8102 -8104 0
8101 -8102 -8127 0
-8102 7973 8103 0
-8102 -7973 -8103 0
8102 -7973 8103 0
8102 7973 -8103 0
-8103 -7971 -8002 0
-8103 7971 8002 0
8103 7971 -8002 0
8103 -7971 8002 0
-8104 8105 8107 0
-8104 8107 8126 0
-8104 8105 8126 0
8104 -8107 -8126 0
8104 -8105 -8107 0
8104 -8105 -8126 0
-8105 7976 8106 0
-8105 -7976 -8106 0
8105 -7976 8106 0
8105 7976 -8106 0
-8106 -7974 -8001 0
-8106 7974 8001 0
8106 7974 -8001 0
8106 -7974 8001 0
-8107 8108 8110 0
-8107 8110 8125 0
-8107 8108 8125 0
8107 -8110 -8125 0
8107 -8108 -8110 0
8107 -8108 -8125 0
-8108 7979 8109 0
-8108 -7979 -8109 0
8108 -7979 8109 0
8108 7979 -8109 0
-8109 -7977 -8000 0
-8109 7977 8000 0
8109 7977 -8000 0
8109 -7977 8000 0
-8110 8111 8113 0
-8110 8113 8124 0
-8110 8111 8124 0
8110 -8113 -8124 0
8110 -8111 -8113 0
8110 -8111 -8124 0
-8111 7982 8112 0
-8111 -7982 -8112 0
8111 -7982 8112 0
8111 7982 -8112 0
-8112 -7980 -7999 0
-8112 7980 7999 0
8112 7980 -7999 0
8112 -7980 7999 0
-8113 8114 8116 0
-8113 8116 8123 0
-8113 8114 8123 0
8113 -8116 -8123 0
8113 -8114 -8116 0
8113 -8114 -8123 0
-8114 7985 8115 0
-8114 -7985 -8115 0
8114 -7985 8115 0
8114 7985 -8115 0
-8115 -7983 -7998 0
-8115 7983 7998 0
8115 7983 -7998 0
8115 -7983 7998 0
-8116 8119 8122 0
-8116 8117 8119 0
-8116 8117 8122 0
8116 -8117 -8119 0
8116 -8119 -8122 0
8116 -8117 -8122 0
-8117 7988 8118 0
-8117 -7988 -8118 0
8117 -7988 8118 0
8117 7988 -8118 0
-8118 -7986 -7997 0
-8118 7986 7997 0
8118 7986 -7997 0
8118 -7986 7997 0
8119 -3424 -8120 0
-8119 3424 0
-8119 8120 0
-8120 7991 8121 0
-8120 -7991 -8121 0
8120 -7991 8121 0
8120 7991 -8121 0
-8121 -7989 -7996 0
-8121 7989 7996 0
8121 7989 -7996 0
8121 -7989 7996 0
8122 9869 -9870 -3425 0
8122 -9870 9921 -3425 0
8122 -9869 9870 -9921 -3425 0
-8122 9870 9921 0
-8122 9869 9870 0
-8122 3425 0
-8122 -9869 -9870 -9921 0
8123 -9871 9921 -3425 0
8123 -9871 69 -3425 0
8123 9871 -9921 -69 -3425 0
-8123 9871 69 0
-8123 -9871 -9921 -69 0
-8123 3425 0
-8123 9871 9921 0
8124 -9872 9921 -3425 0
8124 -9872 68 -3425 0
8124 9872 -9921 -68 -3425 0
-8124 9872 68 0
-8124 -9872 -9921 -68 0
-8124 3425 0
-8124 9872 9921 0
8125 -9873 9921 -3425 0
8125 -9873 67 -3425 0
8125 9873 -9921 -67 -3425 0
-8125 9873 67 0
-8125 -9873 -9921 -67 0
-8125 3425 0
-8125 9873 9921 0
8126 -9874 9921 -3425 0
8126 -9874 66 -3425 0
8126 9874 -9921 -66 -3425 0
-8126 9874 66 0
-8126 -9874 -9921 -66 0
-8126 3425 0
-8126 9874 9921 0
8127 -9875 9921 -3425 0
8127 -9875 65 -3425 0
8127 9875 -9921 -65 -3425 0
-8127 9875 65 0
-8127 -9875 -9921 -65 0
-8127 3425 0
-8127 9875 9921 0
8128 -9876 9921 -3425 0
8128 -9876 64 -3425 0
8128 9876 -9921 -64 -3425 0
-8128 9876 64 0
-8128 -9876 -9921 -64 0
-8128 3425 0
-8128 9876 9921 0
8129 -9877 9921 -3425 0
8129 -9877 63 -3425 0
8129 9877 -9921 -63 -3425 0
-8129 9877 63 0
-8129 -9877 -9921 -63 0
-8129 3425 0
-8129 9877 9921 0
8130 -9878 9921 -3425 0
8130 -9878 62 -3425 0
8130 9878 -9921 -62 -3425 0
-8130 9878 62 0
-8130 -9878 -9921 -62 0
-8130 3425 0
-8130 9878 9921 0
8131 -9879 9921 -3425 0
8131 -9879 61 -3425 0
8131 9879 -9921 -61 -3425 0
-8131 9879 61 0
-8131 -9879 -9921 -61 0
-8131 3425 0
-8131 9879 9921 0
8132 -9880 9921 -3425 0
8132 -9880 60 -3425 0
8132 9880 -9921 -60 -3425 0
-8132 9880 60 0
-8132 -9880 -9921 -60 0
-8132 3425 0
-8132 9880 9921 0
8133 -9881 9921 -3425 0
8133 -9881 59 -3425 0
8133 9881 -9921 -59 -3425 0
-8133 9881 59 0
-8133 -9881 -9921 -59 0
-8133 3425 0
-8133 9881 9921 0
8134 -9882 9921 -3425 0
8134 -9882 58 -3425 0
8134 9882 -9921 -58 -3425 0
-8134 9882 58 0
-8134 -9882 -9921 -58 0
-8134 3425 0
-8134 9882 9921 0
8135 -9883 9921 -3425 0
8135 -9883 57 -3425 0
8135 9883 -9921 -57 -3425 0
-8135 9883 57 0
-8135 -9883 -9921 -57 0
-8135 3425 0
-8135 9883 9921 0
8136 -9884 9921 -3425 0
8136 -9884 56 -3425 0
8136 9884 -9921 -56 -3425 0
-8136 9884 56 0
-8136 -9884 -9921 -56 0
-8136 3425 0
-8136 9884 9921 0
8137 -9885 9921 -3425 0
8137 -9885 55 -3425 0
8137 9885 -9921 -55 -3425 0
-8137 9885 55 0
-8137 -9885 -9921 -55 0
-8137 3425 0
-8137 9885 9921 0
8138 -9886 9921 -3425 0
8138 -9886 54 -3425 0
8138 9886 -9921 -54 -3425 0
-8138 9886 54 0
-8138 -9886 -9921 -54 0
-8138 3425 0
-8138 9886 9921 0
8139 -9887 9921 -3425 0
8139 -9887 53 -3425 0
8139 9887 -9921 -53 -3425 0
-8139 9887 53 0
-8139 -9887 -9921 -53 0
-8139 3425 0
-8139 9887 9921 0
8140 -9888 9921 -3425 0
8140 -9888 52 -3425 0
8140 9888 -9921 -52 -3425 0
-8140 9888 52 0
-8140 -9888 -9921 -52 0
-8140 3425 0
-8140 9888 9921 0
8141 -9889 9921 -3425 0
8141 -9889 51 -3425 0
8141 9889 -9921 -51 -3425 0
-8141 9889 51 0
-8141 -9889 -9921 -51 0
-8141 3425 0
-8141 9889 9921 0
8142 -9890 9921 -3425 0
8142 -9890 50 -3425 0
8142 9890 -9921 -50 -3425 0
-8142 9890 50 0
-8142 -9890 -9921 -50 0
-8142 3425 0
-8142 9890 9921 0
8143 -9891 9921 -3425 0
8143 -9891 49 -3425 0
8143 9891 -9921 -49 -3425 0
-8143 9891 49 0
-8143 -9891 -9921 -49 0
-8143 3425 0
-8143 9891 9921 0
8144 -9892 9921 -3425 0
8144 -9892 48 -3425 0
8144 9892 -9921 -48 -3425 0
-8144 9892 48 0
-8144 -9892 -9921 -48 0
-8144 3425 0
-8144 9892 9921 0
8145 -9893 9921 -3425 0
8145 -9893 47 -3425 0
8145 9893 -9921 -47 -3425 0
-8145 9893 47 0
-8145 -9893 -9921 -47 0
-8145 3425 0
-8145 9893 9921 0
8146 -9894 9921 -3425 0
8146 -9894 46 -3425 0
8146 9894 -9921 -46 -3425 0
-8146 9894 46 0
-8146 -9894 -9921 -46 0
-8146 3425 0
-8146 9894 9921 0
8147 -9895 9921 -3425 0
8147 -9895 45 -3425 0
8147 9895 -9921 -45 -3425 0
-8147 9895 45 0
-8147 -9895 -9921 -45 0
-8147 3425 0
-8147 9895 9921 0
8148 -9896 9921 -3425 0
8148 -9896 44 -3425 0
8148 9896 -9921 -44 -3425 0
-8148 9896 44 0
-8148 -9896 -9921 -44 0
-8148 3425 0
-8148 9896 9921 0
8149 -9897 9921 -3425 0
8149 -9897 43 -3425 0
8149 9897 -9921 -43 -3425 0
-8149 9897 43 0
-8149 -9897 -9921 -43 0
-8149 3425 0
-8149 9897 9921 0
8150 -9898 9921 -3425 0
8150 -9898 42 -3425 0
8150 9898 -9921 -42 -3425 0
-8150 9898 42 0
-8150 -9898 -9921 -42 0
-8150 3425 0
-8150 9898 9921 0
8151 -9899 9921 -3425 0
8151 -9899 41 -3425 0
8151 9899 -9921 -41 -3425 0
-8151 9899 41 0
-8151 -9899 -9921 -41 0
-8151 3425 0
-8151 9899 9921 0
8152 -9900 9921 -3425 0
8152 -9900 40 -3425 0
8152 9900 -9921 -40 -3425 0
-8152 9900 40 0
-8152 -9900 -9921 -40 0
-8152 3425 0
-8152 9900 9921 0
8153 9921 -9922 -39 0
-8153 -9921 0
-8153 9922 0
-8153 39 0
-8154 5605 8155 0
-8154 8155 8280 0
-8154 5605 8280 0
8154 -8155 -8280 0
8154 -5605 -8155 0
8154 -5605 -8280 0
-8155 8156 8158 0
-8155 8158 8279 0
-8155 8156 8279 0
8155 -8158 -8279 0
8155 -8156 -8158 0
8155 -8156 -8279 0
-8156 8029 8157 0
-8156 -8029 -8157 0
8156 -8029 8157 0
8156 8029 -8157 0
-8157 -5607 -8152 0
-8157 5607 8152 0
8157 5607 -8152 0
8157 -5607 8152 0
-8158 8159 8161 0
-8158 8161 8278 0
-8158 8159 8278 0
8158 -8161 -8278 0
8158 -8159 -8161 0
8158 -8159 -8278 0
-8159 8032 8160 0
-8159 -8032 -8160 0
8159 -8032 8160 0
8159 8032 -8160 0
-8160 -8030 -8151 0
-8160 8030 8151 0
8160 8030 -8151 0
8160 -8030 8151 0
-8161 8162 8164 0
-8161 8164 8277 0
-8161 8162 8277 0
8161 -8164 -8277 0
8161 -8162 -8164 0
8161 -8162 -8277 0
-8162 8035 8163 0
-8162 -8035 -8163 0
8162 -8035 8163 0
8162 8035 -8163 0
-8163 -8033 -8150 0
-8163 8033 8150 0
8163 8033 -8150 0
8163 -8033 8150 0
-8164 8165 8167 0
-8164 8167 8276 0
-8164 8165 8276 0
8164 -8167 -8276 0
8164 -8165 -8167 0
8164 -8165 -8276 0
-8165 8038 8166 0
-8165 -8038 -8166 0
8165 -8038 8166 0
8165 8038 -8166 0
-8166 -8036 -8149 0
-8166 8036 8149 0
8166 8036 -8149 0
8166 -8036 8149 0
-8167 8168 8170 0
-8167 8170 8275 0
-8167 8168 8275 0
8167 -8170 -8275 0
8167 -8168 -8170 0
8167 -8168 -8275 0
-8168 8041 8169 0
-8168 -8041 -8169 0
8168 -8041 8169 0
8168 8041 -8169 0
-8169 -8039 -8148 0
-8169 8039 8148 0
8169 8039 -8148 0
8169 -8039 8148 0
-8170 8171 8173 0
-8170 8173 8274 0
-8170 8171 8274 0
8170 -8173 -8274 0
8170 -8171 -8173 0
8170 -8171 -8274 0
-8171 8044 8172 0
-8171 -8044 -8172 0
8171 -8044 8172 0
8171 8044 -8172 0
-8172 -8042 -8147 0
-8172 8042 8147 0
8172 8042 -8147 0
8172 -8042 8147 0
-8173 8174 8176 0
-8173 8176 8273 0
-8173 8174 8273 0
8173 -8176 -8273 0
8173 -8174 -8176 0
8173 -8174 -8273 0
-8174 8047 8175 0
-8174 -8047 -8175 0
8174 -8047 8175 0
8174 8047 -8175 0
-8175 -8045 -8146 0
-8175 8045 8146 0
8175 8045 -8146 0
8175 -8045 8146 0
-8176 8177 8179 0
-8176 8179 8272 0
-8176 8177 8272 0
8176 -8179 -8272 0
8176 -8177 -8179 0
8176 -8177 -8272 0
-8177 8050 8178 0
-8177 -8050 -8178 0
8177 -8050 8178 0
8177 8050 -8178 0
-8178 -8048 -8145 0
-8178 8048 8145 0
8178 8048 -8145 0
8178 -8048 8145 0
-8179 8180 8182 0
-8179 8182 8271 0
-8179 8180 8271 0
8179 -8182 -8271 0
8179 -8180 -8182 0
8179 -8180 -8271 0
-8180 8053 8181 0
-8180 -8053 -8181 0
8180 -8053 8181 0
8180 8053 -8181 0
-8181 -8051 -8144 0
-8181 8051 8144 0
8181 8051 -8144 0
8181 -8051 8144 0
-8182 8183 8185 0
-8182 8185 8270 0
-8182 8183 8270 0
8182 -8185 -8270 0
8182 -8183 -8185 0
8182 -8183 -8270 0
-8183 8056 8184 0
-8183 -8056 -8184 0
8183 -8056 8184 0
8183 8056 -8184 0
-8184 -8054 -8143 0
-8184 8054 8143 0
8184 8054 -8143 0
8184 -8054 8143 0
-8185 8186 8188 0
-8185 8188 8269 0
-8185 8186 8269 0
8185 -8188 -8269 0
8185 -8186 -8188 0
8185 -8186 -8269 0
-8186 8059 8187 0
-8186 -8059 -8187 0
8186 -8059 8187 0
8186 8059 -8187 0
-8187 -8057 -8142 0
-8187 8057 8142 0
8187 8057 -8142 0
8187 -8057 8142 0
-8188 8189 8191 0
-8188 8191 8268 0
-8188 8189 8268 0
8188 -8191 -8268 0
8188 -8189 -8191 0
8188 -8189 -8268 0
-8189 8062 8190 0
-8189 -8062 -8190 0
8189 -8062 8190 0
8189 8062 -8190 0
-8190 -8060 -8141 0
-8190 8060 8141 0
8190 8060 -8141 0
8190 -8060 8141 0
-8191 8192 8194 0
-8191 8194 8267 0
-8191 8192 8267 0
8191 -8194 -8267 0
8191 -8192 -8194 0
8191 -8192 -8267 0
-8192 8065 8193 0
-8192 -8065 -8193 0
8192 -8065 8193 0
8192 8065 -8193 0
-8193 -8063 -8140 0
-8193 8063 8140 0
8193 8063 -8140 0
8193 -8063 8140 0
-8194 8195 8197 0
-8194 8197 8266 0
-8194 8195 8266 0
8194 -8197 -8266 0
8194 -8195 -8197 0
8194 -8195 -8266 0
-8195 8068 8196 0
-8195 -8068 -8196 0
8195 -8068 8196 0
8195 8068 -8196 0
-8196 -8066 -8139 0
-8196 8066 8139 0
8196 8066 -8139 0
8196 -8066 8139 0
-8197 8198 8200 0
-8197 8200 8265 0
-8197 8198 8265 0
8197 -8200 -8265 0
8197 -8198 -8200 0
8197 -8198 -8265 0
-8198 8071 8199 0
-8198 -8071 -8199 0
8198 -8071 8199 0
8198 8071 -8199 0
-8199 -8069 -8138 0
-8199 8069 8138 0
8199 8069 -8138 0
8199 -8069 8138 0
-8200 8201 8203 0
-8200 8203 8264 0
-8200 8201 8264 0
8200 -8203 -8264 0
8200 -8201 -8203 0
8200 -8201 -8264 0
-8201 8074 8202 0
-8201 -8074 -8202 0
8201 -8074 8202 0
8201 8074 -8202 0
-8202 -8072 -8137 0
-8202 8072 8137 0
8202 8072 -8137 0
8202 -8072 8137 0
-8203 8204 8206 0
-8203 8206 8263 0
-8203 8204 8263 0
8203 -8206 -8263 0
8203 -8204 -8206 0
8203 -8204 -8263 0
-8204 8077 8205 0
-8204 -8077 -8205 0
8204 -8077 8205 0
8204 8077 -8205 0
-8205 -8075 -8136 0
-8205 8075 8136 0
8205 8075 -8136 0
8205 -8075 8136 0
-8206 8207 8209 0
-8206 8209 8262 0
-8206 8207 8262 0
8206 -8209 -8262 0
8206 -8207 -8209 0
8206 -8207 -8262 0
-8207 8080 8208 0
-8207 -8080 -8208 0
8207 -8080 8208 0
8207 8080 -8208 0
-8208 -8078 -8135 0
-8208 8078 8135 0
8208 8078 -8135 0
8208 -8078 8135 0
-8209 8210 8212 0
-8209 8212 8261 0
-8209 8210 8261 0
8209 -8212 -8261 0
8209 -8210 -8212 0
8209 -8210 -8261 0
-8210 8083 8211 0
-8210 -8083 -8211 0
8210 -8083 8211 0
8210 8083 -8211 0
-8211 -8081 -8134 0
-8211 8081 8134 0
8211 8081 -8134 0
8211 -8081 8134 0
-8212 8213 8215 0
-8212 8215 8260 0
-8212 8213 8260 0
8212 -8215 -8260 0
8212 -8213 -8215 0
8212 -8213 -8260 0
-8213 8086 8214 0
-8213 -8086 -8214 0
8213 -8086 8214 0
8213 8086 -8214 0
-8214 -8084 -8133 0
-8214 8084 8133 0
8214 8084 -8133 0
8214 -8084 8133 0
-8215 8216 8218 0
-8215 8218 8259 0
-8215 8216 8259 0
8215 -8218 -8259 0
8215 -8216 -8218 0
8215 -8216 -8259 0
-8216 8089 8217 0
-8216 -8089 -8217 0
8216 -8089 8217 0
8216 8089 -8217 0
-8217 -8087 -8132 0
-8217 8087 8132 0
8217 8087 -8132 0
8217 -8087 8132 0
-8218 8219 8221 0
-8218 8221 8258 0
-8218 8219 8258 0
8218 -8221 -8258 0
8218 -8219 -8221 0
8218 -8219 -8258 0
-8219 8092 8220 0
-8219 -8092 -8220 0
8219 -8092 8220 0
8219 8092 -8220 0
-8220 -8090 -8131 0
-8220 8090 8131 0
8220 8090 -8131 0
8220 -8090 8131 0
-8221 8222 8224 0
-8221 8224 8257 0
-8221 8222 8257 0
8221 -8224 -8257 0
8221 -8222 -8224 0
8221 -8222 -8257 0
-8222 8095 8223 0
-8222 -8095 -8223 0
8222 -8095 8223 0
8222 8095 -8223 0
-8223 -8093 -8130 0
-8223 8093 8130 0
8223 8093 -8130 0
8223 -8093 8130 0
-8224 8225 8227 0
-8224 8227 8256 0
-8224 8225 8256 0
8224 -8227 -8256 0
8224 -8225 -8227 0
8224 -8225 -8256 0
-8225 8098 8226 0
-8225 -8098 -8226 0
8225 -8098 8226 0
8225 8098 -8226 0
-8226 -8096 -8129 0
-8226 8096 8129 0
8226 8096 -8129 0
8226 -8096 8129 0
-8227 8228 8230 0
-8227 8230 8255 0
-8227 8228 8255 0
8227 -8230 -8255 0
8227 -8228 -8230 0
8227 -8228 -8255 0
-8228 8101 8229 0
-8228 -8101 -8229 0
8228 -8101 8229 0
8228 8101 -8229 0
-8229 -8099 -8128 0
-8229 8099 8128 0
8229 8099 -8128 0
8229 -8099 8128 0
-8230 8231 8233 0
-8230 8233 8254 0
-8230 8231 8254 0
8230 -8233 -8254 0
8230 -8231 -8233 0
8230 -8231 -8254 0
-8231 8104 8232 0
-8231 -8104 -8232 0
8231 -8104 8232 0
8231 8104 -8232 0
-8232 -8102 -8127 0
-8232 8102 8127 0
8232 8102 -8127 0
8232 -8102 8127 0
-8233 8234 8236 0
-8233 8236 8253 0
-8233 8234 8253 0
8233 -8236 -8253 0
8233 -8234 -8236 0
8233 -8234 -8253 0
-8234 8107 8235 0
-8234 -8107 -8235 0
8234 -8107 8235 0
8234 8107 -8235 0
-8235 -8105 -8126 0
-8235 8105 8126 0
8235 8105 -8126 0
8235 -8105 8126 0
-8236 8237 8239 0
-8236 8239 8252 0
-8236 8237 8252 0
8236 -8239 -8252 0
8236 -8237 -8239 0
8236 -8237 -8252 0
-8237 8110 8238 0
-8237 -8110 -8238 0
8237 -8110 8238 0
8237 8110 -8238 0
-8238 -8108 -8125 0
-8238 8108 8125 0
8238 8108 -8125 0
8238 -8108 8125 0
-8239 8240 8242 0
-8239 8242 8251 0
-8239 8240 8251 0
8239 -8242 -8251 0
8239 -8240 -8242 0
8239 -8240 -8251 0
-8240 8113 8241 0
-8240 -8113 -8241 0
8240 -8113 8241 0
8240 8113 -8241 0
-8241 -8111 -8124 0
-8241 8111 8124 0
8241 8111 -8124 0
8241 -8111 8124 0
-8242 8245 8250 0
-8242 8243 8245 0
-8242 8243 8250 0
8242 -8243 -8245 0
8242 -8245 -8250 0
8242 -8243 -8250 0
-8243 8116 8244 0
-8243 -8116 -8244 0
8243 -8116 8244 0
8243 8116 -8244 0
-8244 -8114 -8123 0
-8244 8114 8123 0
8244 8114 -8123 0
8244 -8114 8123 0
8245 -8246 -8248 0
-8245 8246 0
-8245 8248 0
8246 -9869 -8247 0
-8246 9869 0
-8246 8247 0
-8247 -9921 -9922 0
-8247 9921 9922 0
8247 9921 -9922 0
8247 -9921 9922 0
-8248 8119 8249 0
-8248 -8119 -8249 0
8248 -8119 8249 0
8248 8119 -8249 0
-8249 -8117 -8122 0
-8249 8117 8122 0
8249 8117 -8122 0
8249 -8117 8122 0
8250 9869 -9870 -8247 0
8250 -9870 9922 -8247 0
8250 -9869 9870 -9922 -8247 0
-8250 9870 9922 0
-8250 9869 9870 0
-8250 8247 0
-8250 -9869 -9870 -9922 0
8251 -9871 9922 -8247 0
8251 -9871 69 -8247 0
8251 9871 -9922 -69 -8247 0
-8251 9871 69 0
-8251 -9871 -9922 -69 0
-8251 8247 0
-8251 9871 9922 0
8252 -9872 9922 -8247 0
8252 -9872 68 -8247 0
8252 9872 -9922 -68 -8247 0
-8252 9872 68 0
-8252 -9872 -9922 -68 0
-8252 8247 0
-8252 9872 9922 0
8253 -9873 9922 -8247 0
8253 -9873 67 -8247 0
8253 9873 -9922 -67 -8247 0
-8253 9873 67 0
-8253 -9873 -9922 -67 0
-8253 8247 0
-8253 9873 9922 0
8254 -9874 9922 -8247 0
8254 -9874 66 -8247 0
8254 9874 -9922 -66 -8247 0
-8254 9874 66 0
-8254 -9874 -9922 -66 0
-8254 8247 0
-8254 9874 9922 0
8255 -9875 9922 -8247 0
8255 -9875 65 -8247 0
8255 9875 -9922 -65 -8247 0
-8255 9875 65 0
-8255 -9875 -9922 -65 0
-8255 8247 0
-8255 9875 9922 0
8256 -9876 9922 -8247 0
8256 -9876 64 -8247 0
8256 9876 -9922 -64 -8247 0
-8256 9876 64 0
-8256 -9876 -9922 -64 0
-8256 8247 0
-8256 9876 9922 0
8257 -9877 9922 -8247 0
8257 -9877 63 -8247 0
8257 9877 -9922 -63 -8247 0
-8257 9877 63 0
-8257 -9877 -9922 -63 0
-8257 8247 0
-8257 9877 9922 0
8258 -9878 9922 -8247 0
8258 -9878 62 -8247 0
8258 9878 -9922 -62 -8247 0
-8258 9878 62 0
-8258 -9878 -9922 -62 0
-8258 8247 0
-8258 9878 9922 0
8259 -9879 9922 -8247 0
8259 -9879 61 -8247 0
8259 9879 -9922 -61 -8247 0
-8259 9879 61 0
-8259 -9879 -9922 -61 0
-8259 8247 0
-8259 9879 9922 0
8260 -9880 9922 -8247 0
8260 -9880 60 -8247 0
8260 9880 -9922 -60 -8247 0
-8260 9880 60 0
-8260 -9880 -9922 -60 0
-8260 8247 0
-8260 9880 9922 0
8261 -9881 9922 -8247 0
8261 -9881 59 -8247 0
8261 9881 -9922 -59 -8247 0
-8261 9881 59 0
-8261 -9881 -9922 -59 0
-8261 8247 0
-8261 9881 9922 0
8262 -9882 9922 -8247 0
8262 -9882 58 -8247 0
8262 9882 -9922 -58 -8247 0
-8262 9882 58 0
-8262 -9882 -9922 -58 0
-8262 8247 0
-8262 9882 9922 0
8263 -9883 9922 -8247 0
8263 -9883 57 -8247 0
8263 9883 -9922 -57 -8247 0
-8263 9883 57 0
-8263 -9883 -9922 -57 0
-8263 8247 0
-8263 9883 9922 0
8264 -9884 9922 -8247 0
8264 -9884 56 -8247 0
8264 9884 -9922 -56 -8247 0
-8264 9884 56 0
-8264 -9884 -9922 -56 0
-8264 8247 0
-8264 9884 9922 0
8265 -9885 9922 -8247 0
8265 -9885 55 -8247 0
8265 9885 -9922 -55 -8247 0
-8265 9885 55 0
-8265 -9885 -9922 -55 0
-8265 8247 0
-8265 9885 9922 0
8266 -9886 9922 -8247 0
8266 -9886 54 -8247 0
8266 9886 -9922 -54 -8247 0
-8266 9886 54 0
-8266 -9886 -9922 -54 0
-8266 8247 0
-8266 9886 9922 0
8267 -9887 9922 -8247 0
8267 -9887 53 -8247 0
8267 9887 -9922 -53 -8247 0
-8267 9887 53 0
-8267 -9887 -9922 -53 0
-8267 8247 0
-8267 9887 9922 0
8268 -9888 9922 -8247 0
8268 -9888 52 -8247 0
8268 9888 -9922 -52 -8247 0
-8268 9888 52 0
-8268 -9888 -9922 -52 0
-8268 8247 0
-8268 9888 9922 0
8269 -9889 9922 -8247 0
8269 -9889 51 -8247 0
8269 9889 -9922 -51 -8247 0
-8269 9889 51 0
-8269 -9889 -9922 -51 0
-8269 8247 0
-8269 9889 9922 0
8270 -9890 9922 -8247 0
8270 -9890 50 -8247 0
8270 9890 -9922 -50 -8247 0
-8270 9890 50 0
-8270 -9890 -9922 -50 0
-8270 8247 0
-8270 9890 9922 0
8271 -9891 9922 -8247 0
8271 -9891 49 -8247 0
8271 9891 -9922 -49 -8247 0
-8271 9891 49 0
-8271 -9891 -9922 -49 0
-8271 8247 0
-8271 9891 9922 0
8272 -9892 9922 -8247 0
8272 -9892 48 -8247 0
8272 9892 -9922 -48 -8247 0
-8272 9892 48 0
-8272 -9892 -9922 -48 0
-8272 8247 0
-8272 9892 9922 0
8273 -9893 9922 -8247 0
8273 -9893 47 -8247 0
8273 9893 -9922 -47 -8247 0
-8273 9893 47 0
-8273 -9893 -9922 -47 0
-8273 8247 0
-8273 9893 9922 0
8274 -9894 9922 -8247 0
8274 -9894 46 -8247 0
8274 9894 -9922 -46 -8247 0
-8274 9894 46 0
-8274 -9894 -9922 -46 0
-8274 8247 0
-8274 9894 9922 0
8275 -9895 9922 -8247 0
8275 -9895 45 -8247 0
8275 9895 -9922 -45 -8247 0
-8275 9895 45 0
-8275 -9895 -9922 -45 0
-8275 8247 0
-8275 9895 9922 0
8276 -9896 9922 -8247 0
8276 -9896 44 -8247 0
8276 9896 -9922 -44 -8247 0
-8276 9896 44 0
-8276 -9896 -9922 -44 0
-8276 8247 0
-8276 9896 9922 0
8277 -9897 9922 -8247 0
8277 -9897 43 -8247 0
8277 9897 -9922 -43 -8247 0
-8277 9897 43 0
-8277 -9897 -9922 -43 0
-8277 8247 0
-8277 9897 9922 0
8278 -9898 9922 -8247 0
8278 -9898 42 -8247 0
8278 9898 -9922 -42 -8247 0
-8278 9898 42 0
-8278 -9898 -9922 -42 0
-8278 8247 0
-8278 9898 9922 0
8279 -9899 9922 -8247 0
8279 -9899 41 -8247 0
8279 9899 -9922 -41 -8247 0
-8279 9899 41 0
-8279 -9899 -9922 -41 0
-8279 8247 0
-8279 9899 9922 0
8280 -9900 9922 -8247 0
8280 -9900 40 -8247 0
8280 9900 -9922 -40 -8247 0
-8280 9900 40 0
-8280 -9900 -9922 -40 0
-8280 8247 0
-8280 9900 9922 0
8281 9922 -9923 -39 0
-8281 -9922 0
-8281 9923 0
-8281 39 0
-8282 5603 8283 0
-8282 8283 8406 0
-8282 5603 8406 0
8282 -8283 -8406 0
8282 -5603 -8283 0
8282 -5603 -8406 0
-8283 8284 8286 0
-8283 8286 8405 0
-8283 8284 8405 0
8283 -8286 -8405 0
8283 -8284 -8286 0
8283 -8284 -8405 0
-8284 8155 8285 0
-8284 -8155 -8285 0
8284 -8155 8285 0
8284 8155 -8285 0
-8285 -5605 -8280 0
-8285 5605 8280 0
8285 5605 -8280 0
8285 -5605 8280 0
-8286 8287 8289 0
-8286 8289 8404 0
-8286 8287 8404 0
8286 -8289 -8404 0
8286 -8287 -8289 0
8286 -8287 -8404 0
-8287 8158 8288 0
-8287 -8158 -8288 0
8287 -8158 8288 0
8287 8158 -8288 0
-8288 -8156 -8279 0
-8288 8156 8279 0
8288 8156 -8279 0
8288 -8156 8279 0
-8289 8290 8292 0
-8289 8292 8403 0
-8289 8290 8403 0
8289 -8292 -8403 0
8289 -8290 -8292 0
8289 -8290 -8403 0
-8290 8161 8291 0
-8290 -8161 -8291 0
8290 -8161 8291 0
8290 8161 -8291 0
-8291 -8159 -8278 0
-8291 8159 8278 0
8291 8159 -8278 0
8291 -8159 8278 0
-8292 8293 8295 0
-8292 8295 8402 0
-8292 8293 8402 0
8292 -8295 -8402 0
8292 -8293 -8295 0
8292 -8293 -8402 0
-8293 8164 8294 0
-8293 -8164 -8294 0
8293 -8164 8294 0
8293 8164 -8294 0
-8294 -8162 -8277 0
-8294 8162 8277 0
8294 8162 -8277 0
8294 -8162 8277 0
-8295 8296 8298 0
-8295 8298 8401 0
-8295 8296 8401 0
8295 -8298 -8401 0
8295 -8296 -8298 0
8295 -8296 -8401 0
-8296 8167 8297 0
-8296 -8167 -8297 0
8296 -8167 8297 0
8296 8167 -8297 0
-8297 -8165 -8276 0
-8297 8165 8276 0
8297 8165 -8276 0
8297 -8165 8276 0
-8298 8299 8301 0
-8298 8301 8400 0
-8298 8299 8400 0
8298 -8301 -8400 0
8298 -8299 -8301 0
8298 -8299 -8400 0
-8299 8170 8300 0
-8299 -8170 -8300 0
8299 -8170 8300 0
8299 8170 -8300 0
-8300 -8168 -8275 0
-8300 8168 8275 0
8300 8168 -8275 0
8300 -8168 8275 0
-8301 8302 8304 0
-8301 8304 8399 0
-8301 8302 8399 0
8301 -8304 -8399 0
8301 -8302 -8304 0
8301 -8302 -8399 0
-8302 8173 8303 0
-8302 -8173 -8303 0
8302 -8173 8303 0
8302 8173 -8303 0
-8303 -8171 -8274 0
-8303 8171 8274 0
8303 8171 -8274 0
8303 -8171 8274 0
-8304 8305 8307 0
-8304 8307 8398 0
-8304 8305 8398 0
8304 -8307 -8398 0
8304 -8305 -8307 0
8304 -8305 -8398 0
-8305 8176 8306 0
-8305 -8176 -8306 0
8305 -8176 8306 0
8305 8176 -8306 0
-8306 -8174 -8273 0
-8306 8174 8273 0
8306 8174 -8273 0
8306 -8174 8273 0
-8307 8308 8310 0
-8307 8310 8397 0
-8307 8308 8397 0
8307 -8310 -8397 0
8307 -8308 -8310 0
8307 -8308 -8397 0
-8308 8179 8309 0
-8308 -8179 -8309 0
8308 -8179 8309 0
8308 8179 -8309 0
-8309 -8177 -8272 0
-8309 8177 8272 0
8309 8177 -8272 0
8309 -8177 8272 0
-8310 8311 8313 0
-8310 8313 8396 0
-8310 8311 8396 0
8310 -8313 -8396 0
8310 -8311 -8313 0
8310 -8311 -8396 0
-8311 8182 8312 0
-8311 -8182 -8312 0
8311 -8182 8312 0
8311 8182 -8312 0
-8312 -8180 -8271 0
-8312 8180 8271 0
8312 8180 -8271 0
8312 -8180 8271 0
-8313 8314 8316 0
-8313 8316 8395 0
-8313 8314 8395 0
8313 -8316 -8395 0
8313 -8314 -8316 0
8313 -8314 -8395 0
-8314 8185 8315 0
-8314 -8185 -8315 0
8314 -8185 8315 0
8314 8185 -8315 0
-8315 -8183 -8270 0
-8315 8183 8270 0
8315 8183 -8270 0
8315 -8183 8270 0
-8316 8317 8319 0
-8316 8319 8394 0
-8316 8317 8394 0
8316 -8319 -8394 0
8316 -8317 -8319 0
8316 -8317 -8394 0
-8317 8188 8318 0
-8317 -8188 -8318 0
8317 -8188 8318 0
8317 8188 -8318 0
-8318 -8186 -8269 0
-8318 8186 8269 0
8318 8186 -8269 0
8318 -8186 8269 0
-8319 8320 8322 0
-8319 8322 8393 0
-8319 8320 8393 0
8319 -8322 -8393 0
8319 -8320 -8322 0
8319 -8320 -8393 0
-8320 8191 8321 0
-8320 -8191 -8321 0
8320 -8191 8321 0
8320 8191 -8321 0
-8321 -8189 -8268 0
-8321 8189 8268 0
8321 8189 -8268 0
8321 -8189 8268 0
-8322 8323 8325 0
-8322 8325 8392 0
-8322 8323 8392 0
8322 -8325 -8392 0
8322 -8323 -8325 0
8322 -8323 -8392 0
-8323 8194 8324 0
-8323 -8194 -8324 0
8323 -8194 8324 0
8323 8194 -8324 0
-8324 -8192 -8267 0
-8324 8192 8267 0
8324 8192 -8267 0
8324 -8192 8267 0
-8325 8326 8328 0
-8325 8328 8391 0
-8325 8326 8391 0
8325 -8328 -8391 0
8325 -8326 -8328 0
8325 -8326 -8391 0
-8326 8197 8327 0
-8326 -8197 -8327 0
8326 -8197 8327 0
8326 8197 -8327 0
-8327 -8195 -8266 0
-8327 8195 8266 0
8327 8195 -8266 0
8327 -8195 8266 0
-8328 8329 8331 0
-8328 8331 8390 0
-8328 8329 8390 0
8328 -8331 -8390 0
8328 -8329 -8331 0
8328 -8329 -8390 0
-8329 8200 8330 0
-8329 -8200 -8330 0
8329 -8200 8330 0
8329 8200 -8330 0
-8330 -8198 -8265 0
-8330 8198 8265 0
8330 8198 -8265 0
8330 -8198 8265 0
-8331 8332 8334 0
-8331 8334 8389 0
-8331 8332 8389 0
8331 -8334 -8389 0
8331 -8332 -8334 0
8331 -8332 -8389 0
-8332 8203 8333 0
-8332 -8203 -8333 0
8332 -8203 8333 0
8332 8203 -8333 0
-8333 -8201 -8264 0
-8333 8201 8264 0
8333 8201 -8264 0
8333 -8201 8264 0
-8334 8335 8337 0
-8334 8337 8388 0
-8334 8335 8388 0
8334 -8337 -8388 0
8334 -8335 -8337 0
8334 -8335 -8388 0
-8335 8206 8336 0
-8335 -8206 -8336 0
8335 -8206 8336 0
8335 8206 -8336 0
-8336 -8204 -8263 0
-8336 8204 8263 0
8336 8204 -8263 0
8336 -8204 8263 0
-8337 8338 8340 0
-8337 8340 8387 0
-8337 8338 8387 0
8337 -8340 -8387 0
8337 -8338 -8340 0
8337 -8338 -8387 0
-8338 8209 8339 0
-8338 -8209 -8339 0
8338 -8209 8339 0
8338 8209 -8339 0
-8339 -8207 -8262 0
-8339 8207 8262 0
8339 8207 -8262 0
8339 -8207 8262 0
-8340 8341 8343 0
-8340 8343 8386 0
-8340 8341 8386 0
8340 -8343 -8386 0
8340 -8341 -8343 0
8340 -8341 -8386 0
-8341 8212 8342 0
-8341 -8212 -8342 0
8341 -8212 8342 0
8341 8212 -8342 0
-8342 -8210 -8261 0
-8342 8210 8261 0
8342 8210 -8261 0
8342 -8210 8261 0
-8343 8344 8346 0
-8343 8346 8385 0
-8343 8344 8385 0
8343 -8346 -8385 0
8343 -8344 -8346 0
8343 -8344 -8385 0
-8344 8215 8345 0
-8344 -8215 -8345 0
8344 -8215 8345 0
8344 8215 -8345 0
-8345 -8213 -8260 0
-8345 8213 8260 0
8345 8213 -8260 0
8345 -8213 8260 0
-8346 8347 8349 0
-8346 8349 8384 0
-8346 8347 8384 0
8346 -8349 -8384 0
8346 -8347 -8349 0
8346 -8347 -8384 0
-8347 8218 8348 0
-8347 -8218 -8348 0
8347 -8218 8348 0
8347 8218 -8348 0
-8348 -8216 -8259 0
-8348 8216 8259 0
8348 8216 -8259 0
8348 -8216 8259 0
-8349 8350 8352 0
-8349 8352 8383 0
-8349 8350 8383 0
8349 -8352 -8383 0
8349 -8350 -8352 0
8349 -8350 -8383 0
-8350 8221 8351 0
-8350 -8221 -8351 0
8350 -8221 8351 0
8350 8221 -8351 0
-8351 -8219 -8258 0
-8351 8219 8258 0
8351 8219 -8258 0
8351 -8219 8258 0
-8352 8353 8355 0
-8352 8355 8382 0
-8352 8353 8382 0
8352 -8355 -8382 0
8352 -8353 -8355 0
8352 -8353 -8382 0
-8353 8224 8354 0
-8353 -8224 -8354 0
8353 -8224 8354 0
8353 8224 -8354 0
-8354 -8222 -8257 0
-8354 8222 8257 0
8354 8222 -8257 0
8354 -8222 8257 0
-8355 8356 8358 0
-8355 8358 8381 0
-8355 8356 8381 0
8355 -8358 -8381 0
8355 -8356 -8358 0
8355 -8356 -8381 0
-8356 8227 8357 0
-8356 -8227 -8357 0
8356 -8227 8357 0
8356 8227 -8357 0
-8357 -8225 -8256 0
-8357 8225 8256 0
8357 8225 -8256 0
8357 -8225 8256 0
-8358 8359 8361 0
-8358 8361 8380 0
-8358 8359 8380 0
8358 -8361 -8380 0
8358 -8359 -8361 0
8358 -8359 -8380 0
-8359 8230 8360 0
-8359 -8230 -8360 0
8359 -8230 8360 0
8359 8230 -8360 0
-8360 -8228 -8255 0
-8360 8228 8255 0
8360 8228 -8255 0
8360 -8228 8255 0
-8361 8362 8364 0
-8361 8364 8379 0
-8361 8362 8379 0
8361 -8364 -8379 0
8361 -8362 -8364 0
8361 -8362 -8379 0
-8362 8233 8363 0
-8362 -8233 -8363 0
8362 -8233 8363 0
8362 8233 -8363 0
-8363 -8231 -8254 0
-8363 8231 8254 0
8363 8231 -8254 0
8363 -8231 8254 0
-8364 8365 8367 0
-8364 8367 8378 0
-8364 8365 8378 0
8364 -8367 -8378 0
8364 -8365 -8367 0
8364 -8365 -8378 0
-8365 8236 8366 0
-8365 -8236 -8366 0
8365 -8236 8366 0
8365 8236 -8366 0
-8366 -8234 -8253 0
-8366 8234 8253 0
8366 8234 -8253 0
8366 -8234 8253 0
-8367 8368 8370 0
-8367 8370 8377 0
-8367 8368 8377 0
8367 -8370 -8377 0
8367 -8368 -8370 0
8367 -8368 -8377 0
-8368 8239 8369 0
-8368 -8239 -8369 0
8368 -8239 8369 0
8368 8239 -8369 0
-8369 -8237 -8252 0
-8369 8237 8252 0
8369 8237 -8252 0
8369 -8237 8252 0
-8370 8373 8376 0
-8370 8371 8373 0
-8370 8371 8376 0
8370 -8371 -8373 0
8370 -8373 -8376 0
8370 -8371 -8376 0
-8371 8242 8372 0
-8371 -8242 -8372 0
8371 -8242 8372 0
8371 8242 -8372 0
-8372 -8240 -8251 0
-8372 8240 8251 0
8372 8240 -8251 0
8372 -8240 8251 0
8373 -3779 -8374 0
-8373 3779 0
-8373 8374 0
-8374 8245 8375 0
-8374 -8245 -8375 0
8374 -8245 8375 0
8374 8245 -8375 0
-8375 -8243 -8250 0
-8375 8243 8250 0
8375 8243 -8250 0
8375 -8243 8250 0
8376 9869 -9870 -3780 0
8376 -9870 9923 -3780 0
8376 -9869 9870 -9923 -3780 0
-8376 9870 9923 0
-8376 9869 9870 0
-8376 3780 0
-8376 -9869 -9870 -9923 0
8377 -9871 9923 -3780 0
8377 -9871 69 -3780 0
8377 9871 -9923 -69 -3780 0
-8377 9871 69 0
-8377 -9871 -9923 -69 0
-8377 3780 0
-8377 9871 9923 0
8378 -9872 9923 -3780 0
8378 -9872 68 -3780 0
8378 9872 -9923 -68 -3780 0
-8378 9872 68 0
-8378 -9872 -9923 -68 0
-8378 3780 0
-8378 9872 9923 0
8379 -9873 9923 -3780 0
8379 -9873 67 -3780 0
8379 9873 -9923 -67 -3780 0
-8379 9873 67 0
-8379 -9873 -9923 -67 0
-8379 3780 0
-8379 9873 9923 0
8380 -9874 9923 -3780 0
8380 -9874 66 -3780 0
8380 9874 -9923 -66 -3780 0
-8380 9874 66 0
-8380 -9874 -9923 -66 0
-8380 3780 0
-8380 9874 9923 0
8381 -9875 9923 -3780 0
8381 -9875 65 -3780 0
8381 9875 -9923 -65 -3780 0
-8381 9875 65 0
-8381 -9875 -9923 -65 0
-8381 3780 0
-8381 9875 9923 0
8382 -9876 9923 -3780 0
8382 -9876 64 -3780 0
8382 9876 -9923 -64 -3780 0
-8382 9876 64 0
-8382 -9876 -9923 -64 0
-8382 3780 0
-8382 9876 9923 0
8383 -9877 9923 -3780 0
8383 -9877 63 -3780 0
8383 9877 -9923 -63 -3780 0
-8383 9877 63 0
-8383 -9877 -9923 -63 0
-8383 3780 0
-8383 9877 9923 0
8384 -9878 9923 -3780 0
8384 -9878 62 -3780 0
8384 9878 -9923 -62 -3780 0
-8384 9878 62 0
-8384 -9878 -9923 -62 0
-8384 3780 0
-8384 9878 9923 0
8385 -9879 9923 -3780 0
8385 -9879 61 -3780 0
8385 9879 -9923 -61 -3780 0
-8385 9879 61 0
-8385 -9879 -9923 -61 0
-8385 3780 0
-8385 9879 9923 0
8386 -9880 9923 -3780 0
8386 -9880 60 -3780 0
8386 9880 -9923 -60 -3780 0
-8386 9880 60 0
-8386 -9880 -9923 -60 0
-8386 3780 0
-8386 9880 9923 0
8387 -9881 9923 -3780 0
8387 -9881 59 -3780 0
8387 9881 -9923 -59 -3780 0
-8387 9881 59 0
-8387 -9881 -9923 -59 0
-8387 3780 0
-8387 9881 9923 0
8388 -9882 9923 -3780 0
8388 -9882 58 -3780 0
8388 9882 -9923 -58 -3780 0
-8388 9882 58 0
-8388 -9882 -9923 -58 0
-8388 3780 0
-8388 9882 9923 0
8389 -9883 9923 -3780 0
8389 -9883 57 -3780 0
8389 9883 -9923 -57 -3780 0
-8389 9883 57 0
-8389 -9883 -9923 -57 0
-8389 3780 0
-8389 9883 9923 0
8390 -9884 9923 -3780 0
8390 -9884 56 -3780 0
8390 9884 -9923 -56 -3780 0
-8390 9884 56 0
-8390 -9884 -9923 -56 0
-8390 3780 0
-8390 9884 9923 0
8391 -9885 9923 -3780 0
8391 -9885 55 -3780 0
8391 9885 -9923 -55 -3780 0
-8391 9885 55 0
-8391 -9885 -9923 -55 0
-8391 3780 0
-8391 9885 9923 0
8392 -9886 9923 -3780 0
8392 -9886 54 -3780 0
8392 9886 -9923 -54 -3780 0
-8392 9886 54 0
-8392 -9886 -9923 -54 0
-8392 3780 0
-8392 9886 9923 0
8393 -9887 9923 -3780 0
8393 -9887 53 -3780 0
8393 9887 -9923 -53 -3780 0
-8393 9887 53 0
-8393 -9887 -9923 -53 0
-8393 3780 0
-8393 9887 9923 0
8394 -9888 9923 -3780 0
8394 -9888 52 -3780 0
8394 9888 -9923 -52 -3780 0
-8394 9888 52 0
-8394 -9888 -9923 -52 0
-8394 3780 0
-8394 9888 9923 0
8395 -9889 9923 -3780 0
8395 -9889 51 -3780 0
8395 9889 -9923 -51 -3780 0
-8395 9889 51 0
-8395 -9889 -9923 -51 0
-8395 3780 0
-8395 9889 9923 0
8396 -9890 9923 -3780 0
8396 -9890 50 -3780 0
8396 9890 -9923 -50 -3780 0
-8396 9890 50 0
-8396 -9890 -9923 -50 0
-8396 3780 0
-8396 9890 9923 0
8397 -9891 9923 -3780 0
8397 -9891 49 -3780 0
8397 9891 -9923 -49 -3780 0
-8397 9891 49 0
-8397 -9891 -9923 -49 0
-8397 3780 0
-8397 9891 9923 0
8398 -9892 9923 -3780 0
8398 -9892 48 -3780 0
8398 9892 -9923 -48 -3780 0
-8398 9892 48 0
-8398 -9892 -9923 -48 0
-8398 3780 0
-8398 9892 9923 0
8399 -9893 9923 -3780 0
8399 -9893 47 -3780 0
8399 9893 -9923 -47 -3780 0
-8399 9893 47 0
-8399 -9893 -9923 -47 0
-8399 3780 0
-8399 9893 9923 0
8400 -9894 9923 -3780 0
8400 -9894 46 -3780 0
8400 9894 -9923 -46 -3780 0
-8400 9894 46 0
-8400 -9894 -9923 -46 0
-8400 3780 0
-8400 9894 9923 0
8401 -9895 9923 -3780 0
8401 -9895 45 -3780 0
8401 9895 -9923 -45 -3780 0
-8401 9895 45 0
-8401 -9895 -9923 -45 0
-8401 3780 0
-8401 9895 9923 0
8402 -9896 9923 -3780 0
8402 -9896 44 -3780 0
8402 9896 -9923 -44 -3780 0
-8402 9896 44 0
-8402 -9896 -9923 -44 0
-8402 3780 0
-8402 9896 9923 0
8403 -9897 9923 -3780 0
8403 -9897 43 -3780 0
8403 9897 -9923 -43 -3780 0
-8403 9897 43 0
-8403 -9897 -9923 -43 0
-8403 3780 0
-8403 9897 9923 0
8404 -9898 9923 -3780 0
8404 -9898 42 -3780 0
8404 9898 -9923 -42 -3780 0
-8404 9898 42 0
-8404 -9898 -9923 -42 0
-8404 3780 0
-8404 9898 9923 0
8405 -9899 9923 -3780 0
8405 -9899 41 -3780 0
8405 9899 -9923 -41 -3780 0
-8405 9899 41 0
-8405 -9899 -9923 -41 0
-8405 3780 0
-8405 9899 9923 0
8406 -9900 9923 -3780 0
8406 -9900 40 -3780 0
8406 9900 -9923 -40 -3780 0
-8406 9900 40 0
-8406 -9900 -9923 -40 0
-8406 3780 0
-8406 9900 9923 0
8407 9923 -9924 -39 0
-8407 -9923 0
-8407 9924 0
-8407 39 0
-8408 5601 8409 0
-8408 8409 8534 0
-8408 5601 8534 0
8408 -8409 -8534 0
8408 -5601 -8409 0
8408 -5601 -8534 0
-8409 8410 8412 0
-8409 8412 8533 0
-8409 8410 8533 0
8409 -8412 -8533 0
8409 -8410 -8412 0
8409 -8410 -8533 0
-8410 8283 8411 0
-8410 -8283 -8411 0
8410 -8283 8411 0
8410 8283 -8411 0
-8411 -5603 -8406 0
-8411 5603 8406 0
8411 5603 -8406 0
8411 -5603 8406 0
-8412 8413 8415 0
-8412 8415 8532 0
-8412 8413 8532 0
8412 -8415 -8532 0
8412 -8413 -8415 0
8412 -8413 -8532 0
-8413 8286 8414 0
-8413 -8286 -8414 0
8413 -8286 8414 0
8413 8286 -8414 0
-8414 -8284 -8405 0
-8414 8284 8405 0
8414 8284 -8405 0
8414 -8284 8405 0
-8415 8416 8418 0
-8415 8418 8531 0
-8415 8416 8531 0
8415 -8418 -8531 0
8415 -8416 -8418 0
8415 -8416 -8531 0
-8416 8289 8417 0
-8416 -8289 -8417 0
8416 -8289 8417 0
8416 8289 -8417 0
-8417 -8287 -8404 0
-8417 8287 8404 0
8417 8287 -8404 0
8417 -8287 8404 0
-8418 8419 8421 0
-8418 8421 8530 0
-8418 8419 8530 0
8418 -8421 -8530 0
8418 -8419 -8421 0
8418 -8419 -8530 0
-8419 8292 8420 0
-8419 -8292 -8420 0
8419 -8292 8420 0
8419 8292 -8420 0
-8420 -8290 -8403 0
-8420 8290 8403 0
8420 8290 -8403 0
8420 -8290 8403 0
-8421 8422 8424 0
-8421 8424 8529 0
-8421 8422 8529 0
8421 -8424 -8529 0
8421 -8422 -8424 0
8421 -8422 -8529 0
-8422 8295 8423 0
-8422 -8295 -8423 0
8422 -8295 8423 0
8422 8295 -8423 0
-8423 -8293 -8402 0
-8423 8293 8402 0
8423 8293 -8402 0
8423 -8293 8402 0
-8424 8425 8427 0
-8424 8427 8528 0
-8424 8425 8528 0
8424 -8427 -8528 0
8424 -8425 -8427 0
8424 -8425 -8528 0
-8425 8298 8426 0
-8425 -8298 -8426 0
8425 -8298 8426 0
8425 8298 -8426 0
-8426 -8296 -8401 0
-8426 8296 8401 0
8426 8296 -8401 0
8426 -8296 8401 0
-8427 8428 8430 0
-8427 8430 8527 0
-8427 8428 8527 0
8427 -8430 -8527 0
8427 -8428 -8430 0
8427 -8428 -8527 0
-8428 8301 8429 0
-8428 -8301 -8429 0
8428 -8301 8429 0
8428 8301 -8429 0
-8429 -8299 -8400 0
-8429 8299 8400 0
8429 8299 -8400 0
8429 -8299 8400 0
-8430 8431 8433 0
-8430 8433 8526 0
-8430 8431 8526 0
8430 -8433 -8526 0
8430 -8431 -8433 0
8430 -8431 -8526 0
-8431 8304 8432 0
-8431 -8304 -8432 0
8431 -8304 8432 0
8431 8304 -8432 0
-8432 -8302 -8399 0
-8432 8302 8399 0
8432 8302 -8399 0
8432 -8302 8399 0
-8433 8434 8436 0
-8433 8436 8525 0
-8433 8434 8525 0
8433 -8436 -8525 0
8433 -8434 -8436 0
8433 -8434 -8525 0
-8434 8307 8435 0
-8434 -8307 -8435 0
8434 -8307 8435 0
8434 8307 -8435 0
-8435 -8305 -8398 0
-8435 8305 8398 0
8435 8305 -8398 0
8435 -8305 8398 0
-8436 8437 8439 0
-8436 8439 8524 0
-8436 8437 8524 0
8436 -8439 -8524 0
8436 -8437 -8439 0
8436 -8437 -8524 0
-8437 8310 8438 0
-8437 -8310 -8438 0
8437 -8310 8438 0
8437 8310 -8438 0
-8438 -8308 -8397 0
-8438 8308 8397 0
8438 8308 -8397 0
8438 -8308 8397 0
-8439 8440 8442 0
-8439 8442 8523 0
-8439 8440 8523 0
8439 -8442 -8523 0
8439 -8440 -8442 0
8439 -8440 -8523 0
-8440 8313 8441 0
-8440 -8313 -8441 0
8440 -8313 8441 0
8440 8313 -8441 0
-8441 -8311 -8396 0
-8441 8311 8396 0
8441 8311 -8396 0
8441 -8311 8396 0
-8442 8443 8445 0
-8442 8445 8522 0
-8442 8443 8522 0
8442 -8445 -8522 0
8442 -8443 -8445 0
8442 -8443 -8522 0
-8443 8316 8444 0
-8443 -8316 -8444 0
8443 -8316 8444 0
8443 8316 -8444 0
-8444 -8314 -8395 0
-8444 8314 8395 0
8444 8314 -8395 0
8444 -8314 8395 0
-8445 8446 8448 0
-8445 8448 8521 0
-8445 8446 8521 0
8445 -8448 -8521 0
8445 -8446 -8448 0
8445 -8446 -8521 0
-8446 8319 8447 0
-8446 -8319 -8447 0
8446 -8319 8447 0
8446 8319 -8447 0
-8447 -8317 -8394 0
-8447 8317 8394 0
8447 8317 -8394 0
8447 -8317 8394 0
-8448 8449 8451 0
-8448 8451 8520 0
-8448 8449 8520 0
8448 -8451 -8520 0
8448 -8449 -8451 0
8448 -8449 -8520 0
-8449 8322 8450 0
-8449 -8322 -8450 0
8449 -8322 8450 0
8449 8322 -8450 0
-8450 -8320 -8393 0
-8450 8320 8393 0
8450 8320 -8393 0
8450 -8320 8393 0
-8451 8452 8454 0
-8451 8454 8519 0
-8451 8452 8519 0
8451 -8454 -8519 0
8451 -8452 -8454 0
8451 -8452 -8519 0
-8452 8325 8453 0
-8452 -8325 -8453 0
8452 -8325 8453 0
8452 8325 -8453 0
-8453 -8323 -8392 0
-8453 8323 8392 0
8453 8323 -8392 0
8453 -8323 8392 0
-8454 8455 8457 0
-8454 8457 8518 0
-8454 8455 8518 0
8454 -8457 -8518 0
8454 -8455 -8457 0
8454 -8455 -8518 0
-8455 8328 8456 0
-8455 -8328 -8456 0
8455 -8328 8456 0
8455 8328 -8456 0
-8456 -8326 -8391 0
-8456 8326 8391 0
8456 8326 -8391 0
8456 -8326 8391 0
-8457 8458 8460 0
-8457 8460 8517 0
-8457 8458 8517 0
8457 -8460 -8517 0
8457 -8458 -8460 0
8457 -8458 -8517 0
-8458 8331 8459 0
-8458 -8331 -8459 0
8458 -8331 8459 0
8458 8331 -8459 0
-8459 -8329 -8390 0
-8459 8329 8390 0
8459 8329 -8390 0
8459 -8329 8390 0
-8460 8461 8463 0
-8460 8463 8516 0
-8460 8461 8516 0
8460 -8463 -8516 0
8460 -8461 -8463 0
8460 -8461 -8516 0
-8461 8334 8462 0
-8461 -8334 -8462 0
8461 -8334 8462 0
8461 8334 -8462 0
-8462 -8332 -8389 0
-8462 8332 8389 0
8462 8332 -8389 0
8462 -8332 8389 0
-8463 8464 8466 0
-8463 8466 8515 0
-8463 8464 8515 0
8463 -8466 -8515 0
8463 -8464 -8466 0
8463 -8464 -8515 0
-8464 8337 8465 0
-8464 -8337 -8465 0
8464 -8337 8465 0
8464 8337 -8465 0
-8465 -8335 -8388 0
-8465 8335 8388 0
8465 8335 -8388 0
8465 -8335 8388 0
-8466 8467 8469 0
-8466 8469 8514 0
-8466 8467 8514 0
8466 -8469 -8514 0
8466 -8467 -8469 0
8466 -8467 -8514 0
-8467 8340 8468 0
-8467 -8340 -8468 0
8467 -8340 8468 0
8467 8340 -8468 0
-8468 -8338 -8387 0
-8468 8338 8387 0
8468 8338 -8387 0
8468 -8338 8387 0
-8469 8470 8472 0
-8469 8472 8513 0
-8469 8470 8513 0
8469 -8472 -8513 0
8469 -8470 -8472 0
8469 -8470 -8513 0
-8470 8343 8471 0
-8470 -8343 -8471 0
8470 -8343 8471 0
8470 8343 -8471 0
-8471 -8341 -8386 0
-8471 8341 8386 0
8471 8341 -8386 0
8471 -8341 8386 0
-8472 8473 8475 0
-8472 8475 8512 0
-8472 8473 8512 0
8472 -8475 -8512 0
8472 -8473 -8475 0
8472 -8473 -8512 0
-8473 8346 8474 0
-8473 -8346 -8474 0
8473 -8346 8474 0
8473 8346 -8474 0
-8474 -8344 -8385 0
-8474 8344 8385 0
8474 8344 -8385 0
8474 -8344 8385 0
-8475 8476 8478 0
-8475 8478 8511 0
-8475 8476 8511 0
8475 -8478 -8511 0
8475 -8476 -8478 0
8475 -8476 -8511 0
-8476 8349 8477 0
-8476 -8349 -8477 0
8476 -8349 8477 0
8476 8349 -8477 0
-8477 -8347 -8384 0
-8477 8347 8384 0
8477 8347 -8384 0
8477 -8347 8384 0
-8478 8479 8481 0
-8478 8481 8510 0
-8478 8479 8510 0
8478 -8481 -8510 0
8478 -8479 -8481 0
8478 -8479 -8510 0
-8479 8352 8480 0
-8479 -8352 -8480 0
8479 -8352 8480 0
8479 8352 -8480 0
-8480 -8350 -8383 0
-8480 8350 8383 0
8480 8350 -8383 0
8480 -8350 8383 0
-8481 8482 8484 0
-8481 8484 8509 0
-8481 8482 8509 0
8481 -8484 -8509 0
8481 -8482 -8484 0
8481 -8482 -8509 0
-8482 8355 8483 0
-8482 -8355 -8483 0
8482 -8355 8483 0
8482 8355 -8483 0
-8483 -8353 -8382 0
-8483 8353 8382 0
8483 8353 -8382 0
8483 -8353 8382 0
-8484 8485 8487 0
-8484 8487 8508 0
-8484 8485 8508 0
8484 -8487 -8508 0
8484 -8485 -8487 0
8484 -8485 -8508 0
-8485 8358 8486 0
-8485 -8358 -8486 0
8485 -8358 8486 0
8485 8358 -8486 0
-8486 -8356 -8381 0
-8486 8356 8381 0
8486 8356 -8381 0
8486 -8356 8381 0
-8487 8488 8490 0
-8487 8490 8507 0
-8487 8488 8507 0
8487 -8490 -8507 0
8487 -8488 -8490 0
8487 -8488 -8507 0
-8488 8361 8489 0
-8488 -8361 -8489 0
8488 -8361 8489 0
8488 8361 -8489 0
-8489 -8359 -8380 0
-8489 8359 8380 0
8489 8359 -8380 0
8489 -8359 8380 0
-8490 8491 8493 0
-8490 8493 8506 0
-8490 8491 8506 0
8490 -8493 -8506 0
8490 -8491 -8493 0
8490 -8491 -8506 0
-8491 8364 8492 0
-8491 -8364 -8492 0
8491 -8364 8492 0
8491 8364 -8492 0
-8492 -8362 -8379 0
-8492 8362 8379 0
8492 8362 -8379 0
8492 -8362 8379 0
-8493 8494 8496 0
-8493 8496 8505 0
-8493 8494 8505 0
8493 -8496 -8505 0
8493 -8494 -8496 0
8493 -8494 -8505 0
-8494 8367 8495 0
-8494 -8367 -8495 0
8494 -8367 8495 0
8494 8367 -8495 0
-8495 -8365 -8378 0
-8495 8365 8378 0
8495 8365 -8378 0
8495 -8365 8378 0
-8496 8499 8504 0
-8496 8497 8499 0
-8496 8497 8504 0
8496 -8497 -8499 0
8496 -8499 -8504 0
8496 -8497 -8504 0
-8497 8370 8498 0
-8497 -8370 -8498 0
8497 -8370 8498 0
8497 8370 -8498 0
-8498 -8368 -8377 0
-8498 8368 8377 0
8498 8368 -8377 0
8498 -8368 8377 0
8499 -8500 -8502 0
-8499 8500 0
-8499 8502 0
8500 -9869 -8501 0
-8500 9869 0
-8500 8501 0
-8501 -9923 -9924 0
-8501 9923 9924 0
8501 9923 -9924 0
8501 -9923 9924 0
-8502 8373 8503 0
-8502 -8373 -8503 0
8502 -8373 8503 0
8502 8373 -8503 0
-8503 -8371 -8376 0
-8503 8371 8376 0
8503 8371 -8376 0
8503 -8371 8376 0
8504 9869 -9870 -8501 0
8504 -9870 9924 -8501 0
8504 -9869 9870 -9924 -8501 0
-8504 9870 9924 0
-8504 9869 9870 0
-8504 8501 0
-8504 -9869 -9870 -9924 0
8505 -9871 9924 -8501 0
8505 -9871 69 -8501 0
8505 9871 -9924 -69 -8501 0
-8505 9871 69 0
-8505 -9871 -9924 -69 0
-8505 8501 0
-8505 9871 9924 0
8506 -9872 9924 -8501 0
8506 -9872 68 -8501 0
8506 9872 -9924 -68 -8501 0
-8506 9872 68 0
-8506 -9872 -9924 -68 0
-8506 8501 0
-8506 9872 9924 0
8507 -9873 9924 -8501 0
8507 -9873 67 -8501 0
8507 9873 -9924 -67 -8501 0
-8507 9873 67 0
-8507 -9873 -9924 -67 0
-8507 8501 0
-8507 9873 9924 0
8508 -9874 9924 -8501 0
8508 -9874 66 -8501 0
8508 9874 -9924 -66 -8501 0
-8508 9874 66 0
-8508 -9874 -9924 -66 0
-8508 8501 0
-8508 9874 9924 0
8509 -9875 9924 -8501 0
8509 -9875 65 -8501 0
8509 9875 -9924 -65 -8501 0
-8509 9875 65 0
-8509 -9875 -9924 -65 0
-8509 8501 0
-8509 9875 9924 0
8510 -9876 9924 -8501 0
8510 -9876 64 -8501 0
8510 9876 -9924 -64 -8501 0
-8510 9876 64 0
-8510 -9876 -9924 -64 0
-8510 8501 0
-8510 9876 9924 0
8511 -9877 9924 -8501 0
8511 -9877 63 -8501 0
8511 9877 -9924 -63 -8501 0
-8511 9877 63 0
-8511 -9877 -9924 -63 0
-8511 8501 0
-8511 9877 9924 0
8512 -9878 9924 -8501 0
8512 -9878 62 -8501 0
8512 9878 -9924 -62 -8501 0
-8512 9878 62 0
-8512 -9878 -9924 -62 0
-8512 8501 0
-8512 9878 9924 0
8513 -9879 9924 -8501 0
8513 -9879 61 -8501 0
8513 9879 -9924 -61 -8501 0
-8513 9879 61 0
-8513 -9879 -9924 -61 0
-8513 8501 0
-8513 9879 9924 0
8514 -9880 9924 -8501 0
8514 -9880 60 -8501 0
8514 9880 -9924 -60 -8501 0
-8514 9880 60 0
-8514 -9880 -9924 -60 0
-8514 8501 0
-8514 9880 9924 0
8515 -9881 9924 -8501 0
8515 -9881 59 -8501 0
8515 9881 -9924 -59 -8501 0
-8515 9881 59 0
-8515 -9881 -9924 -59 0
-8515 8501 0
-8515 9881 9924 0
8516 -9882 9924 -8501 0
8516 -9882 58 -8501 0
8516 9882 -9924 -58 -8501 0
-8516 9882 58 0
-8516 -9882 -9924 -58 0
-8516 8501 0
-8516 9882 9924 0
8517 -9883 9924 -8501 0
8517 -9883 57 -8501 0
8517 9883 -9924 -57 -8501 0
-8517 9883 57 0
-8517 -9883 -9924 -57 0
-8517 8501 0
-8517 9883 9924 0
8518 -9884 9924 -8501 0
8518 -9884 56 -8501 0
8518 9884 -9924 -56 -8501 0
-8518 9884 56 0
-8518 -9884 -9924 -56 0
-8518 8501 0
-8518 9884 9924 0
8519 -9885 9924 -8501 0
8519 -9885 55 -8501 0
8519 9885 -9924 -55 -8501 0
-8519 9885 55 0
-8519 -9885 -9924 -55 0
-8519 8501 0
-8519 9885 9924 0
8520 -9886 9924 -8501 0
8520 -9886 54 -8501 0
8520 9886 -9924 -54 -8501 0
-8520 9886 54 0
-8520 -9886 -9924 -54 0
-8520 8501 0
-8520 9886 9924 0
8521 -9887 9924 -8501 0
8521 -9887 53 -8501 0
8521 9887 -9924 -53 -8501 0
-8521 9887 53 0
-8521 -9887 -9924 -53 0
-8521 8501 0
-8521 9887 9924 0
8522 -9888 9924 -8501 0
8522 -9888 52 -8501 0
8522 9888 -9924 -52 -8501 0
-8522 9888 52 0
-8522 -9888 -9924 -52 0
-8522 8501 0
-8522 9888 9924 0
8523 -9889 9924 -8501 0
8523 -9889 51 -8501 0
8523 9889 -9924 -51 -8501 0
-8523 9889 51 0
-8523 -9889 -9924 -51 0
-8523 8501 0
-8523 9889 9924 0
8524 -9890 9924 -8501 0
8524 -9890 50 -8501 0
8524 9890 -9924 -50 -8501 0
-8524 9890 50 0
-8524 -9890 -9924 -50 0
-8524 8501 0
-8524 9890 9924 0
8525 -9891 9924 -8501 0
8525 -9891 49 -8501 0
8525 9891 -9924 -49 -8501 0
-8525 9891 49 0
-8525 -9891 -9924 -49 0
-8525 8501 0
-8525 9891 9924 0
8526 -9892 9924 -8501 0
8526 -9892 48 -8501 0
8526 9892 -9924 -48 -8501 0
-8526 9892 48 0
-8526 -9892 -9924 -48 0
-8526 8501 0
-8526 9892 9924 0
8527 -9893 9924 -8501 0
8527 -9893 47 -8501 0
8527 9893 -9924 -47 -8501 0
-8527 9893 47 0
-8527 -9893 -9924 -47 0
-8527 8501 0
-8527 9893 9924 0
8528 -9894 9924 -8501 0
8528 -9894 46 -8501 0
8528 9894 -9924 -46 -8501 0
-8528 9894 46 0
-8528 -9894 -9924 -46 0
-8528 8501 0
-8528 9894 9924 0
8529 -9895 9924 -8501 0
8529 -9895 45 -8501 0
8529 9895 -9924 -45 -8501 0
-8529 9895 45 0
-8529 -9895 -9924 -45 0
-8529 8501 0
-8529 9895 9924 0
8530 -9896 9924 -8501 0
8530 -9896 44 -8501 0
8530 9896 -9924 -44 -8501 0
-8530 9896 44 0
-8530 -9896 -9924 -44 0
-8530 8501 0
-8530 9896 9924 0
8531 -9897 9924 -8501 0
8531 -9897 43 -8501 0
8531 9897 -9924 -43 -8501 0
-8531 9897 43 0
-8531 -9897 -9924 -43 0
-8531 8501 0
-8531 9897 9924 0
8532 -9898 9924 -8501 0
8532 -9898 42 -8501 0
8532 9898 -9924 -42 -8501 0
-8532 9898 42 0
-8532 -9898 -9924 -42 0
-8532 8501 0
-8532 9898 9924 0
8533 -9899 9924 -8501 0
8533 -9899 41 -8501 0
8533 9899 -9924 -41 -8501 0
-8533 9899 41 0
-8533 -9899 -9924 -41 0
-8533 8501 0
-8533 9899 9924 0
8534 -9900 9924 -8501 0
8534 -9900 40 -8501 0
8534 9900 -9924 -40 -8501 0
-8534 9900 40 0
-8534 -9900 -9924 -40 0
-8534 8501 0
-8534 9900 9924 0
8535 9924 -9925 -39 0
-8535 -9924 0
-8535 9925 0
-8535 39 0
-8536 5599 8537 0
-8536 8537 8660 0
-8536 5599 8660 0
8536 -8537 -8660 0
8536 -5599 -8537 0
8536 -5599 -8660 0
-8537 8538 8540 0
-8537 8540 8659 0
-8537 8538 8659 0
8537 -8540 -8659 0
8537 -8538 -8540 0
8537 -8538 -8659 0
-8538 8409 8539 0
-8538 -8409 -8539 0
8538 -8409 8539 0
8538 8409 -8539 0
-8539 -5601 -8534 0
-8539 5601 8534 0
8539 5601 -8534 0
8539 -5601 8534 0
-8540 8541 8543 0
-8540 8543 8658 0
-8540 8541 8658 0
8540 -8543 -8658 0
8540 -8541 -8543 0
8540 -8541 -8658 0
-8541 8412 8542 0
-8541 -8412 -8542 0
8541 -8412 8542 0
8541 8412 -8542 0
-8542 -8410 -8533 0
-8542 8410 8533 0
8542 8410 -8533 0
8542 -8410 8533 0
-8543 8544 8546 0
-8543 8546 8657 0
-8543 8544 8657 0
8543 -8546 -8657 0
8543 -8544 -8546 0
8543 -8544 -8657 0
-8544 8415 8545 0
-8544 -8415 -8545 0
8544 -8415 8545 0
8544 8415 -8545 0
-8545 -8413 -8532 0
-8545 8413 8532 0
8545 8413 -8532 0
8545 -8413 8532 0
-8546 8547 8549 0
-8546 8549 8656 0
-8546 8547 8656 0
8546 -8549 -8656 0
8546 -8547 -8549 0
8546 -8547 -8656 0
-8547 8418 8548 0
-8547 -8418 -8548 0
8547 -8418 8548 0
8547 8418 -8548 0
-8548 -8416 -8531 0
-8548 8416 8531 0
8548 8416 -8531 0
8548 -8416 8531 0
-8549 8550 8552 0
-8549 8552 8655 0
-8549 8550 8655 0
8549 -8552 -8655 0
8549 -8550 -8552 0
8549 -8550 -8655 0
-8550 8421 8551 0
-8550 -8421 -8551 0
8550 -8421 8551 0
8550 8421 -8551 0
-8551 -8419 -8530 0
-8551 8419 8530 0
8551 8419 -8530 0
8551 -8419 8530 0
-8552 8553 8555 0
-8552 8555 8654 0
-8552 8553 8654 0
8552 -8555 -8654 0
8552 -8553 -8555 0
8552 -8553 -8654 0
-8553 8424 8554 0
-8553 -8424 -8554 0
8553 -8424 8554 0
8553 8424 -8554 0
-8554 -8422 -8529 0
-8554 8422 8529 0
8554 8422 -8529 0
8554 -8422 8529 0
-8555 8556 8558 0
-8555 8558 8653 0
-8555 8556 8653 0
8555 -8558 -8653 0
8555 -8556 -8558 0
8555 -8556 -8653 0
-8556 8427 8557 0
-8556 -8427 -8557 0
8556 -8427 8557 0
8556 8427 -8557 0
-8557 -8425 -8528 0
-8557 8425 8528 0
8557 8425 -8528 0
8557 -8425 8528 0
-8558 8559 8561 0
-8558 8561 8652 0
-8558 8559 8652 0
8558 -8561 -8652 0
8558 -8559 -8561 0
8558 -8559 -8652 0
-8559 8430 8560 0
-8559 -8430 -8560 0
8559 -8430 8560 0
8559 8430 -8560 0
-8560 -8428 -8527 0
-8560 8428 8527 0
8560 8428 -8527 0
8560 -8428 8527 0
-8561 8562 8564 0
-8561 8564 8651 0
-8561 8562 8651 0
8561 -8564 -8651 0
8561 -8562 -8564 0
8561 -8562 -8651 0
-8562 8433 8563 0
-8562 -8433 -8563 0
8562 -8433 8563 0
8562 8433 -8563 0
-8563 -8431 -8526 0
-8563 8431 8526 0
8563 8431 -8526 0
8563 -8431 8526 0
-8564 8565 8567 0
-8564 8567 8650 0
-8564 8565 8650 0
8564 -8567 -8650 0
8564 -8565 -8567 0
8564 -8565 -8650 0
-8565 8436 8566 0
-8565 -8436 -8566 0
8565 -8436 8566 0
8565 8436 -8566 0
-8566 -8434 -8525 0
-8566 8434 8525 0
8566 8434 -8525 0
8566 -8434 8525 0
-8567 8568 8570 0
-8567 8570 8649 0
-8567 8568 8649 0
8567 -8570 -8649 0
8567 -8568 -8570 0
8567 -8568 -8649 0
-8568 8439 8569 0
-8568 -8439 -8569 0
8568 -8439 8569 0
8568 8439 -8569 0
-8569 -8437 -8524 0
-8569 8437 8524 0
8569 8437 -8524 0
8569 -8437 8524 0
-8570 8571 8573 0
-8570 8573 8648 0
-8570 8571 8648 0
8570 -8573 -8648 0
8570 -8571 -8573 0
8570 -8571 -8648 0
-8571 8442 8572 0
-8571 -8442 -8572 0
8571 -8442 8572 0
8571 8442 -8572 0
-8572 -8440 -8523 0
-8572 8440 8523 0
8572 8440 -8523 0
8572 -8440 8523 0
-8573 8574 8576 0
-8573 8576 8647 0
-8573 8574 8647 0
8573 -8576 -8647 0
8573 -8574 -8576 0
8573 -8574 -8647 0
-8574 8445 8575 0
-8574 -8445 -8575 0
8574 -8445 8575 0
8574 8445 -8575 0
-8575 -8443 -8522 0
-8575 8443 8522 0
8575 8443 -8522 0
8575 -8443 8522 0
-8576 8577 8579 0
-8576 8579 8646 0
-8576 8577 8646 0
8576 -8579 -8646 0
8576 -8577 -8579 0
8576 -8577 -8646 0
-8577 8448 8578 0
-8577 -8448 -8578 0
8577 -8448 8578 0
8577 8448 -8578 0
-8578 -8446 -8521 0
-8578 8446 8521 0
8578 8446 -8521 0
8578 -8446 8521 0
-8579 8580 8582 0
-8579 8582 8645 0
-8579 8580 8645 0
8579 -8582 -8645 0
8579 -8580 -8582 0
8579 -8580 -8645 0
-8580 8451 8581 0
-8580 -8451 -8581 0
8580 -8451 8581 0
8580 8451 -8581 0
-8581 -8449 -8520 0
-8581 8449 8520 0
8581 8449 -8520 0
8581 -8449 8520 0
-8582 8583 8585 0
-8582 8585 8644 0
-8582 8583 8644 0
8582 -8585 -8644 0
8582 -8583 -8585 0
8582 -8583 -8644 0
-8583 8454 8584 0
-8583 -8454 -8584 0
8583 -8454 8584 0
8583 8454 -8584 0
-8584 -8452 -8519 0
-8584 8452 8519 0
8584 8452 -8519 0
8584 -8452 8519 0
-8585 8586 8588 0
-8585 8588 8643 0
-8585 8586 8643 0
8585 -8588 -8643 0
8585 -8586 -8588 0
8585 -8586 -8643 0
-8586 8457 8587 0
-8586 -8457 -8587 0
8586 -8457 8587 0
8586 8457 -8587 0
-8587 -8455 -8518 0
-8587 8455 8518 0
8587 8455 -8518 0
8587 -8455 8518 0
-8588 8589 8591 0
-8588 8591 8642 0
-8588 8589 8642 0
8588 -8591 -8642 0
8588 -8589 -8591 0
8588 -8589 -8642 0
-8589 8460 8590 0
-8589 -8460 -8590 0
8589 -8460 8590 0
8589 8460 -8590 0
-8590 -8458 -8517 0
-8590 8458 8517 0
8590 8458 -8517 0
8590 -8458 8517 0
-8591 8592 8594 0
-8591 8594 8641 0
-8591 8592 8641 0
8591 -8594 -8641 0
8591 -8592 -8594 0
8591 -8592 -8641 0
-8592 8463 8593 0
-8592 -8463 -8593 0
8592 -8463 8593 0
8592 8463 -8593 0
-8593 -8461 -8516 0
-8593 8461 8516 0
8593 8461 -8516 0
8593 -8461 8516 0
-8594 8595 8597 0
-8594 8597 8640 0
-8594 8595 8640 0
8594 -8597 -8640 0
8594 -8595 -8597 0
8594 -8595 -8640 0
-8595 8466 8596 0
-8595 -8466 -8596 0
8595 -8466 8596 0
8595 8466 -8596 0
-8596 -8464 -8515 0
-8596 8464 8515 0
8596 8464 -8515 0
8596 -8464 8515 0
-8597 8598 8600 0
-8597 8600 8639 0
-8597 8598 8639 0
8597 -8600 -8639 0
8597 -8598 -8600 0
8597 -8598 -8639 0
-8598 8469 8599 0
-8598 -8469 -8599 0
8598 -8469 8599 0
8598 8469 -8599 0
-8599 -8467 -8514 0
-8599 8467 8514 0
8599 8467 -8514 0
8599 -8467 8514 0
-8600 8601 8603 0
-8600 8603 8638 0
-8600 8601 8638 0
8600 -8603 -8638 0
8600 -8601 -8603 0
8600 -8601 -8638 0
-8601 8472 8602 0
-8601 -8472 -8602 0
8601 -8472 8602 0
8601 8472 -8602 0
-8602 -8470 -8513 0
-8602 8470 8513 0
8602 8470 -8513 0
8602 -8470 8513 0
-8603 8604 8606 0
-8603 8606 8637 0
-8603 8604 8637 0
8603 -8606 -8637 0
8603 -8604 -8606 0
8603 -8604 -8637 0
-8604 8475 8605 0
-8604 -8475 -8605 0
8604 -8475 8605 0
8604 8475 -8605 0
-8605 -8473 -8512 0
-8605 8473 8512 0
8605 8473 -8512 0
8605 -8473 8512 0
-8606 8607 8609 0
-8606 8609 8636 0
-8606 8607 8636 0
8606 -8609 -8636 0
8606 -8607 -8609 0
8606 -8607 -8636 0
-8607 8478 8608 0
-8607 -8478 -8608 0
8607 -8478 8608 0
8607 8478 -8608 0
-8608 -8476 -8511 0
-8608 8476 8511 0
8608 8476 -8511 0
8608 -8476 8511 0
-8609 8610 8612 0
-8609 8612 8635 0
-8609 8610 8635 0
8609 -8612 -8635 0
8609 -8610 -8612 0
8609 -8610 -8635 0
-8610 8481 8611 0
-8610 -8481 -8611 0
8610 -8481 8611 0
8610 8481 -8611 0
-8611 -8479 -8510 0
-8611 8479 8510 0
8611 8479 -8510 0
8611 -8479 8510 0
-8612 8613 8615 0
-8612 8615 8634 0
-8612 8613 8634 0
8612 -8615 -8634 0
8612 -8613 -8615 0
8612 -8613 -8634 0
-8613 8484 8614 0
-8613 -8484 -8614 0
8613 -8484 8614 0
8613 8484 -8614 0
-8614 -8482 -8509 0
-8614 8482 8509 0
8614 8482 -8509 0
8614 -8482 8509 0
-8615 8616 8618 0
-8615 8618 8633 0
-8615 8616 8633 0
8615 -8618 -8633 0
8615 -8616 -8618 0
8615 -8616 -8633 0
-8616 8487 8617 0
-8616 -8487 -8617 0
8616 -8487 8617 0
8616 8487 -8617 0
-8617 -8485 -8508 0
-8617 8485 8508 0
8617 8485 -8508 0
8617 -8485 8508 0
-8618 8619 8621 0
-8618 8621 8632 0
-8618 8619 8632 0
8618 -8621 -8632 0
8618 -8619 -8621 0
8618 -8619 -8632 0
-8619 8490 8620 0
-8619 -8490 -8620 0
8619 -8490 8620 0
8619 8490 -8620 0
-8620 -8488 -8507 0
-8620 8488 8507 0
8620 8488 -8507 0
8620 -8488 8507 0
-8621 8622 8624 0
-8621 8624 8631 0
-8621 8622 8631 0
8621 -8624 -8631 0
8621 -8622 -8624 0
8621 -8622 -8631 0
-8622 8493 8623 0
-8622 -8493 -8623 0
8622 -8493 8623 0
8622 8493 -8623 0
-8623 -8491 -8506 0
-8623 8491 8506 0
8623 8491 -8506 0
8623 -8491 8506 0
-8624 8627 8630 0
-8624 8625 8627 0
-8624 8625 8630 0
8624 -8625 -8627 0
8624 -8627 -8630 0
8624 -8625 -8630 0
-8625 8496 8626 0
-8625 -8496 -8626 0
8625 -8496 8626 0
8625 8496 -8626 0
-8626 -8494 -8505 0
-8626 8494 8505 0
8626 8494 -8505 0
8626 -8494 8505 0
8627 -4134 -8628 0
-8627 4134 0
-8627 8628 0
-8628 8499 8629 0
-8628 -8499 -8629 0
8628 -8499 8629 0
8628 8499 -8629 0
-8629 -8497 -8504 0
-8629 8497 8504 0
8629 8497 -8504 0
8629 -8497 8504 0
8630 9869 -9870 -4135 0
8630 -9870 9925 -4135 0
8630 -9869 9870 -9925 -4135 0
-8630 9870 9925 0
-8630 9869 9870 0
-8630 4135 0
-8630 -9869 -9870 -9925 0
8631 -9871 9925 -4135 0
8631 -9871 69 -4135 0
8631 9871 -9925 -69 -4135 0
-8631 9871 69 0
-8631 -9871 -9925 -69 0
-8631 4135 0
-8631 9871 9925 0
8632 -9872 9925 -4135 0
8632 -9872 68 -4135 0
8632 9872 -9925 -68 -4135 0
-8632 9872 68 0
-8632 -9872 -9925 -68 0
-8632 4135 0
-8632 9872 9925 0
8633 -9873 9925 -4135 0
8633 -9873 67 -4135 0
8633 9873 -9925 -67 -4135 0
-8633 9873 67 0
-8633 -9873 -9925 -67 0
-8633 4135 0
-8633 9873 9925 0
8634 -9874 9925 -4135 0
8634 -9874 66 -4135 0
8634 9874 -9925 -66 -4135 0
-8634 9874 66 0
-8634 -9874 -9925 -66 0
-8634 4135 0
-8634 9874 9925 0
8635 -9875 9925 -4135 0
8635 -9875 65 -4135 0
8635 9875 -9925 -65 -4135 0
-8635 9875 65 0
-8635 -9875 -9925 -65 0
-8635 4135 0
-8635 9875 9925 0
8636 -9876 9925 -4135 0
8636 -9876 64 -4135 0
8636 9876 -9925 -64 -4135 0
-8636 9876 64 0
-8636 -9876 -9925 -64 0
-8636 4135 0
-8636 9876 9925 0
8637 -9877 9925 -4135 0
8637 -9877 63 -4135 0
8637 9877 -9925 -63 -4135 0
-8637 9877 63 0
-8637 -9877 -9925 -63 0
-8637 4135 0
-8637 9877 9925 0
8638 -9878 9925 -4135 0
8638 -9878 62 -4135 0
8638 9878 -9925 -62 -4135 0
-8638 9878 62 0
-8638 -9878 -9925 -62 0
-8638 4135 0
-8638 9878 9925 0
8639 -9879 9925 -4135 0
8639 -9879 61 -4135 0
8639 9879 -9925 -61 -4135 0
-8639 9879 61 0
-8639 -9879 -9925 -61 0
-8639 4135 0
-8639 9879 9925 0
8640 -9880 9925 -4135 0
8640 -9880 60 -4135 0
8640 9880 -9925 -60 -4135 0
-8640 9880 60 0
-8640 -9880 -9925 -60 0
-8640 4135 0
-8640 9880 9925 0
8641 -9881 9925 -4135 0
8641 -9881 59 -4135 0
8641 9881 -9925 -59 -4135 0
-8641 9881 59 0
-8641 -9881 -9925 -59 0
-8641 4135 0
-8641 9881 9925 0
8642 -9882 9925 -4135 0
8642 -9882 58 -4135 0
8642 9882 -9925 -58 -4135 0
-8642 9882 58 0
-8642 -9882 -9925 -58 0
-8642 4135 0
-8642 9882 9925 0
8643 -9883 9925 -4135 0
8643 -9883 57 -4135 0
8643 9883 -9925 -57 -4135 0
-8643 9883 57 0
-8643 -9883 -9925 -57 0
-8643 4135 0
-8643 9883 9925 0
8644 -9884 9925 -4135 0
8644 -9884 56 -4135 0
8644 9884 -9925 -56 -4135 0
-8644 9884 56 0
-8644 -9884 -9925 -56 0
-8644 4135 0
-8644 9884 9925 0
8645 -9885 9925 -4135 0
8645 -9885 55 -4135 0
8645 9885 -9925 -55 -4135 0
-8645 9885 55 0
-8645 -9885 -9925 -55 0
-8645 4135 0
-8645 9885 9925 0
8646 -9886 9925 -4135 0
8646 -9886 54 -4135 0
8646 9886 -9925 -54 -4135 0
-8646 9886 54 0
-8646 -9886 -9925 -54 0
-8646 4135 0
-8646 9886 9925 0
8647 -9887 9925 -4135 0
8647 -9887 53 -4135 0
8647 9887 -9925 -53 -4135 0
-8647 9887 53 0
-8647 -9887 -9925 -53 0
-8647 4135 0
-8647 9887 9925 0
8648 -9888 9925 -4135 0
8648 -9888 52 -4135 0
8648 9888 -9925 -52 -4135 0
-8648 9888 52 0
-8648 -9888 -9925 -52 0
-8648 4135 0
-8648 9888 9925 0
8649 -9889 9925 -4135 0
8649 -9889 51 -4135 0
8649 9889 -9925 -51 -4135 0
-8649 9889 51 0
-8649 -9889 -9925 -51 0
-8649 4135 0
-8649 9889 9925 0
8650 -9890 9925 -4135 0
8650 -9890 50 -4135 0
8650 9890 -9925 -50 -4135 0
-8650 9890 50 0
-8650 -9890 -9925 -50 0
-8650 4135 0
-8650 9890 9925 0
8651 -9891 9925 -4135 0
8651 -9891 49 -4135 0
8651 9891 -9925 -49 -4135 0
-8651 9891 49 0
-8651 -9891 -9925 -49 0
-8651 4135 0
-8651 9891 9925 0
8652 -9892 9925 -4135 0
8652 -9892 48 -4135 0
8652 9892 -9925 -48 -4135 0
-8652 9892 48 0
-8652 -9892 -9925 -48 0
-8652 4135 0
-8652 9892 9925 0
8653 -9893 9925 -4135 0
8653 -9893 47 -4135 0
8653 9893 -9925 -47 -4135 0
-8653 9893 47 0
-8653 -9893 -9925 -47 0
-8653 4135 0
-8653 9893 9925 0
8654 -9894 9925 -4135 0
8654 -9894 46 -4135 0
8654 9894 -9925 -46 -4135 0
-8654 9894 46 0
-8654 -9894 -9925 -46 0
-8654 4135 0
-8654 9894 9925 0
8655 -9895 9925 -4135 0
8655 -9895 45 -4135 0
8655 9895 -9925 -45 -4135 0
-8655 9895 45 0
-8655 -9895 -9925 -45 0
-8655 4135 0
-8655 9895 9925 0
8656 -9896 9925 -4135 0
8656 -9896 44 -4135 0
8656 9896 -9925 -44 -4135 0
-8656 9896 44 0
-8656 -9896 -9925 -44 0
-8656 4135 0
-8656 9896 9925 0
8657 -9897 9925 -4135 0
8657 -9897 43 -4135 0
8657 9897 -9925 -43 -4135 0
-8657 9897 43 0
-8657 -9897 -9925 -43 0
-8657 4135 0
-8657 9897 9925 0
8658 -9898 9925 -4135 0
8658 -9898 42 -4135 0
8658 9898 -9925 -42 -4135 0
-8658 9898 42 0
-8658 -9898 -9925 -42 0
-8658 4135 0
-8658 9898 9925 0
8659 -9899 9925 -4135 0
8659 -9899 41 -4135 0
8659 9899 -9925 -41 -4135 0
-8659 9899 41 0
-8659 -9899 -9925 -41 0
-8659 4135 0
-8659 9899 9925 0
8660 -9900 9925 -4135 0
8660 -9900 40 -4135 0
8660 9900 -9925 -40 -4135 0
-8660 9900 40 0
-8660 -9900 -9925 -40 0
-8660 4135 0
-8660 9900 9925 0
8661 9925 -9926 -39 0
-8661 -9925 0
-8661 9926 0
-8661 39 0
-8662 5597 8663 0
-8662 8663 8788 0
-8662 5597 8788 0
8662 -8663 -8788 0
8662 -5597 -8663 0
8662 -5597 -8788 0
-8663 8664 8666 0
-8663 8666 8787 0
-8663 8664 8787 0
8663 -8666 -8787 0
8663 -8664 -8666 0
8663 -8664 -8787 0
-8664 8537 8665 0
-8664 -8537 -8665 0
8664 -8537 8665 0
8664 8537 -8665 0
-8665 -5599 -8660 0
-8665 5599 8660 0
8665 5599 -8660 0
8665 -5599 8660 0
-8666 8667 8669 0
-8666 8669 8786 0
-8666 8667 8786 0
8666 -8669 -8786 0
8666 -8667 -8669 0
8666 -8667 -8786 0
-8667 8540 8668 0
-8667 -8540 -8668 0
8667 -8540 8668 0
8667 8540 -8668 0
-8668 -8538 -8659 0
-8668 8538 8659 0
8668 8538 -8659 0
8668 -8538 8659 0
-8669 8670 8672 0
-8669 8672 8785 0
-8669 8670 8785 0
8669 -8672 -8785 0
8669 -8670 -8672 0
8669 -8670 -8785 0
-8670 8543 8671 0
-8670 -8543 -8671 0
8670 -8543 8671 0
8670 8543 -8671 0
-8671 -8541 -8658 0
-8671 8541 8658 0
8671 8541 -8658 0
8671 -8541 8658 0
-8672 8673 8675 0
-8672 8675 8784 0
-8672 8673 8784 0
8672 -8675 -8784 0
8672 -8673 -8675 0
8672 -8673 -8784 0
-8673 8546 8674 0
-8673 -8546 -8674 0
8673 -8546 8674 0
8673 8546 -8674 0
-8674 -8544 -8657 0
-8674 8544 8657 0
8674 8544 -8657 0
8674 -8544 8657 0
-8675 8676 8678 0
-8675 8678 8783 0
-8675 8676 8783 0
8675 -8678 -8783 0
8675 -8676 -8678 0
8675 -8676 -8783 0
-8676 8549 8677 0
-8676 -8549 -8677 0
8676 -8549 8677 0
8676 8549 -8677 0
-8677 -8547 -8656 0
-8677 8547 8656 0
8677 8547 -8656 0
8677 -8547 8656 0
-8678 8679 8681 0
-8678 8681 8782 0
-8678 8679 8782 0
8678 -8681 -8782 0
8678 -8679 -8681 0
8678 -8679 -8782 0
-8679 8552 8680 0
-8679 -8552 -8680 0
8679 -8552 8680 0
8679 8552 -8680 0
-8680 -8550 -8655 0
-8680 8550 8655 0
8680 8550 -8655 0
8680 -8550 8655 0
-8681 8682 8684 0
-8681 8684 8781 0
-8681 8682 8781 0
8681 -8684 -8781 0
8681 -8682 -8684 0
8681 -8682 -8781 0
-8682 8555 8683 0
-8682 -8555 -8683 0
8682 -8555 8683 0
8682 8555 -8683 0
-8683 -8553 -8654 0
-8683 8553 8654 0
8683 8553 -8654 0
8683 -8553 8654 0
-8684 8685 8687 0
-8684 8687 8780 0
-8684 8685 8780 0
8684 -8687 -8780 0
8684 -8685 -8687 0
8684 -8685 -8780 0
-8685 8558 8686 0
-8685 -8558 -8686 0
8685 -8558 8686 0
8685 8558 -8686 0
-8686 -8556 -8653 0
-8686 8556 8653 0
8686 8556 -8653 0
8686 -8556 8653 0
-8687 8688 8690 0
-8687 8690 8779 0
-8687 8688 8779 0
8687 -8690 -8779 0
8687 -8688 -8690 0
8687 -8688 -8779 0
-8688 8561 8689 0
-8688 -8561 -8689 0
8688 -8561 8689 0
8688 8561 -8689 0
-8689 -8559 -8652 0
-8689 8559 8652 0
8689 8559 -8652 0
8689 -8559 8652 0
-8690 8691 8693 0
-8690 8693 8778 0
-8690 8691 8778 0
8690 -8693 -8778 0
8690 -8691 -8693 0
8690 -8691 -8778 0
-8691 8564 8692 0
-8691 -8564 -8692 0
8691 -8564 8692 0
8691 8564 -8692 0
-8692 -8562 -8651 0
-8692 8562 8651 0
8692 8562 -8651 0
8692 -8562 8651 0
-8693 8694 8696 0
-8693 8696 8777 0
-8693 8694 8777 0
8693 -8696 -8777 0
8693 -8694 -8696 0
8693 -8694 -8777 0
-8694 8567 8695 0
-8694 -8567 -8695 0
8694 -8567 8695 0
8694 8567 -8695 0
-8695 -8565 -8650 0
-8695 8565 8650 0
8695 8565 -8650 0
8695 -8565 8650 0
-8696 8697 8699 0
-8696 8699 8776 0
-8696 8697 8776 0
8696 -8699 -8776 0
8696 -8697 -8699 0
8696 -8697 -8776 0
-8697 8570 8698 0
-8697 -8570 -8698 0
8697 -8570 8698 0
8697 8570 -8698 0
-8698 -8568 -8649 0
-8698 8568 8649 0
8698 8568 -8649 0
8698 -8568 8649 0
-8699 8700 8702 0
-8699 8702 8775 0
-8699 8700 8775 0
8699 -8702 -8775 0
8699 -8700 -8702 0
8699 -8700 -8775 0
-8700 8573 8701 0
-8700 -8573 -8701 0
8700 -8573 8701 0
8700 8573 -8701 0
-8701 -8571 -8648 0
-8701 8571 8648 0
8701 8571 -8648 0
8701 -8571 8648 0
-8702 8703 8705 0
-8702 8705 8774 0
-8702 8703 8774 0
8702 -8705 -8774 0
8702 -8703 -8705 0
8702 -8703 -8774 0
-8703 8576 8704 0
-8703 -8576 -8704 0
8703 -8576 8704 0
8703 8576 -8704 0
-8704 -8574 -8647 0
-8704 8574 8647 0
8704 8574 -8647 0
8704 -8574 8647 0
-8705 8706 8708 0
-8705 8708 8773 0
-8705 8706 8773 0
8705 -8708 -8773 0
8705 -8706 -8708 0
8705 -8706 -8773 0
-8706 8579 8707 0
-8706 -8579 -8707 0
8706 -8579 8707 0
8706 8579 -8707 0
-8707 -8577 -8646 0
-8707 8577 8646 0
8707 8577 -8646 0
8707 -8577 8646 0
-8708 8709 8711 0
-8708 8711 8772 0
-8708 8709 8772 0
8708 -8711 -8772 0
8708 -8709 -8711 0
8708 -8709 -8772 0
-8709 8582 8710 0
-8709 -8582 -8710 0
8709 -8582 8710 0
8709 8582 -8710 0
-8710 -8580 -8645 0
-8710 8580 8645 0
8710 8580 -8645 0
8710 -8580 8645 0
-8711 8712 8714 0
-8711 8714 8771 0
-8711 8712 8771 0
8711 -8714 -8771 0
8711 -8712 -8714 0
8711 -8712 -8771 0
-8712 8585 8713 0
-8712 -8585 -8713 0
8712 -8585 8713 0
8712 8585 -8713 0
-8713 -8583 -8644 0
-8713 8583 8644 0
8713 8583 -8644 0
8713 -8583 8644 0
-8714 8715 8717 0
-8714 8717 8770 0
-8714 8715 8770 0
8714 -8717 -8770 0
8714 -8715 -8717 0
8714 -8715 -8770 0
-8715 8588 8716 0
-8715 -8588 -8716 0
8715 -8588 8716 0
8715 8588 -8716 0
-8716 -8586 -8643 0
-8716 8586 8643 0
8716 8586 -8643 0
8716 -8586 8643 0
-8717 8718 8720 0
-8717 8720 8769 0
-8717 8718 8769 0
8717 -8720 -8769 0
8717 -8718 -8720 0
8717 -8718 -8769 0
-8718 8591 8719 0
-8718 -8591 -8719 0
8718 -8591 8719 0
8718 8591 -8719 0
-8719 -8589 -8642 0
-8719 8589 8642 0
8719 8589 -8642 0
8719 -8589 8642 0
-8720 8721 8723 0
-8720 8723 8768 0
-8720 8721 8768 0
8720 -8723 -8768 0
8720 -8721 -8723 0
8720 -8721 -8768 0
-8721 8594 8722 0
-8721 -8594 -8722 0
8721 -8594 8722 0
8721 8594 -8722 0
-8722 -8592 -8641 0
-8722 8592 8641 0
8722 8592 -8641 0
8722 -8592 8641 0
-8723 8724 8726 0
-8723 8726 8767 0
-8723 8724 8767 0
8723 -8726 -8767 0
8723 -8724 -8726 0
8723 -8724 -8767 0
-8724 8597 8725 0
-8724 -8597 -8725 0
8724 -8597 8725 0
8724 8597 -8725 0
-8725 -8595 -8640 0
-8725 8595 8640 0
8725 8595 -8640 0
8725 -8595 8640 0
-8726 8727 8729 0
-8726 8729 8766 0
-8726 8727 8766 0
8726 -8729 -8766 0
8726 -8727 -8729 0
8726 -8727 -8766 0
-8727 8600 8728 0
-8727 -8600 -8728 0
8727 -8600 8728 0
8727 8600 -8728 0
-8728 -8598 -8639 0
-8728 8598 8639 0
8728 8598 -8639 0
8728 -8598 8639 0
-8729 8730 8732 0
-8729 8732 8765 0
-8729 8730 8765 0
8729 -8732 -8765 0
8729 -8730 -8732 0
8729 -8730 -8765 0
-8730 8603 8731 0
-8730 -8603 -8731 0
8730 -8603 8731 0
8730 8603 -8731 0
-8731 -8601 -8638 0
-8731 8601 8638 0
8731 8601 -8638 0
8731 -8601 8638 0
-8732 8733 8735 0
-8732 8735 8764 0
-8732 8733 8764 0
8732 -8735 -8764 0
8732 -8733 -8735 0
8732 -8733 -8764 0
-8733 8606 8734 0
-8733 -8606 -8734 0
8733 -8606 8734 0
8733 8606 -8734 0
-8734 -8604 -8637 0
-8734 8604 8637 0
8734 8604 -8637 0
8734 -8604 8637 0
-8735 8736 8738 0
-8735 8738 8763 0
-8735 8736 8763 0
8735 -8738 -8763 0
8735 -8736 -8738 0
8735 -8736 -8763 0
-8736 8609 8737 0
-8736 -8609 -8737 0
8736 -8609 8737 0
8736 8609 -8737 0
-8737 -8607 -8636 0
-8737 8607 8636 0
8737 8607 -8636 0
8737 -8607 8636 0
-8738 8739 8741 0
-8738 8741 8762 0
-8738 8739 8762 0
8738 -8741 -8762 0
8738 -8739 -8741 0
8738 -8739 -8762 0
-8739 8612 8740 0
-8739 -8612 -8740 0
8739 -8612 8740 0
8739 8612 -8740 0
-8740 -8610 -8635 0
-8740 8610 8635 0
8740 8610 -8635 0
8740 -8610 8635 0
-8741 8742 8744 0
-8741 8744 8761 0
-8741 8742 8761 0
8741 -8744 -8761 0
8741 -8742 -8744 0
8741 -8742 -8761 0
-8742 8615 8743 0
-8742 -8615 -8743 0
8742 -8615 8743 0
8742 8615 -8743 0
-8743 -8613 -8634 0
-8743 8613 8634 0
8743 8613 -8634 0
8743 -8613 8634 0
-8744 8745 8747 0
-8744 8747 8760 0
-8744 8745 8760 0
8744 -8747 -8760 0
8744 -8745 -8747 0
8744 -8745 -8760 0
-8745 8618 8746 0
-8745 -8618 -8746 0
8745 -8618 8746 0
8745 8618 -8746 0
-8746 -8616 -8633 0
-8746 8616 8633 0
8746 8616 -8633 0
8746 -8616 8633 0
-8747 8748 8750 0
-8747 8750 8759 0
-8747 8748 8759 0
8747 -8750 -8759 0
8747 -8748 -8750 0
8747 -8748 -8759 0
-8748 8621 8749 0
-8748 -8621 -8749 0
8748 -8621 8749 0
8748 8621 -8749 0
-8749 -8619 -8632 0
-8749 8619 8632 0
8749 8619 -8632 0
8749 -8619 8632 0
-8750 8753 8758 0
-8750 8751 8753 0
-8750 8751 8758 0
8750 -8751 -8753 0
8750 -8753 -8758 0
8750 -8751 -8758 0
-8751 8624 8752 0
-8751 -8624 -8752 0
8751 -8624 8752 0
8751 8624 -8752 0
-8752 -8622 -8631 0
-8752 8622 8631 0
8752 8622 -8631 0
8752 -8622 8631 0
8753 -8754 -8756 0
-8753 8754 0
-8753 8756 0
8754 -9869 -8755 0
-8754 9869 0
-8754 8755 0
-8755 -9925 -9926 0
-8755 9925 9926 0
8755 9925 -9926 0
8755 -9925 9926 0
-8756 8627 8757 0
-8756 -8627 -8757 0
8756 -8627 8757 0
8756 8627 -8757 0
-8757 -8625 -8630 0
-8757 8625 8630 0
8757 8625 -8630 0
8757 -8625 8630 0
8758 9869 -9870 -8755 0
8758 -9870 9926 -8755 0
8758 -9869 9870 -9926 -8755 0
-8758 9870 9926 0
-8758 9869 9870 0
-8758 8755 0
-8758 -9869 -9870 -9926 0
8759 -9871 9926 -8755 0
8759 -9871 69 -8755 0
8759 9871 -9926 -69 -8755 0
-8759 9871 69 0
-8759 -9871 -9926 -69 0
-8759 8755 0
-8759 9871 9926 0
8760 -9872 9926 -8755 0
8760 -9872 68 -8755 0
8760 9872 -9926 -68 -8755 0
-8760 9872 68 0
-8760 -9872 -9926 -68 0
-8760 8755 0
-8760 9872 9926 0
8761 -9873 9926 -8755 0
8761 -9873 67 -8755 0
8761 9873 -9926 -67 -8755 0
-8761 9873 67 0
-8761 -9873 -9926 -67 0
-8761 8755 0
-8761 9873 9926 0
8762 -9874 9926 -8755 0
8762 -9874 66 -8755 0
8762 9874 -9926 -66 -8755 0
-8762 9874 66 0
-8762 -9874 -9926 -66 0
-8762 8755 0
-8762 9874 9926 0
8763 -9875 9926 -8755 0
8763 -9875 65 -8755 0
8763 9875 -9926 -65 -8755 0
-8763 9875 65 0
-8763 -9875 -9926 -65 0
-8763 8755 0
-8763 9875 9926 0
8764 -9876 9926 -8755 0
8764 -9876 64 -8755 0
8764 9876 -9926 -64 -8755 0
-8764 9876 64 0
-8764 -9876 -9926 -64 0
-8764 8755 0
-8764 9876 9926 0
8765 -9877 9926 -8755 0
8765 -9877 63 -8755 0
8765 9877 -9926 -63 -8755 0
-8765 9877 63 0
-8765 -9877 -9926 -63 0
-8765 8755 0
-8765 9877 9926 0
8766 -9878 9926 -8755 0
8766 -9878 62 -8755 0
8766 9878 -9926 -62 -8755 0
-8766 9878 62 0
-8766 -9878 -9926 -62 0
-8766 8755 0
-8766 9878 9926 0
8767 -9879 9926 -8755 0
8767 -9879 61 -8755 0
8767 9879 -9926 -61 -8755 0
-8767 9879 61 0
-8767 -9879 -9926 -61 0
-8767 8755 0
-8767 9879 9926 0
8768 -9880 9926 -8755 0
8768 -9880 60 -8755 0
8768 9880 -9926 -60 -8755 0
-8768 9880 60 0
-8768 -9880 -9926 -60 0
-8768 8755 0
-8768 9880 9926 0
8769 -9881 9926 -8755 0
8769 -9881 59 -8755 0
8769 9881 -9926 -59 -8755 0
-8769 9881 59 0
-8769 -9881 -9926 -59 0
-8769 8755 0
-8769 9881 9926 0
8770 -9882 9926 -8755 0
8770 -9882 58 -8755 0
8770 9882 -9926 -58 -8755 0
-8770 9882 58 0
-8770 -9882 -9926 -58 0
-8770 8755 0
-8770 9882 9926 0
8771 -9883 9926 -8755 0
8771 -9883 57 -8755 0
8771 9883 -9926 -57 -8755 0
-8771 9883 57 0
-8771 -9883 -9926 -57 0
-8771 8755 0
-8771 9883 9926 0
8772 -9884 9926 -8755 0
8772 -9884 56 -8755 0
8772 9884 -9926 -56 -8755 0
-8772 9884 56 0
-8772 -9884 -9926 -56 0
-8772 8755 0
-8772 9884 9926 0
8773 -9885 9926 -8755 0
8773 -9885 55 -8755 0
8773 9885 -9926 -55 -8755 0
-8773 9885 55 0
-8773 -9885 -9926 -55 0
-8773 8755 0
-8773 9885 9926 0
8774 -9886 9926 -8755 0
8774 -9886 54 -8755 0
8774 9886 -9926 -54 -8755 0
-8774 9886 54 0
-8774 -9886 -9926 -54 0
-8774 8755 0
-8774 9886 9926 0
8775 -9887 9926 -8755 0
8775 -9887 53 -8755 0
8775 9887 -9926 -53 -8755 0
-8775 9887 53 0
-8775 -9887 -9926 -53 0
-8775 8755 0
-8775 9887 9926 0
8776 -9888 9926 -8755 0
8776 -9888 52 -8755 0
8776 9888 -9926 -52 -8755 0
-8776 9888 52 0
-8776 -9888 -9926 -52 0
-8776 8755 0
-8776 9888 9926 0
8777 -9889 9926 -8755 0
8777 -9889 51 -8755 0
8777 9889 -9926 -51 -8755 0
-8777 9889 51 0
-8777 -9889 -9926 -51 0
-8777 8755 0
-8777 9889 9926 0
8778 -9890 9926 -8755 0
8778 -9890 50 -8755 0
8778 9890 -9926 -50 -8755 0
-8778 9890 50 0
-8778 -9890 -9926 -50 0
-8778 8755 0
-8778 9890 9926 0
8779 -9891 9926 -8755 0
8779 -9891 49 -8755 0
8779 9891 -9926 -49 -8755 0
-8779 9891 49 0
-8779 -9891 -9926 -49 0
-8779 8755 0
-8779 9891 9926 0
8780 -9892 9926 -8755 0
8780 -9892 48 -8755 0
8780 9892 -9926 -48 -8755 0
-8780 9892 48 0
-8780 -9892 -9926 -48 0
-8780 8755 0
-8780 9892 9926 0
8781 -9893 9926 -8755 0
8781 -9893 47 -8755 0
8781 9893 -9926 -47 -8755 0
-8781 9893 47 0
-8781 -9893 -9926 -47 0
-8781 8755 0
-8781 9893 9926 0
8782 -9894 9926 -8755 0
8782 -9894 46 -8755 0
8782 9894 -9926 -46 -8755 0
-8782 9894 46 0
-8782 -9894 -9926 -46 0
-8782 8755 0
-8782 9894 9926 0
8783 -9895 9926 -8755 0
8783 -9895 45 -8755 0
8783 9895 -9926 -45 -8755 0
-8783 9895 45 0
-8783 -9895 -9926 -45 0
-8783 8755 0
-8783 9895 9926 0
8784 -9896 9926 -8755 0
8784 -9896 44 -8755 0
8784 9896 -9926 -44 -8755 0
-8784 9896 44 0
-8784 -9896 -9926 -44 0
-8784 8755 0
-8784 9896 9926 0
8785 -9897 9926 -8755 0
8785 -9897 43 -8755 0
8785 9897 -9926 -43 -8755 0
-8785 9897 43 0
-8785 -9897 -9926 -43 0
-8785 8755 0
-8785 9897 9926 0
8786 -9898 9926 -8755 0
8786 -9898 42 -8755 0
8786 9898 -9926 -42 -8755 0
-8786 9898 42 0
-8786 -9898 -9926 -42 0
-8786 8755 0
-8786 9898 9926 0
8787 -9899 9926 -8755 0
8787 -9899 41 -8755 0
8787 9899 -9926 -41 -8755 0
-8787 9899 41 0
-8787 -9899 -9926 -41 0
-8787 8755 0
-8787 9899 9926 0
8788 -9900 9926 -8755 0
8788 -9900 40 -8755 0
8788 9900 -9926 -40 -8755 0
-8788 9900 40 0
-8788 -9900 -9926 -40 0
-8788 8755 0
-8788 9900 9926 0
8789 9926 -9927 -39 0
-8789 -9926 0
-8789 9927 0
-8789 39 0
-8790 5595 8791 0
-8790 8791 8914 0
-8790 5595 8914 0
8790 -8791 -8914 0
8790 -5595 -8791 0
8790 -5595 -8914 0
-8791 8792 8794 0
-8791 8794 8913 0
-8791 8792 8913 0
8791 -8794 -8913 0
8791 -8792 -8794 0
8791 -8792 -8913 0
-8792 8663 8793 0
-8792 -8663 -8793 0
8792 -8663 8793 0
8792 8663 -8793 0
-8793 -5597 -8788 0
-8793 5597 8788 0
8793 5597 -8788 0
8793 -5597 8788 0
-8794 8795 8797 0
-8794 8797 8912 0
-8794 8795 8912 0
8794 -8797 -8912 0
8794 -8795 -8797 0
8794 -8795 -8912 0
-8795 8666 8796 0
-8795 -8666 -8796 0
8795 -8666 8796 0
8795 8666 -8796 0
-8796 -8664 -8787 0
-8796 8664 8787 0
8796 8664 -8787 0
8796 -8664 8787 0
-8797 8798 8800 0
-8797 8800 8911 0
-8797 8798 8911 0
8797 -8800 -8911 0
8797 -8798 -8800 0
8797 -8798 -8911 0
-8798 8669 8799 0
-8798 -8669 -8799 0
8798 -8669 8799 0
8798 8669 -8799 0
-8799 -8667 -8786 0
-8799 8667 8786 0
8799 8667 -8786 0
8799 -8667 8786 0
-8800 8801 8803 0
-8800 8803 8910 0
-8800 8801 8910 0
8800 -8803 -8910 0
8800 -8801 -8803 0
8800 -8801 -8910 0
-8801 8672 8802 0
-8801 -8672 -8802 0
8801 -8672 8802 0
8801 8672 -8802 0
-8802 -8670 -8785 0
-8802 8670 8785 0
8802 8670 -8785 0
8802 -8670 8785 0
-8803 8804 8806 0
-8803 8806 8909 0
-8803 8804 8909 0
8803 -8806 -8909 0
8803 -8804 -8806 0
8803 -8804 -8909 0
-8804 8675 8805 0
-8804 -8675 -8805 0
8804 -8675 8805 0
8804 8675 -8805 0
-8805 -8673 -8784 0
-8805 8673 8784 0
8805 8673 -8784 0
8805 -8673 8784 0
-8806 8807 8809 0
-8806 8809 8908 0
-8806 8807 8908 0
8806 -8809 -8908 0
8806 -8807 -8809 0
8806 -8807 -8908 0
-8807 8678 8808 0
-8807 -8678 -8808 0
8807 -8678 8808 0
8807 8678 -8808 0
-8808 -8676 -8783 0
-8808 8676 8783 0
8808 8676 -8783 0
8808 -8676 8783 0
-8809 8810 8812 0
-8809 8812 8907 0
-8809 8810 8907 0
8809 -8812 -8907 0
8809 -8810 -8812 0
8809 -8810 -8907 0
-8810 8681 8811 0
-8810 -8681 -8811 0
8810 -8681 8811 0
8810 8681 -8811 0
-8811 -8679 -8782 0
-8811 8679 8782 0
8811 8679 -8782 0
8811 -8679 8782 0
-8812 8813 8815 0
-8812 8815 8906 0
-8812 8813 8906 0
8812 -8815 -8906 0
8812 -8813 -8815 0
8812 -8813 -8906 0
-8813 8684 8814 0
-8813 -8684 -8814 0
8813 -8684 8814 0
8813 8684 -8814 0
-8814 -8682 -8781 0
-8814 8682 8781 0
8814 8682 -8781 0
8814 -8682 8781 0
-8815 8816 8818 0
-8815 8818 8905 0
-8815 8816 8905 0
8815 -8818 -8905 0
8815 -8816 -8818 0
8815 -8816 -8905 0
-8816 8687 8817 0
-8816 -8687 -8817 0
8816 -8687 8817 0
8816 8687 -8817 0
-8817 -8685 -8780 0
-8817 8685 8780 0
8817 8685 -8780 0
8817 -8685 8780 0
-8818 8819 8821 0
-8818 8821 8904 0
-8818 8819 8904 0
8818 -8821 -8904 0
8818 -8819 -8821 0
8818 -8819 -8904 0
-8819 8690 8820 0
-8819 -8690 -8820 0
8819 -8690 8820 0
8819 8690 -8820 0
-8820 -8688 -8779 0
-8820 8688 8779 0
8820 8688 -8779 0
8820 -8688 8779 0
-8821 8822 8824 0
-8821 8824 8903 0
-8821 8822 8903 0
8821 -8824 -8903 0
8821 -8822 -8824 0
8821 -8822 -8903 0
-8822 8693 8823 0
-8822 -8693 -8823 0
8822 -8693 8823 0
8822 8693 -8823 0
-8823 -8691 -8778 0
-8823 8691 8778 0
8823 8691 -8778 0
8823 -8691 8778 0
-8824 8825 8827 0
-8824 8827 8902 0
-8824 8825 8902 0
8824 -8827 -8902 0
8824 -8825 -8827 0
8824 -8825 -8902 0
-8825 8696 8826 0
-8825 -8696 -8826 0
8825 -8696 8826 0
8825 8696 -8826 0
-8826 -8694 -8777 0
-8826 8694 8777 0
8826 8694 -8777 0
8826 -8694 8777 0
-8827 8828 8830 0
-8827 8830 8901 0
-8827 8828 8901 0
8827 -8830 -8901 0
8827 -8828 -8830 0
8827 -8828 -8901 0
-8828 8699 8829 0
-8828 -8699 -8829 0
8828 -8699 8829 0
8828 8699 -8829 0
-8829 -8697 -8776 0
-8829 8697 8776 0
8829 8697 -8776 0
8829 -8697 8776 0
-8830 8831 8833 0
-8830 8833 8900 0
-8830 8831 8900 0
8830 -8833 -8900 0
8830 -8831 -8833 0
8830 -8831 -8900 0
-8831 8702 8832 0
-8831 -8702 -8832 0
8831 -8702 8832 0
8831 8702 -8832 0
-8832 -8700 -8775 0
-8832 8700 8775 0
8832 8700 -8775 0
8832 -8700 8775 0
-8833 8834 8836 0
-8833 8836 8899 0
-8833 8834 8899 0
8833 -8836 -8899 0
8833 -8834 -8836 0
8833 -8834 -8899 0
-8834 8705 8835 0
-8834 -8705 -8835 0
8834 -8705 8835 0
8834 8705 -8835 0
-8835 -8703 -8774 0
-8835 8703 8774 0
8835 8703 -8774 0
8835 -8703 8774 0
-8836 8837 8839 0
-8836 8839 8898 0
-8836 8837 8898 0
8836 -8839 -8898 0
8836 -8837 -8839 0
8836 -8837 -8898 0
-8837 8708 8838 0
-8837 -8708 -8838 0
8837 -8708 8838 0
8837 8708 -8838 0
-8838 -8706 -8773 0
-8838 8706 8773 0
8838 8706 -8773 0
8838 -8706 8773 0
-8839 8840 8842 0
-8839 8842 8897 0
-8839 8840 8897 0
8839 -8842 -8897 0
8839 -8840 -8842 0
8839 -8840 -8897 0
-8840 8711 8841 0
-8840 -8711 -8841 0
8840 -8711 8841 0
8840 8711 -8841 0
-8841 -8709 -8772 0
-8841 8709 8772 0
8841 8709 -8772 0
8841 -8709 8772 0
-8842 8843 8845 0
-8842 8845 8896 0
-8842 8843 8896 0
8842 -8845 -8896 0
8842 -8843 -8845 0
8842 -8843 -8896 0
-8843 8714 8844 0
-8843 -8714 -8844 0
8843 -8714 8844 0
8843 8714 -8844 0
-8844 -8712 -8771 0
-8844 8712 8771 0
8844 8712 -8771 0
8844 -8712 8771 0
-8845 8846 8848 0
-8845 8848 8895 0
-8845 8846 8895 0
8845 -8848 -8895 0
8845 -8846 -8848 0
8845 -8846 -8895 0
-8846 8717 8847 0
-8846 -8717 -8847 0
8846 -8717 8847 0
8846 8717 -8847 0
-8847 -8715 -8770 0
-8847 8715 8770 0
8847 8715 -8770 0
8847 -8715 8770 0
-8848 8849 8851 0
-8848 8851 8894 0
-8848 8849 8894 0
8848 -8851 -8894 0
8848 -8849 -8851 0
8848 -8849 -8894 0
-8849 8720 8850 0
-8849 -8720 -8850 0
8849 -8720 8850 0
8849 8720 -8850 0
-8850 -8718 -8769 0
-8850 8718 8769 0
8850 8718 -8769 0
8850 -8718 8769 0
-8851 8852 8854 0
-8851 8854 8893 0
-8851 8852 8893 0
8851 -8854 -8893 0
8851 -8852 -8854 0
8851 -8852 -8893 0
-8852 8723 8853 0
-8852 -8723 -8853 0
8852 -8723 8853 0
8852 8723 -8853 0
-8853 -8721 -8768 0
-8853 8721 8768 0
8853 8721 -8768 0
8853 -8721 8768 0
-8854 8855 8857 0
-8854 8857 8892 0
-8854 8855 8892 0
8854 -8857 -8892 0
8854 -8855 -8857 0
8854 -8855 -8892 0
-8855 8726 8856 0
-8855 -8726 -8856 0
8855 -8726 8856 0
8855 8726 -8856 0
-8856 -8724 -8767 0
-8856 8724 8767 0
8856 8724 -8767 0
8856 -8724 8767 0
-8857 8858 8860 0
-8857 8860 8891 0
-8857 8858 8891 0
8857 -8860 -8891 0
8857 -8858 -8860 0
8857 -8858 -8891 0
-8858 8729 8859 0
-8858 -8729 -8859 0
8858 -8729 8859 0
8858 8729 -8859 0
-8859 -8727 -8766 0
-8859 8727 8766 0
8859 8727 -8766 0
8859 -8727 8766 0
-8860 8861 8863 0
-8860 8863 8890 0
-8860 8861 8890 0
8860 -8863 -8890 0
8860 -8861 -8863 0
8860 -8861 -8890 0
-8861 8732 8862 0
-8861 -8732 -8862 0
8861 -8732 8862 0
8861 8732 -8862 0
-8862 -8730 -8765 0
-8862 8730 8765 0
8862 8730 -8765 0
8862 -8730 8765 0
-8863 8864 8866 0
-8863 8866 8889 0
-8863 8864 8889 0
8863 -8866 -8889 0
8863 -8864 -8866 0
8863 -8864 -8889 0
-8864 8735 8865 0
-8864 -8735 -8865 0
8864 -8735 8865 0
8864 8735 -8865 0
-8865 -8733 -8764 0
-8865 8733 8764 0
8865 8733 -8764 0
8865 -8733 8764 0
-8866 8867 8869 0
-8866 8869 8888 0
-8866 8867 8888 0
8866 -8869 -8888 0
8866 -8867 -8869 0
8866 -8867 -8888 0
-8867 8738 8868 0
-8867 -8738 -8868 0
8867 -8738 8868 0
8867 8738 -8868 0
-8868 -8736 -8763 0
-8868 8736 8763 0
8868 8736 -8763 0
8868 -8736 8763 0
-8869 8870 8872 0
-8869 8872 8887 0
-8869 8870 8887 0
8869 -8872 -8887 0
8869 -8870 -8872 0
8869 -8870 -8887 0
-8870 8741 8871 0
-8870 -8741 -8871 0
8870 -8741 8871 0
8870 8741 -8871 0
-8871 -8739 -8762 0
-8871 8739 8762 0
8871 8739 -8762 0
8871 -8739 8762 0
-8872 8873 8875 0
-8872 8875 8886 0
-8872 8873 8886 0
8872 -8875 -8886 0
8872 -8873 -8875 0
8872 -8873 -8886 0
-8873 8744 8874 0
-8873 -8744 -8874 0
8873 -8744 8874 0
8873 8744 -8874 0
-8874 -8742 -8761 0
-8874 8742 8761 0
8874 8742 -8761 0
8874 -8742 8761 0
-8875 8876 8878 0
-8875 8878 8885 0
-8875 8876 8885 0
8875 -8878 -8885 0
8875 -8876 -8878 0
8875 -8876 -8885 0
-8876 8747 8877 0
-8876 -8747 -8877 0
8876 -8747 8877 0
8876 8747 -8877 0
-8877 -8745 -8760 0
-8877 8745 8760 0
8877 8745 -8760 0
8877 -8745 8760 0
-8878 8881 8884 0
-8878 8879 8881 0
-8878 8879 8884 0
8878 -8879 -8881 0
8878 -8881 -8884 0
8878 -8879 -8884 0
-8879 8750 8880 0
-8879 -8750 -8880 0
8879 -8750 8880 0
8879 8750 -8880 0
-8880 -8748 -8759 0
-8880 8748 8759 0
8880 8748 -8759 0
8880 -8748 8759 0
8881 -4489 -8882 0
-8881 4489 0
-8881 8882 0
-8882 8753 8883 0
-8882 -8753 -8883 0
8882 -8753 8883 0
8882 8753 -8883 0
-8883 -8751 -8758 0
-8883 8751 8758 0
8883 8751 -8758 0
8883 -8751 8758 0
8884 9869 -9870 -4490 0
8884 -9870 9927 -4490 0
8884 -9869 9870 -9927 -4490 0
-8884 9870 9927 0
-8884 9869 9870 0
-8884 4490 0
-8884 -9869 -9870 -9927 0
8885 -9871 9927 -4490 0
8885 -9871 69 -4490 0
8885 9871 -9927 -69 -4490 0
-8885 9871 69 0
-8885 -9871 -9927 -69 0
-8885 4490 0
-8885 9871 9927 0
8886 -9872 9927 -4490 0
8886 -9872 68 -4490 0
8886 9872 -9927 -68 -4490 0
-8886 9872 68 0
-8886 -9872 -9927 -68 0
-8886 4490 0
-8886 9872 9927 0
8887 -9873 9927 -4490 0
8887 -9873 67 -4490 0
8887 9873 -9927 -67 -4490 0
-8887 9873 67 0
-8887 -9873 -9927 -67 0
-8887 4490 0
-8887 9873 9927 0
8888 -9874 9927 -4490 0
8888 -9874 66 -4490 0
8888 9874 -9927 -66 -4490 0
-8888 9874 66 0
-8888 -9874 -9927 -66 0
-8888 4490 0
-8888 9874 9927 0
8889 -9875 9927 -4490 0
8889 -9875 65 -4490 0
8889 9875 -9927 -65 -4490 0
-8889 9875 65 0
-8889 -9875 -9927 -65 0
-8889 4490 0
-8889 9875 9927 0
8890 -9876 9927 -4490 0
8890 -9876 64 -4490 0
8890 9876 -9927 -64 -4490 0
-8890 9876 64 0
-8890 -9876 -9927 -64 0
-8890 4490 0
-8890 9876 9927 0
8891 -9877 9927 -4490 0
8891 -9877 63 -4490 0
8891 9877 -9927 -63 -4490 0
-8891 9877 63 0
-8891 -9877 -9927 -63 0
-8891 4490 0
-8891 9877 9927 0
8892 -9878 9927 -4490 0
8892 -9878 62 -4490 0
8892 9878 -9927 -62 -4490 0
-8892 9878 62 0
-8892 -9878 -9927 -62 0
-8892 4490 0
-8892 9878 9927 0
8893 -9879 9927 -4490 0
8893 -9879 61 -4490 0
8893 9879 -9927 -61 -4490 0
-8893 9879 61 0
-8893 -9879 -9927 -61 0
-8893 4490 0
-8893 9879 9927 0
8894 -9880 9927 -4490 0
8894 -9880 60 -4490 0
8894 9880 -9927 -60 -4490 0
-8894 9880 60 0
-8894 -9880 -9927 -60 0
-8894 4490 0
-8894 9880 9927 0
8895 -9881 9927 -4490 0
8895 -9881 59 -4490 0
8895 9881 -9927 -59 -4490 0
-8895 9881 59 0
-8895 -9881 -9927 -59 0
-8895 4490 0
-8895 9881 9927 0
8896 -9882 9927 -4490 0
8896 -9882 58 -4490 0
8896 9882 -9927 -58 -4490 0
-8896 9882 58 0
-8896 -9882 -9927 -58 0
-8896 4490 0
-8896 9882 9927 0
8897 -9883 9927 -4490 0
8897 -9883 57 -4490 0
8897 9883 -9927 -57 -4490 0
-8897 9883 57 0
-8897 -9883 -9927 -57 0
-8897 4490 0
-8897 9883 9927 0
8898 -9884 9927 -4490 0
8898 -9884 56 -4490 0
8898 9884 -9927 -56 -4490 0
-8898 9884 56 0
-8898 -9884 -9927 -56 0
-8898 4490 0
-8898 9884 9927 0
8899 -9885 9927 -4490 0
8899 -9885 55 -4490 0
8899 9885 -9927 -55 -4490 0
-8899 9885 55 0
-8899 -9885 -9927 -55 0
-8899 4490 0
-8899 9885 9927 0
8900 -9886 9927 -4490 0
8900 -9886 54 -4490 0
8900 9886 -9927 -54 -4490 0
-8900 9886 54 0
-8900 -9886 -9927 -54 0
-8900 4490 0
-8900 9886 9927 0
8901 -9887 9927 -4490 0
8901 -9887 53 -4490 0
8901 9887 -9927 -53 -4490 0
-8901 9887 53 0
-8901 -9887 -9927 -53 0
-8901 4490 0
-8901 9887 9927 0
8902 -9888 9927 -4490 0
8902 -9888 52 -4490 0
8902 9888 -9927 -52 -4490 0
-8902 9888 52 0
-8902 -9888 -9927 -52 0
-8902 4490 0
-8902 9888 9927 0
8903 -9889 9927 -4490 0
8903 -9889 51 -4490 0
8903 9889 -9927 -51 -4490 0
-8903 9889 51 0
-8903 -9889 -9927 -51 0
-8903 4490 0
-8903 9889 9927 0
8904 -9890 9927 -4490 0
8904 -9890 50 -4490 0
8904 9890 -9927 -50 -4490 0
-8904 9890 50 0
-8904 -9890 -9927 -50 0
-8904 4490 0
-8904 9890 9927 0
8905 -9891 9927 -4490 0
8905 -9891 49 -4490 0
8905 9891 -9927 -49 -4490 0
-8905 9891 49 0
-8905 -9891 -9927 -49 0
-8905 4490 0
-8905 9891 9927 0
8906 -9892 9927 -4490 0
8906 -9892 48 -4490 0
8906 9892 -9927 -48 -4490 0
-8906 9892 48 0
-8906 -9892 -9927 -48 0
-8906 4490 0
-8906 9892 9927 0
8907 -9893 9927 -4490 0
8907 -9893 47 -4490 0
8907 9893 -9927 -47 -4490 0
-8907 9893 47 0
-8907 -9893 -9927 -47 0
-8907 4490 0
-8907 9893 9927 0
8908 -9894 9927 -4490 0
8908 -9894 46 -4490 0
8908 9894 -9927 -46 -4490 0
-8908 9894 46 0
-8908 -9894 -9927 -46 0
-8908 4490 0
-8908 9894 9927 0
8909 -9895 9927 -4490 0
8909 -9895 45 -4490 0
8909 9895 -9927 -45 -4490 0
-8909 9895 45 0
-8909 -9895 -9927 -45 0
-8909 4490 0
-8909 9895 9927 0
8910 -9896 9927 -4490 0
8910 -9896 44 -4490 0
8910 9896 -9927 -44 -4490 0
-8910 9896 44 0
-8910 -9896 -9927 -44 0
-8910 4490 0
-8910 9896 9927 0
8911 -9897 9927 -4490 0
8911 -9897 43 -4490 0
8911 9897 -9927 -43 -4490 0
-8911 9897 43 0
-8911 -9897 -9927 -43 0
-8911 4490 0
-8911 9897 9927 0
8912 -9898 9927 -4490 0
8912 -9898 42 -4490 0
8912 9898 -9927 -42 -4490 0
-8912 9898 42 0
-8912 -9898 -9927 -42 0
-8912 4490 0
-8912 9898 9927 0
8913 -9899 9927 -4490 0
8913 -9899 41 -4490 0
8913 9899 -9927 -41 -4490 0
-8913 9899 41 0
-8913 -9899 -9927 -41 0
-8913 4490 0
-8913 9899 9927 0
8914 -9900 9927 -4490 0
8914 -9900 40 -4490 0
8914 9900 -9927 -40 -4490 0
-8914 9900 40 0
-8914 -9900 -9927 -40 0
-8914 4490 0
-8914 9900 9927 0
8915 9927 -9928 -39 0
-8915 -9927 0
-8915 9928 0
-8915 39 0
-8916 5593 8917 0
-8916 8917 9042 0
-8916 5593 9042 0
8916 -8917 -9042 0
8916 -5593 -8917 0
8916 -5593 -9042 0
-8917 8918 8920 0
-8917 8920 9041 0
-8917 8918 9041 0
8917 -8920 -9041 0
8917 -8918 -8920 0
8917 -8918 -9041 0
-8918 8791 8919 0
-8918 -8791 -8919 0
8918 -8791 8919 0
8918 8791 -8919 0
-8919 -5595 -8914 0
-8919 5595 8914 0
8919 5595 -8914 0
8919 -5595 8914 0
-8920 8921 8923 0
-8920 8923 9040 0
-8920 8921 9040 0
8920 -8923 -9040 0
8920 -8921 -8923 0
8920 -8921 -9040 0
-8921 8794 8922 0
-8921 -8794 -8922 0
8921 -8794 8922 0
8921 8794 -8922 0
-8922 -8792 -8913 0
-8922 8792 8913 0
8922 8792 -8913 0
8922 -8792 8913 0
-8923 8924 8926 0
-8923 8926 9039 0
-8923 8924 9039 0
8923 -8926 -9039 0
8923 -8924 -8926 0
8923 -8924 -9039 0
-8924 8797 8925 0
-8924 -8797 -8925 0
8924 -8797 8925 0
8924 8797 -8925 0
-8925 -8795 -8912 0
-8925 8795 8912 0
8925 8795 -8912 0
8925 -8795 8912 0
-8926 8927 8929 0
-8926 8929 9038 0
-8926 8927 9038 0
8926 -8929 -9038 0
8926 -8927 -8929 0
8926 -8927 -9038 0
-8927 8800 8928 0
-8927 -8800 -8928 0
8927 -8800 8928 0
8927 8800 -8928 0
-8928 -8798 -8911 0
-8928 8798 8911 0
8928 8798 -8911 0
8928 -8798 8911 0
-8929 8930 8932 0
-8929 8932 9037 0
-8929 8930 9037 0
8929 -8932 -9037 0
8929 -8930 -8932 0
8929 -8930 -9037 0
-8930 8803 8931 0
-8930 -8803 -8931 0
8930 -8803 8931 0
8930 8803 -8931 0
-8931 -8801 -8910 0
-8931 8801 8910 0
8931 8801 -8910 0
8931 -8801 8910 0
-8932 8933 8935 0
-8932 8935 9036 0
-8932 8933 9036 0
8932 -8935 -9036 0
8932 -8933 -8935 0
8932 -8933 -9036 0
-8933 8806 8934 0
-8933 -8806 -8934 0
8933 -8806 8934 0
8933 8806 -8934 0
-8934 -8804 -8909 0
-8934 8804 8909 0
8934 8804 -8909 0
8934 -8804 8909 0
-8935 8936 8938 0
-8935 8938 9035 0
-8935 8936 9035 0
8935 -8938 -9035 0
8935 -8936 -8938 0
8935 -8936 -9035 0
-8936 8809 8937 0
-8936 -8809 -8937 0
8936 -8809 8937 0
8936 8809 -8937 0
-8937 -8807 -8908 0
-8937 8807 8908 0
8937 8807 -8908 0
8937 -8807 8908 0
-8938 8939 8941 0
-8938 8941 9034 0
-8938 8939 9034 0
8938 -8941 -9034 0
8938 -8939 -8941 0
8938 -8939 -9034 0
-8939 8812 8940 0
-8939 -8812 -8940 0
8939 -8812 8940 0
8939 8812 -8940 0
-8940 -8810 -8907 0
-8940 8810 8907 0
8940 8810 -8907 0
8940 -8810 8907 0
-8941 8942 8944 0
-8941 8944 9033 0
-8941 8942 9033 0
8941 -8944 -9033 0
8941 -8942 -8944 0
8941 -8942 -9033 0
-8942 8815 8943 0
-8942 -8815 -8943 0
8942 -8815 8943 0
8942 8815 -8943 0
-8943 -8813 -8906 0
-8943 8813 8906 0
8943 8813 -8906 0
8943 -8813 8906 0
-8944 8945 8947 0
-8944 8947 9032 0
-8944 8945 9032 0
8944 -8947 -9032 0
8944 -8945 -8947 0
8944 -8945 -9032 0
-8945 8818 8946 0
-8945 -8818 -8946 0
8945 -8818 8946 0
8945 8818 -8946 0
-8946 -8816 -8905 0
-8946 8816 8905 0
8946 8816 -8905 0
8946 -8816 8905 0
-8947 8948 8950 0
-8947 8950 9031 0
-8947 8948 9031 0
8947 -8950 -9031 0
8947 -8948 -8950 0
8947 -8948 -9031 0
-8948 8821 8949 0
-8948 -8821 -8949 0
8948 -8821 8949 0
8948 8821 -8949 0
-8949 -8819 -8904 0
-8949 8819 8904 0
8949 8819 -8904 0
8949 -8819 8904 0
-8950 8951 8953 0
-8950 8953 9030 0
-8950 8951 9030 0
8950 -8953 -9030 0
8950 -8951 -8953 0
8950 -8951 -9030 0
-8951 8824 8952 0
-8951 -8824 -8952 0
8951 -8824 8952 0
8951 8824 -8952 0
-8952 -8822 -8903 0
-8952 8822 8903 0
8952 8822 -8903 0
8952 -8822 8903 0
-8953 8954 8956 0
-8953 8956 9029 0
-8953 8954 9029 0
8953 -8956 -9029 0
8953 -8954 -8956 0
8953 -8954 -9029 0
-8954 8827 8955 0
-8954 -8827 -8955 0
8954 -8827 8955 0
8954 8827 -8955 0
-8955 -8825 -8902 0
-8955 8825 8902 0
8955 8825 -8902 0
8955 -8825 8902 0
-8956 8957 8959 0
-8956 8959 9028 0
-8956 8957 9028 0
8956 -8959 -9028 0
8956 -8957 -8959 0
8956 -8957 -9028 0
-8957 8830 8958 0
-8957 -8830 -8958 0
8957 -8830 8958 0
8957 8830 -8958 0
-8958 -8828 -8901 0
-8958 8828 8901 0
8958 8828 -8901 0
8958 -8828 8901 0
-8959 8960 8962 0
-8959 8962 9027 0
-8959 8960 9027 0
8959 -8962 -9027 0
8959 -8960 -8962 0
8959 -8960 -9027 0
-8960 8833 8961 0
-8960 -8833 -8961 0
8960 -8833 8961 0
8960 8833 -8961 0
-8961 -8831 -8900 0
-8961 8831 8900 0
8961 8831 -8900 0
8961 -8831 8900 0
-8962 8963 8965 0
-8962 8965 9026 0
-8962 8963 9026 0
8962 -8965 -9026 0
8962 -8963 -8965 0
8962 -8963 -9026 0
-8963 8836 8964 0
-8963 -8836 -8964 0
8963 -8836 8964 0
8963 8836 -8964 0
-8964 -8834 -8899 0
-8964 8834 8899 0
8964 8834 -8899 0
8964 -8834 8899 0
-8965 8966 8968 0
-8965 8968 9025 0
-8965 8966 9025 0
8965 -8968 -9025 0
8965 -8966 -8968 0
8965 -8966 -9025 0
-8966 8839 8967 0
-8966 -8839 -8967 0
8966 -8839 8967 0
8966 8839 -8967 0
-8967 -8837 -8898 0
-8967 8837 8898 0
8967 8837 -8898 0
8967 -8837 8898 0
-8968 8969 8971 0
-8968 8971 9024 0
-8968 8969 9024 0
8968 -8971 -9024 0
8968 -8969 -8971 0
8968 -8969 -9024 0
-8969 8842 8970 0
-8969 -8842 -8970 0
8969 -8842 8970 0
8969 8842 -8970 0
-8970 -8840 -8897 0
-8970 8840 8897 0
8970 8840 -8897 0
8970 -8840 8897 0
-8971 8972 8974 0
-8971 8974 9023 0
-8971 8972 9023 0
8971 -8974 -9023 0
8971 -8972 -8974 0
8971 -8972 -9023 0
-8972 8845 8973 0
-8972 -8845 -8973 0
8972 -8845 8973 0
8972 8845 -8973 0
-8973 -8843 -8896 0
-8973 8843 8896 0
8973 8843 -8896 0
8973 -8843 8896 0
-8974 8975 8977 0
-8974 8977 9022 0
-8974 8975 9022 0
8974 -8977 -9022 0
8974 -8975 -8977 0
8974 -8975 -9022 0
-8975 8848 8976 0
-8975 -8848 -8976 0
8975 -8848 8976 0
8975 8848 -8976 0
-8976 -8846 -8895 0
-8976 8846 8895 0
8976 8846 -8895 0
8976 -8846 8895 0
-8977 8978 8980 0
-8977 8980 9021 0
-8977 8978 9021 0
8977 -8980 -9021 0
8977 -8978 -8980 0
8977 -8978 -9021 0
-8978 8851 8979 0
-8978 -8851 -8979 0
8978 -8851 8979 0
8978 8851 -8979 0
-8979 -8849 -8894 0
-8979 8849 8894 0
8979 8849 -8894 0
8979 -8849 8894 0
-8980 8981 8983 0
-8980 8983 9020 0
-8980 8981 9020 0
8980 -8983 -9020 0
8980 -8981 -8983 0
8980 -8981 -9020 0
-8981 8854 8982 0
-8981 -8854 -8982 0
8981 -8854 8982 0
8981 8854 -8982 0
-8982 -8852 -8893 0
-8982 8852 8893 0
8982 8852 -8893 0
8982 -8852 8893 0
-8983 8984 8986 0
-8983 8986 9019 0
-8983 8984 9019 0
8983 -8986 -9019 0
8983 -8984 -8986 0
8983 -8984 -9019 0
-8984 8857 8985 0
-8984 -8857 -8985 0
8984 -8857 8985 0
8984 8857 -8985 0
-8985 -8855 -8892 0
-8985 8855 8892 0
8985 8855 -8892 0
8985 -8855 8892 0
-8986 8987 8989 0
-8986 8989 9018 0
-8986 8987 9018 0
8986 -8989 -9018 0
8986 -8987 -8989 0
8986 -8987 -9018 0
-8987 8860 8988 0
-8987 -8860 -8988 0
8987 -8860 8988 0
8987 8860 -8988 0
-8988 -8858 -8891 0
-8988 8858 8891 0
8988 8858 -8891 0
8988 -8858 8891 0
-8989 8990 8992 0
-8989 8992 9017 0
-8989 8990 9017 0
8989 -8992 -9017 0
8989 -8990 -8992 0
8989 -8990 -9017 0
-8990 8863 8991 0
-8990 -8863 -8991 0
8990 -8863 8991 0
8990 8863 -8991 0
-8991 -8861 -8890 0
-8991 8861 8890 0
8991 8861 -8890 0
8991 -8861 8890 0
-8992 8993 8995 0
-8992 8995 9016 0
-8992 8993 9016 0
8992 -8995 -9016 0
8992 -8993 -8995 0
8992 -8993 -9016 0
-8993 8866 8994 0
-8993 -8866 -8994 0
8993 -8866 8994 0
8993 8866 -8994 0
-8994 -8864 -8889 0
-8994 8864 8889 0
8994 8864 -8889 0
8994 -8864 8889 0
-8995 8996 8998 0
-8995 8998 9015 0
-8995 8996 9015 0
8995 -8998 -9015 0
8995 -8996 -8998 0
8995 -8996 -9015 0
-8996 8869 8997 0
-8996 -8869 -8997 0
8996 -8869 8997 0
8996 8869 -8997 0
-8997 -8867 -8888 0
-8997 8867 8888 0
8997 8867 -8888 0
8997 -8867 8888 0
-8998 8999 9001 0
-8998 9001 9014 0
-8998 8999 9014 0
8998 -9001 -9014 0
8998 -8999 -9001 0
8998 -8999 -9014 0
-8999 8872 9000 0
-8999 -8872 -9000 0
8999 -8872 9000 0
8999 8872 -9000 0
-9000 -8870 -8887 0
-9000 8870 8887 0
9000 8870 -8887 0
9000 -8870 8887 0
-9001 9002 9004 0
-9001 9004 9013 0
-9001 9002 9013 0
9001 -9004 -9013 0
9001 -9002 -9004 0
9001 -9002 -9013 0
-9002 8875 9003 0
-9002 -8875 -9003 0
9002 -8875 9003 0
9002 8875 -9003 0
-9003 -8873 -8886 0
-9003 8873 8886 0
9003 8873 -8886 0
9003 -8873 8886 0
-9004 9007 9012 0
-9004 9005 9007 0
-9004 9005 9012 0
9004 -9005 -9007 0
9004 -9007 -9012 0
9004 -9005 -9012 0
-9005 8878 9006 0
-9005 -8878 -9006 0
9005 -8878 9006 0
9005 8878 -9006 0
-9006 -8876 -8885 0
-9006 8876 8885 0
9006 8876 -8885 0
9006 -8876 8885 0
9007 -9008 -9010 0
-9007 9008 0
-9007 9010 0
9008 -9869 -9009 0
-9008 9869 0
-9008 9009 0
-9009 -9927 -9928 0
-9009 9927 9928 0
9009 9927 -9928 0
9009 -9927 9928 0
-9010 8881 9011 0
-9010 -8881 -9011 0
9010 -8881 9011 0
9010 8881 -9011 0
-9011 -8879 -8884 0
-9011 8879 8884 0
9011 8879 -8884 0
9011 -8879 8884 0
9012 9869 -9870 -9009 0
9012 -9870 9928 -9009 0
9012 -9869 9870 -9928 -9009 0
-9012 9870 9928 0
-9012 9869 9870 0
-9012 9009 0
-9012 -9869 -9870 -9928 0
9013 -9871 9928 -9009 0
9013 -9871 69 -9009 0
9013 9871 -9928 -69 -9009 0
-9013 9871 69 0
-9013 -9871 -9928 -69 0
-9013 9009 0
-9013 9871 9928 0
9014 -9872 9928 -9009 0
9014 -9872 68 -9009 0
9014 9872 -9928 -68 -9009 0
-9014 9872 68 0
-9014 -9872 -9928 -68 0
-9014 9009 0
-9014 9872 9928 0
9015 -9873 9928 -9009 0
9015 -9873 67 -9009 0
9015 9873 -9928 -67 -9009 0
-9015 9873 67 0
-9015 -9873 -9928 -67 0
-9015 9009 0
-9015 9873 9928 0
9016 -9874 9928 -9009 0
9016 -9874 66 -9009 0
9016 9874 -9928 -66 -9009 0
-9016 9874 66 0
-9016 -9874 -9928 -66 0
-9016 9009 0
-9016 9874 9928 0
9017 -9875 9928 -9009 0
9017 -9875 65 -9009 0
9017 9875 -9928 -65 -9009 0
-9017 9875 65 0
-9017 -9875 -9928 -65 0
-9017 9009 0
-9017 9875 9928 0
9018 -9876 9928 -9009 0
9018 -9876 64 -9009 0
9018 9876 -9928 -64 -9009 0
-9018 9876 64 0
-9018 -9876 -9928 -64 0
-9018 9009 0
-9018 9876 9928 0
9019 -9877 9928 -9009 0
9019 -9877 63 -9009 0
9019 9877 -9928 -63 -9009 0
-9019 9877 63 0
-9019 -9877 -9928 -63 0
-9019 9009 0
-9019 9877 9928 0
9020 -9878 9928 -9009 0
9020 -9878 62 -9009 0
9020 9878 -9928 -62 -9009 0
-9020 9878 62 0
-9020 -9878 -9928 -62 0
-9020 9009 0
-9020 9878 9928 0
9021 -9879 9928 -9009 0
9021 -9879 61 -9009 0
9021 9879 -9928 -61 -9009 0
-9021 9879 61 0
-9021 -9879 -9928 -61 0
-9021 9009 0
-9021 9879 9928 0
9022 -9880 9928 -9009 0
9022 -9880 60 -9009 0
9022 9880 -9928 -60 -9009 0
-9022 9880 60 0
-9022 -9880 -9928 -60 0
-9022 9009 0
-9022 9880 9928 0
9023 -9881 9928 -9009 0
9023 -9881 59 -9009 0
9023 9881 -9928 -59 -9009 0
-9023 9881 59 0
-9023 -9881 -9928 -59 0
-9023 9009 0
-9023 9881 9928 0
9024 -9882 9928 -9009 0
9024 -9882 58 -9009 0
9024 9882 -9928 -58 -9009 0
-9024 9882 58 0
-9024 -9882 -9928 -58 0
-9024 9009 0
-9024 9882 9928 0
9025 -9883 9928 -9009 0
9025 -9883 57 -9009 0
9025 9883 -9928 -57 -9009 0
-9025 9883 57 0
-9025 -9883 -9928 -57 0
-9025 9009 0
-9025 9883 9928 0
9026 -9884 9928 -9009 0
9026 -9884 56 -9009 0
9026 9884 -9928 -56 -9009 0
-9026 9884 56 0
-9026 -9884 -9928 -56 0
-9026 9009 0
-9026 9884 9928 0
9027 -9885 9928 -9009 0
9027 -9885 55 -9009 0
9027 9885 -9928 -55 -9009 0
-9027 9885 55 0
-9027 -9885 -9928 -55 0
-9027 9009 0
-9027 9885 9928 0
9028 -9886 9928 -9009 0
9028 -9886 54 -9009 0
9028 9886 -9928 -54 -9009 0
-9028 9886 54 0
-9028 -9886 -9928 -54 0
-9028 9009 0
-9028 9886 9928 0
9029 -9887 9928 -9009 0
9029 -9887 53 -9009 0
9029 9887 -9928 -53 -9009 0
-9029 9887 53 0
-9029 -9887 -9928 -53 0
-9029 9009 0
-9029 9887 9928 0
9030 -9888 9928 -9009 0
9030 -9888 52 -9009 0
9030 9888 -9928 -52 -9009 0
-9030 9888 52 0
-9030 -9888 -9928 -52 0
-9030 9009 0
-9030 9888 9928 0
9031 -9889 9928 -9009 0
9031 -9889 51 -9009 0
9031 9889 -9928 -51 -9009 0
-9031 9889 51 0
-9031 -9889 -9928 -51 0
-9031 9009 0
-9031 9889 9928 0
9032 -9890 9928 -9009 0
9032 -9890 50 -9009 0
9032 9890 -9928 -50 -9009 0
-9032 9890 50 0
-9032 -9890 -9928 -50 0
-9032 9009 0
-9032 9890 9928 0
9033 -9891 9928 -9009 0
9033 -9891 49 -9009 0
9033 9891 -9928 -49 -9009 0
-9033 9891 49 0
-9033 -9891 -9928 -49 0
-9033 9009 0
-9033 9891 9928 0
9034 -9892 9928 -9009 0
9034 -9892 48 -9009 0
9034 9892 -9928 -48 -9009 0
-9034 9892 48 0
-9034 -9892 -9928 -48 0
-9034 9009 0
-9034 9892 9928 0
9035 -9893 9928 -9009 0
9035 -9893 47 -9009 0
9035 9893 -9928 -47 -9009 0
-9035 9893 47 0
-9035 -9893 -9928 -47 0
-9035 9009 0
-9035 9893 9928 0
9036 -9894 9928 -9009 0
9036 -9894 46 -9009 0
9036 9894 -9928 -46 -9009 0
-9036 9894 46 0
-9036 -9894 -9928 -46 0
-9036 9009 0
-9036 9894 9928 0
9037 -9895 9928 -9009 0
9037 -9895 45 -9009 0
9037 9895 -9928 -45 -9009 0
-9037 9895 45 0
-9037 -9895 -9928 -45 0
-9037 9009 0
-9037 9895 9928 0
9038 -9896 9928 -9009 0
9038 -9896 44 -9009 0
9038 9896 -9928 -44 -9009 0
-9038 9896 44 0
-9038 -9896 -9928 -44 0
-9038 9009 0
-9038 9896 9928 0
9039 -9897 9928 -9009 0
9039 -9897 43 -9009 0
9039 9897 -9928 -43 -9009 0
-9039 9897 43 0
-9039 -9897 -9928 -43 0
-9039 9009 0
-9039 9897 9928 0
9040 -9898 9928 -9009 0
9040 -9898 42 -9009 0
9040 9898 -9928 -42 -9009 0
-9040 9898 42 0
-9040 -9898 -9928 -42 0
-9040 9009 0
-9040 9898 9928 0
9041 -9899 9928 -9009 0
9041 -9899 41 -9009 0
9041 9899 -9928 -41 -9009 0
-9041 9899 41 0
-9041 -9899 -9928 -41 0
-9041 9009 0
-9041 9899 9928 0
9042 -9900 9928 -9009 0
9042 -9900 40 -9009 0
9042 9900 -9928 -40 -9009 0
-9042 9900 40 0
-9042 -9900 -9928 -40 0
-9042 9009 0
-9042 9900 9928 0
9043 9928 -9929 -39 0
-9043 -9928 0
-9043 9929 0
-9043 39 0
-9044 5591 9045 0
-9044 9045 9168 0
-9044 5591 9168 0
9044 -9045 -9168 0
9044 -5591 -9045 0
9044 -5591 -9168 0
-9045 9046 9048 0
-9045 9048 9167 0
-9045 9046 9167 0
9045 -9048 -9167 0
9045 -9046 -9048 0
9045 -9046 -9167 0
-9046 8917 9047 0
-9046 -8917 -9047 0
9046 -8917 9047 0
9046 8917 -9047 0
-9047 -5593 -9042 0
-9047 5593 9042 0
9047 5593 -9042 0
9047 -5593 9042 0
-9048 9049 9051 0
-9048 9051 9166 0
-9048 9049 9166 0
9048 -9051 -9166 0
9048 -9049 -9051 0
9048 -9049 -9166 0
-9049 8920 9050 0
-9049 -8920 -9050 0
9049 -8920 9050 0
9049 8920 -9050 0
-9050 -8918 -9041 0
-9050 8918 9041 0
9050 8918 -9041 0
9050 -8918 9041 0
-9051 9052 9054 0
-9051 9054 9165 0
-9051 9052 9165 0
9051 -9054 -9165 0
9051 -9052 -9054 0
9051 -9052 -9165 0
-9052 8923 9053 0
-9052 -8923 -9053 0
9052 -8923 9053 0
9052 8923 -9053 0
-9053 -8921 -9040 0
-9053 8921 9040 0
9053 8921 -9040 0
9053 -8921 9040 0
-9054 9055 9057 0
-9054 9057 9164 0
-9054 9055 9164 0
9054 -9057 -9164 0
9054 -9055 -9057 0
9054 -9055 -9164 0
-9055 8926 9056 0
-9055 -8926 -9056 0
9055 -8926 9056 0
9055 8926 -9056 0
-9056 -8924 -9039 0
-9056 8924 9039 0
9056 8924 -9039 0
9056 -8924 9039 0
-9057 9058 9060 0
-9057 9060 9163 0
-9057 9058 9163 0
9057 -9060 -9163 0
9057 -9058 -9060 0
9057 -9058 -9163 0
-9058 8929 9059 0
-9058 -8929 -9059 0
9058 -8929 9059 0
9058 8929 -9059 0
-9059 -8927 -9038 0
-9059 8927 9038 0
9059 8927 -9038 0
9059 -8927 9038 0
-9060 9061 9063 0
-9060 9063 9162 0
-9060 9061 9162 0
9060 -9063 -9162 0
9060 -9061 -9063 0
9060 -9061 -9162 0
-9061 8932 9062 0
-9061 -8932 -9062 0
9061 -8932 9062 0
9061 8932 -9062 0
-9062 -8930 -9037 0
-9062 8930 9037 0
9062 8930 -9037 0
9062 -8930 9037 0
-9063 9064 9066 0
-9063 9066 9161 0
-9063 9064 9161 0
9063 -9066 -9161 0
9063 -9064 -9066 0
9063 -9064 -9161 0
-9064 8935 9065 0
-9064 -8935 -9065 0
9064 -8935 9065 0
9064 8935 -9065 0
-9065 -8933 -9036 0
-9065 8933 9036 0
9065 8933 -9036 0
9065 -8933 9036 0
-9066 9067 9069 0
-9066 9069 9160 0
-9066 9067 9160 0
9066 -9069 -9160 0
9066 -9067 -9069 0
9066 -9067 -9160 0
-9067 8938 9068 0
-9067 -8938 -9068 0
9067 -8938 9068 0
9067 8938 -9068 0
-9068 -8936 -9035 0
-9068 8936 9035 0
9068 8936 -9035 0
9068 -8936 9035 0
-9069 9070 9072 0
-9069 9072 9159 0
-9069 9070 9159 0
9069 -9072 -9159 0
9069 -9070 -9072 0
9069 -9070 -9159 0
-9070 8941 9071 0
-9070 -8941 -9071 0
9070 -8941 9071 0
9070 8941 -9071 0
-9071 -8939 -9034 0
-9071 8939 9034 0
9071 8939 -9034 0
9071 -8939 9034 0
-9072 9073 9075 0
-9072 9075 9158 0
-9072 9073 9158 0
9072 -9075 -9158 0
9072 -9073 -9075 0
9072 -9073 -9158 0
-9073 8944 9074 0
-9073 -8944 -9074 0
9073 -8944 9074 0
9073 8944 -9074 0
-9074 -8942 -9033 0
-9074 8942 9033 0
9074 8942 -9033 0
9074 -8942 9033 0
-9075 9076 9078 0
-9075 9078 9157 0
-9075 9076 9157 0
9075 -9078 -9157 0
9075 -9076 -9078 0
9075 -9076 -9157 0
-9076 8947 9077 0
-9076 -8947 -9077 0
9076 -8947 9077 0
9076 8947 -9077 0
-9077 -8945 -9032 0
-9077 8945 9032 0
9077 8945 -9032 0
9077 -8945 9032 0
-9078 9079 9081 0
-9078 9081 9156 0
-9078 9079 9156 0
9078 -9081 -9156 0
9078 -9079 -9081 0
9078 -9079 -9156 0
-9079 8950 9080 0
-9079 -8950 -9080 0
9079 -8950 9080 0
9079 8950 -9080 0
-9080 -8948 -9031 0
-9080 8948 9031 0
9080 8948 -9031 0
9080 -8948 9031 0
-9081 9082 9084 0
-9081 9084 9155 0
-9081 9082 9155 0
9081 -9084 -9155 0
9081 -9082 -9084 0
9081 -9082 -9155 0
-9082 8953 9083 0
-9082 -8953 -9083 0
9082 -8953 9083 0
9082 8953 -9083 0
-9083 -8951 -9030 0
-9083 8951 9030 0
9083 8951 -9030 0
9083 -8951 9030 0
-9084 9085 9087 0
-9084 9087 9154 0
-9084 9085 9154 0
9084 -9087 -9154 0
9084 -9085 -9087 0
9084 -9085 -9154 0
-9085 8956 9086 0
-9085 -8956 -9086 0
9085 -8956 9086 0
9085 8956 -9086 0
-9086 -8954 -9029 0
-9086 8954 9029 0
9086 8954 -9029 0
9086 -8954 9029 0
-9087 9088 9090 0
-9087 9090 9153 0
-9087 9088 9153 0
9087 -9090 -9153 0
9087 -9088 -9090 0
9087 -9088 -9153 0
-9088 8959 9089 0
-9088 -8959 -9089 0
9088 -8959 9089 0
9088 8959 -9089 0
-9089 -8957 -9028 0
-9089 8957 9028 0
9089 8957 -9028 0
9089 -8957 9028 0
-9090 9091 9093 0
-9090 9093 9152 0
-9090 9091 9152 0
9090 -9093 -9152 0
9090 -9091 -9093 0
9090 -9091 -9152 0
-9091 8962 9092 0
-9091 -8962 -9092 0
9091 -8962 9092 0
9091 8962 -9092 0
-9092 -8960 -9027 0
-9092 8960 9027 0
9092 8960 -9027 0
9092 -8960 9027 0
-9093 9094 9096 0
-9093 9096 9151 0
-9093 9094 9151 0
9093 -9096 -9151 0
9093 -9094 -9096 0
9093 -9094 -9151 0
-9094 8965 9095 0
-9094 -8965 -9095 0
9094 -8965 9095 0
9094 8965 -9095 0
-9095 -8963 -9026 0
-9095 8963 9026 0
9095 8963 -9026 0
9095 -8963 9026 0
-9096 9097 9099 0
-9096 9099 9150 0
-9096 9097 9150 0
9096 -9099 -9150 0
9096 -9097 -9099 0
9096 -9097 -9150 0
-9097 8968 9098 0
-9097 -8968 -9098 0
9097 -8968 9098 0
9097 8968 -9098 0
-9098 -8966 -9025 0
-9098 8966 9025 0
9098 8966 -9025 0
9098 -8966 9025 0
-9099 9100 9102 0
-9099 9102 9149 0
-9099 9100 9149 0
9099 -9102 -9149 0
9099 -9100 -9102 0
9099 -9100 -9149 0
-9100 8971 9101 0
-9100 -8971 -9101 0
9100 -8971 9101 0
9100 8971 -9101 0
-9101 -8969 -9024 0
-9101 8969 9024 0
9101 8969 -9024 0
9101 -8969 9024 0
-9102 9103 9105 0
-9102 9105 9148 0
-9102 9103 9148 0
9102 -9105 -9148 0
9102 -9103 -9105 0
9102 -9103 -9148 0
-9103 8974 9104 0
-9103 -8974 -9104 0
9103 -8974 9104 0
9103 8974 -9104 0
-9104 -8972 -9023 0
-9104 8972 9023 0
9104 8972 -9023 0
9104 -8972 9023 0
-9105 9106 9108 0
-9105 9108 9147 0
-9105 9106 9147 0
9105 -9108 -9147 0
9105 -9106 -9108 0
9105 -9106 -9147 0
-9106 8977 9107 0
-9106 -8977 -9107 0
9106 -8977 9107 0
9106 8977 -9107 0
-9107 -8975 -9022 0
-9107 8975 9022 0
9107 8975 -9022 0
9107 -8975 9022 0
-9108 9109 9111 0
-9108 9111 9146 0
-9108 9109 9146 0
9108 -9111 -9146 0
9108 -9109 -9111 0
9108 -9109 -9146 0
-9109 8980 9110 0
-9109 -8980 -9110 0
9109 -8980 9110 0
9109 8980 -9110 0
-9110 -8978 -9021 0
-9110 8978 9021 0
9110 8978 -9021 0
9110 -8978 9021 0
-9111 9112 9114 0
-9111 9114 9145 0
-9111 9112 9145 0
9111 -9114 -9145 0
9111 -9112 -9114 0
9111 -9112 -9145 0
-9112 8983 9113 0
-9112 -8983 -9113 0
9112 -8983 9113 0
9112 8983 -9113 0
-9113 -8981 -9020 0
-9113 8981 9020 0
9113 8981 -9020 0
9113 -8981 9020 0
-9114 9115 9117 0
-9114 9117 9144 0
-9114 9115 9144 0
9114 -9117 -9144 0
9114 -9115 -9117 0
9114 -9115 -9144 0
-9115 8986 9116 0
-9115 -8986 -9116 0
9115 -8986 9116 0
9115 8986 -9116 0
-9116 -8984 -9019 0
-9116 8984 9019 0
9116 8984 -9019 0
9116 -8984 9019 0
-9117 9118 9120 0
-9117 9120 9143 0
-9117 9118 9143 0
9117 -9120 -9143 0
9117 -9118 -9120 0
9117 -9118 -9143 0
-9118 8989 9119 0
-9118 -8989 -9119 0
9118 -8989 9119 0
9118 8989 -9119 0
-9119 -8987 -9018 0
-9119 8987 9018 0
9119 8987 -9018 0
9119 -8987 9018 0
-9120 9121 9123 0
-9120 9123 9142 0
-9120 9121 9142 0
9120 -9123 -9142 0
9120 -9121 -9123 0
9120 -9121 -9142 0
-9121 8992 9122 0
-9121 -8992 -9122 0
9121 -8992 9122 0
9121 8992 -9122 0
-9122 -8990 -9017 0
-9122 8990 9017 0
9122 8990 -9017 0
9122 -8990 9017 0
-9123 9124 9126 0
-9123 9126 9141 0
-9123 9124 9141 0
9123 -9126 -9141 0
9123 -9124 -9126 0
9123 -9124 -9141 0
-9124 8995 9125 0
-9124 -8995 -9125 0
9124 -8995 9125 0
9124 8995 -9125 0
-9125 -8993 -9016 0
-9125 8993 9016 0
9125 8993 -9016 0
9125 -8993 9016 0
-9126 9127 9129 0
-9126 9129 9140 0
-9126 9127 9140 0
9126 -9129 -9140 0
9126 -9127 -9129 0
9126 -9127 -9140 0
-9127 8998 9128 0
-9127 -8998 -9128 0
9127 -8998 9128 0
9127 8998 -9128 0
-9128 -8996 -9015 0
-9128 8996 9015 0
9128 8996 -9015 0
9128 -8996 9015 0
-9129 9130 9132 0
-9129 9132 9139 0
-9129 9130 9139 0
9129 -9132 -9139 0
9129 -9130 -9132 0
9129 -9130 -9139 0
-9130 9001 9131 0
-9130 -9001 -9131 0
9130 -9001 9131 0
9130 9001 -9131 0
-9131 -8999 -9014 0
-9131 8999 9014 0
9131 8999 -9014 0
9131 -8999 9014 0
-9132 9135 9138 0
-9132 9133 9135 0
-9132 9133 9138 0
9132 -9133 -9135 0
9132 -9135 -9138 0
9132 -9133 -9138 0
-9133 9004 9134 0
-9133 -9004 -9134 0
9133 -9004 9134 0
9133 9004 -9134 0
-9134 -9002 -9013 0
-9134 9002 9013 0
9134 9002 -9013 0
9134 -9002 9013 0
9135 -4844 -9136 0
-9135 4844 0
-9135 9136 0
-9136 9007 9137 0
-9136 -9007 -9137 0
9136 -9007 9137 0
9136 9007 -9137 0
-9137 -9005 -9012 0
-9137 9005 9012 0
9137 9005 -9012 0
9137 -9005 9012 0
9138 9869 -9870 -4845 0
9138 -9870 9929 -4845 0
9138 -9869 9870 -9929 -4845 0
-9138 9870 9929 0
-9138 9869 9870 0
-9138 4845 0
-9138 -9869 -9870 -9929 0
9139 -9871 9929 -4845 0
9139 -9871 69 -4845 0
9139 9871 -9929 -69 -4845 0
-9139 9871 69 0
-9139 -9871 -9929 -69 0
-9139 4845 0
-9139 9871 9929 0
9140 -9872 9929 -4845 0
9140 -9872 68 -4845 0
9140 9872 -9929 -68 -4845 0
-9140 9872 68 0
-9140 -9872 -9929 -68 0
-9140 4845 0
-9140 9872 9929 0
9141 -9873 9929 -4845 0
9141 -9873 67 -4845 0
9141 9873 -9929 -67 -4845 0
-9141 9873 67 0
-9141 -9873 -9929 -67 0
-9141 4845 0
-9141 9873 9929 0
9142 -9874 9929 -4845 0
9142 -9874 66 -4845 0
9142 9874 -9929 -66 -4845 0
-9142 9874 66 0
-9142 -9874 -9929 -66 0
-9142 4845 0
-9142 9874 9929 0
9143 -9875 9929 -4845 0
9143 -9875 65 -4845 0
9143 9875 -9929 -65 -4845 0
-9143 9875 65 0
-9143 -9875 -9929 -65 0
-9143 4845 0
-9143 9875 9929 0
9144 -9876 9929 -4845 0
9144 -9876 64 -4845 0
9144 9876 -9929 -64 -4845 0
-9144 9876 64 0
-9144 -9876 -9929 -64 0
-9144 4845 0
-9144 9876 9929 0
9145 -9877 9929 -4845 0
9145 -9877 63 -4845 0
9145 9877 -9929 -63 -4845 0
-9145 9877 63 0
-9145 -9877 -9929 -63 0
-9145 4845 0
-9145 9877 9929 0
9146 -9878 9929 -4845 0
9146 -9878 62 -4845 0
9146 9878 -9929 -62 -4845 0
-9146 9878 62 0
-9146 -9878 -9929 -62 0
-9146 4845 0
-9146 9878 9929 0
9147 -9879 9929 -4845 0
9147 -9879 61 -4845 0
9147 9879 -9929 -61 -4845 0
-9147 9879 61 0
-9147 -9879 -9929 -61 0
-9147 4845 0
-9147 9879 9929 0
9148 -9880 9929 -4845 0
9148 -9880 60 -4845 0
9148 9880 -9929 -60 -4845 0
-9148 9880 60 0
-9148 -9880 -9929 -60 0
-9148 4845 0
-9148 9880 9929 0
9149 -9881 9929 -4845 0
9149 -9881 59 -4845 0
9149 9881 -9929 -59 -4845 0
-9149 9881 59 0
-9149 -9881 -9929 -59 0
-9149 4845 0
-9149 9881 9929 0
9150 -9882 9929 -4845 0
9150 -9882 58 -4845 0
9150 9882 -9929 -58 -4845 0
-9150 9882 58 0
-9150 -9882 -9929 -58 0
-9150 4845 0
-9150 9882 9929 0
9151 -9883 9929 -4845 0
9151 -9883 57 -4845 0
9151 9883 -9929 -57 -4845 0
-9151 9883 57 0
-9151 -9883 -9929 -57 0
-9151 4845 0
-9151 9883 9929 0
9152 -9884 9929 -4845 0
9152 -9884 56 -4845 0
9152 9884 -9929 -56 -4845 0
-9152 9884 56 0
-9152 -9884 -9929 -56 0
-9152 4845 0
-9152 9884 9929 0
9153 -9885 9929 -4845 0
9153 -9885 55 -4845 0
9153 9885 -9929 -55 -4845 0
-9153 9885 55 0
-9153 -9885 -9929 -55 0
-9153 4845 0
-9153 9885 9929 0
9154 -9886 9929 -4845 0
9154 -9886 54 -4845 0
9154 9886 -9929 -54 -4845 0
-9154 9886 54 0
-9154 -9886 -9929 -54 0
-9154 4845 0
-9154 9886 9929 0
9155 -9887 9929 -4845 0
9155 -9887 53 -4845 0
9155 9887 -9929 -53 -4845 0
-9155 9887 53 0
-9155 -9887 -9929 -53 0
-9155 4845 0
-9155 9887 9929 0
9156 -9888 9929 -4845 0
9156 -9888 52 -4845 0
9156 9888 -9929 -52 -4845 0
-9156 9888 52 0
-9156 -9888 -9929 -52 0
-9156 4845 0
-9156 9888 9929 0
9157 -9889 9929 -4845 0
9157 -9889 51 -4845 0
9157 9889 -9929 -51 -4845 0
-9157 9889 51 0
-9157 -9889 -9929 -51 0
-9157 4845 0
-9157 9889 9929 0
9158 -9890 9929 -4845 0
9158 -9890 50 -4845 0
9158 9890 -9929 -50 -4845 0
-9158 9890 50 0
-9158 -9890 -9929 -50 0
-9158 4845 0
-9158 9890 9929 0
9159 -9891 9929 -4845 0
9159 -9891 49 -4845 0
9159 9891 -9929 -49 -4845 0
-9159 9891 49 0
-9159 -9891 -9929 -49 0
-9159 4845 0
-9159 9891 9929 0
9160 -9892 9929 -4845 0
9160 -9892 48 -4845 0
9160 9892 -9929 -48 -4845 0
-9160 9892 48 0
-9160 -9892 -9929 -48 0
-9160 4845 0
-9160 9892 9929 0
9161 -9893 9929 -4845 0
9161 -9893 47 -4845 0
9161 9893 -9929 -47 -4845 0
-9161 9893 47 0
-9161 -9893 -9929 -47 0
-9161 4845 0
-9161 9893 9929 0
9162 -9894 9929 -4845 0
9162 -9894 46 -4845 0
9162 9894 -9929 -46 -4845 0
-9162 9894 46 0
-9162 -9894 -9929 -46 0
-9162 4845 0
-9162 9894 9929 0
9163 -9895 9929 -4845 0
9163 -9895 45 -4845 0
9163 9895 -9929 -45 -4845 0
-9163 9895 45 0
-9163 -9895 -9929 -45 0
-9163 4845 0
-9163 9895 9929 0
9164 -9896 9929 -4845 0
9164 -9896 44 -4845 0
9164 9896 -9929 -44 -4845 0
-9164 9896 44 0
-9164 -9896 -9929 -44 0
-9164 4845 0
-9164 9896 9929 0
9165 -9897 9929 -4845 0
9165 -9897 43 -4845 0
9165 9897 -9929 -43 -4845 0
-9165 9897 43 0
-9165 -9897 -9929 -43 0
-9165 4845 0
-9165 9897 9929 0
9166 -9898 9929 -4845 0
9166 -9898 42 -4845 0
9166 9898 -9929 -42 -4845 0
-9166 9898 42 0
-9166 -9898 -9929 -42 0
-9166 4845 0
-9166 9898 9929 0
9167 -9899 9929 -4845 0
9167 -9899 41 -4845 0
9167 9899 -9929 -41 -4845 0
-9167 9899 41 0
-9167 -9899 -9929 -41 0
-9167 4845 0
-9167 9899 9929 0
9168 -9900 9929 -4845 0
9168 -9900 40 -4845 0
9168 9900 -9929 -40 -4845 0
-9168 9900 40 0
-9168 -9900 -9929 -40 0
-9168 4845 0
-9168 9900 9929 0
9169 9929 -9930 -39 0
-9169 -9929 0
-9169 9930 0
-9169 39 0
-9170 5589 9171 0
-9170 9171 9296 0
-9170 5589 9296 0
9170 -9171 -9296 0
9170 -5589 -9171 0
9170 -5589 -9296 0
-9171 9172 9174 0
-9171 9174 9295 0
-9171 9172 9295 0
9171 -9174 -9295 0
9171 -9172 -9174 0
9171 -9172 -9295 0
-9172 9045 9173 0
-9172 -9045 -9173 0
9172 -9045 9173 0
9172 9045 -9173 0
-9173 -5591 -9168 0
-9173 5591 9168 0
9173 5591 -9168 0
9173 -5591 9168 0
-9174 9175 9177 0
-9174 9177 9294 0
-9174 9175 9294 0
9174 -9177 -9294 0
9174 -9175 -9177 0
9174 -9175 -9294 0
-9175 9048 9176 0
-9175 -9048 -9176 0
9175 -9048 9176 0
9175 9048 -9176 0
-9176 -9046 -9167 0
-9176 9046 9167 0
9176 9046 -9167 0
9176 -9046 9167 0
-9177 9178 9180 0
-9177 9180 9293 0
-9177 9178 9293 0
9177 -9180 -9293 0
9177 -9178 -9180 0
9177 -9178 -9293 0
-9178 9051 9179 0
-9178 -9051 -9179 0
9178 -9051 9179 0
9178 9051 -9179 0
-9179 -9049 -9166 0
-9179 9049 9166 0
9179 9049 -9166 0
9179 -9049 9166 0
-9180 9181 9183 0
-9180 9183 9292 0
-9180 9181 9292 0
9180 -9183 -9292 0
9180 -9181 -9183 0
9180 -9181 -9292 0
-9181 9054 9182 0
-9181 -9054 -9182 0
9181 -9054 9182 0
9181 9054 -9182 0
-9182 -9052 -9165 0
-9182 9052 9165 0
9182 9052 -9165 0
9182 -9052 9165 0
-9183 9184 9186 0
-9183 9186 9291 0
-9183 9184 9291 0
9183 -9186 -9291 0
9183 -9184 -9186 0
9183 -9184 -9291 0
-9184 9057 9185 0
-9184 -9057 -9185 0
9184 -9057 9185 0
9184 9057 -9185 0
-9185 -9055 -9164 0
-9185 9055 9164 0
9185 9055 -9164 0
9185 -9055 9164 0
-9186 9187 9189 0
-9186 9189 9290 0
-9186 9187 9290 0
9186 -9189 -9290 0
9186 -9187 -9189 0
9186 -9187 -9290 0
-9187 9060 9188 0
-9187 -9060 -9188 0
9187 -9060 9188 0
9187 9060 -9188 0
-9188 -9058 -9163 0
-9188 9058 9163 0
9188 9058 -9163 0
9188 -9058 9163 0
-9189 9190 9192 0
-9189 9192 9289 0
-9189 9190 9289 0
9189 -9192 -9289 0
9189 -9190 -9192 0
9189 -9190 -9289 0
-9190 9063 9191 0
-9190 -9063 -9191 0
9190 -9063 9191 0
9190 9063 -9191 0
-9191 -9061 -9162 0
-9191 9061 9162 0
9191 9061 -9162 0
9191 -9061 9162 0
-9192 9193 9195 0
-9192 9195 9288 0
-9192 9193 9288 0
9192 -9195 -9288 0
9192 -9193 -9195 0
9192 -9193 -9288 0
-9193 9066 9194 0
-9193 -9066 -9194 0
9193 -9066 9194 0
9193 9066 -9194 0
-9194 -9064 -9161 0
-9194 9064 9161 0
9194 9064 -9161 0
9194 -9064 9161 0
-9195 9196 9198 0
-9195 9198 9287 0
-9195 9196 9287 0
9195 -9198 -9287 0
9195 -9196 -9198 0
9195 -9196 -9287 0
-9196 9069 9197 0
-9196 -9069 -9197 0
9196 -9069 9197 0
9196 9069 -9197 0
-9197 -9067 -9160 0
-9197 9067 9160 0
9197 9067 -9160 0
9197 -9067 9160 0
-9198 9199 9201 0
-9198 9201 9286 0
-9198 9199 9286 0
9198 -9201 -9286 0
9198 -9199 -9201 0
9198 -9199 -9286 0
-9199 9072 9200 0
-9199 -9072 -9200 0
9199 -9072 9200 0
9199 9072 -9200 0
-9200 -9070 -9159 0
-9200 9070 9159 0
9200 9070 -9159 0
9200 -9070 9159 0
-9201 9202 9204 0
-9201 9204 9285 0
-9201 9202 9285 0
9201 -9204 -9285 0
9201 -9202 -9204 0
9201 -9202 -9285 0
-9202 9075 9203 0
-9202 -9075 -9203 0
9202 -9075 9203 0
9202 9075 -9203 0
-9203 -9073 -9158 0
-9203 9073 9158 0
9203 9073 -9158 0
9203 -9073 9158 0
-9204 9205 9207 0
-9204 9207 9284 0
-9204 9205 9284 0
9204 -9207 -9284 0
9204 -9205 -9207 0
9204 -9205 -9284 0
-9205 9078 9206 0
-9205 -9078 -9206 0
9205 -9078 9206 0
9205 9078 -9206 0
-9206 -9076 -9157 0
-9206 9076 9157 0
9206 9076 -9157 0
9206 -9076 9157 0
-9207 9208 9210 0
-9207 9210 9283 0
-9207 9208 9283 0
9207 -9210 -9283 0
9207 -9208 -9210 0
9207 -9208 -9283 0
-9208 9081 9209 0
-9208 -9081 -9209 0
9208 -9081 9209 0
9208 9081 -9209 0
-9209 -9079 -9156 0
-9209 9079 9156 0
9209 9079 -9156 0
9209 -9079 9156 0
-9210 9211 9213 0
-9210 9213 9282 0
-9210 9211 9282 0
9210 -9213 -9282 0
9210 -9211 -9213 0
9210 -9211 -9282 0
-9211 9084 9212 0
-9211 -9084 -9212 0
9211 -9084 9212 0
9211 9084 -9212 0
-9212 -9082 -9155 0
-9212 9082 9155 0
9212 9082 -9155 0
9212 -9082 9155 0
-9213 9214 9216 0
-9213 9216 9281 0
-9213 9214 9281 0
9213 -9216 -9281 0
9213 -9214 -9216 0
9213 -9214 -9281 0
-9214 9087 9215 0
-9214 -9087 -9215 0
9214 -9087 9215 0
9214 9087 -9215 0
-9215 -9085 -9154 0
-9215 9085 9154 0
9215 9085 -9154 0
9215 -9085 9154 0
-9216 9217 9219 0
-9216 9219 9280 0
-9216 9217 9280 0
9216 -9219 -9280 0
9216 -9217 -9219 0
9216 -9217 -9280 0
-9217 9090 9218 0
-9217 -9090 -9218 0
9217 -9090 9218 0
9217 9090 -9218 0
-9218 -9088 -9153 0
-9218 9088 9153 0
9218 9088 -9153 0
9218 -9088 9153 0
-9219 9220 9222 0
-9219 9222 9279 0
-9219 9220 9279 0
9219 -9222 -9279 0
9219 -9220 -9222 0
9219 -9220 -9279 0
-9220 9093 9221 0
-9220 -9093 -9221 0
9220 -9093 9221 0
9220 9093 -9221 0
-9221 -9091 -9152 0
-9221 9091 9152 0
9221 9091 -9152 0
9221 -9091 9152 0
-9222 9223 9225 0
-9222 9225 9278 0
-9222 9223 9278 0
9222 -9225 -9278 0
9222 -9223 -9225 0
9222 -9223 -9278 0
-9223 9096 9224 0
-9223 -9096 -9224 0
9223 -9096 9224 0
9223 9096 -9224 0
-9224 -9094 -9151 0
-9224 9094 9151 0
9224 9094 -9151 0
9224 -9094 9151 0
-9225 9226 9228 0
-9225 9228 9277 0
-9225 9226 9277 0
9225 -9228 -9277 0
9225 -9226 -9228 0
9225 -9226 -9277 0
-9226 9099 9227 0
-9226 -9099 -9227 0
9226 -9099 9227 0
9226 9099 -9227 0
-9227 -9097 -9150 0
-9227 9097 9150 0
9227 9097 -9150 0
9227 -9097 9150 0
-9228 9229 9231 0
-9228 9231 9276 0
-9228 9229 9276 0
9228 -9231 -9276 0
9228 -9229 -9231 0
9228 -9229 -9276 0
-9229 9102 9230 0
-9229 -9102 -9230 0
9229 -9102 9230 0
9229 9102 -9230 0
-9230 -9100 -9149 0
-9230 9100 9149 0
9230 9100 -9149 0
9230 -9100 9149 0
-9231 9232 9234 0
-9231 9234 9275 0
-9231 9232 9275 0
9231 -9234 -9275 0
9231 -9232 -9234 0
9231 -9232 -9275 0
-9232 9105 9233 0
-9232 -9105 -9233 0
9232 -9105 9233 0
9232 9105 -9233 0
-9233 -9103 -9148 0
-9233 9103 9148 0
9233 9103 -9148 0
9233 -9103 9148 0
-9234 9235 9237 0
-9234 9237 9274 0
-9234 9235 9274 0
9234 -9237 -9274 0
9234 -9235 -9237 0
9234 -9235 -9274 0
-9235 9108 9236 0
-9235 -9108 -9236 0
9235 -9108 9236 0
9235 9108 -9236 0
-9236 -9106 -9147 0
-9236 9106 9147 0
9236 9106 -9147 0
9236 -9106 9147 0
-9237 9238 9240 0
-9237 9240 9273 0
-9237 9238 9273 0
9237 -9240 -9273 0
9237 -9238 -9240 0
9237 -9238 -9273 0
-9238 9111 9239 0
-9238 -9111 -9239 0
9238 -9111 9239 0
9238 9111 -9239 0
-9239 -9109 -9146 0
-9239 9109 9146 0
9239 9109 -9146 0
9239 -9109 9146 0
-9240 9241 9243 0
-9240 9243 9272 0
-9240 9241 9272 0
9240 -9243 -9272 0
9240 -9241 -9243 0
9240 -9241 -9272 0
-9241 9114 9242 0
-9241 -9114 -9242 0
9241 -9114 9242 0
9241 9114 -9242 0
-9242 -9112 -9145 0
-9242 9112 9145 0
9242 9112 -9145 0
9242 -9112 9145 0
-9243 9244 9246 0
-9243 9246 9271 0
-9243 9244 9271 0
9243 -9246 -9271 0
9243 -9244 -9246 0
9243 -9244 -9271 0
-9244 9117 9245 0
-9244 -9117 -9245 0
9244 -9117 9245 0
9244 9117 -9245 0
-9245 -9115 -9144 0
-9245 9115 9144 0
9245 9115 -9144 0
9245 -9115 9144 0
-9246 9247 9249 0
-9246 9249 9270 0
-9246 9247 9270 0
9246 -9249 -9270 0
9246 -9247 -9249 0
9246 -9247 -9270 0
-9247 9120 9248 0
-9247 -9120 -9248 0
9247 -9120 9248 0
9247 9120 -9248 0
-9248 -9118 -9143 0
-9248 9118 9143 0
9248 9118 -9143 0
9248 -9118 9143 0
-9249 9250 9252 0
-9249 9252 9269 0
-9249 9250 9269 0
9249 -9252 -9269 0
9249 -9250 -9252 0
9249 -9250 -9269 0
-9250 9123 9251 0
-9250 -9123 -9251 0
9250 -9123 9251 0
9250 9123 -9251 0
-9251 -9121 -9142 0
-9251 9121 9142 0
9251 9121 -9142 0
9251 -9121 9142 0
-9252 9253 9255 0
-9252 9255 9268 0
-9252 9253 9268 0
9252 -9255 -9268 0
9252 -9253 -9255 0
9252 -9253 -9268 0
-9253 9126 9254 0
-9253 -9126 -9254 0
9253 -9126 9254 0
9253 9126 -9254 0
-9254 -9124 -9141 0
-9254 9124 9141 0
9254 9124 -9141 0
9254 -9124 9141 0
-9255 9256 9258 0
-9255 9258 9267 0
-9255 9256 9267 0
9255 -9258 -9267 0
9255 -9256 -9258 0
9255 -9256 -9267 0
-9256 9129 9257 0
-9256 -9129 -9257 0
9256 -9129 9257 0
9256 9129 -9257 0
-9257 -9127 -9140 0
-9257 9127 9140 0
9257 9127 -9140 0
9257 -9127 9140 0
-9258 9261 9266 0
-9258 9259 9261 0
-9258 9259 9266 0
9258 -9259 -9261 0
9258 -9261 -9266 0
9258 -9259 -9266 0
-9259 9132 9260 0
-9259 -9132 -9260 0
9259 -9132 9260 0
9259 9132 -9260 0
-9260 -9130 -9139 0
-9260 9130 9139 0
9260 9130 -9139 0
9260 -9130 9139 0
9261 -9262 -9264 0
-9261 9262 0
-9261 9264 0
9262 -9869 -9263 0
-9262 9869 0
-9262 9263 0
-9263 -9929 -9930 0
-9263 9929 9930 0
9263 9929 -9930 0
9263 -9929 9930 0
-9264 9135 9265 0
-9264 -9135 -9265 0
9264 -9135 9265 0
9264 9135 -9265 0
-9265 -9133 -9138 0
-9265 9133 9138 0
9265 9133 -9138 0
9265 -9133 9138 0
9266 9869 -9870 -9263 0
9266 -9870 9930 -9263 0
9266 -9869 9870 -9930 -9263 0
-9266 9870 9930 0
-9266 9869 9870 0
-9266 9263 0
-9266 -9869 -9870 -9930 0
9267 -9871 9930 -9263 0
9267 -9871 69 -9263 0
9267 9871 -9930 -69 -9263 0
-9267 9871 69 0
-9267 -9871 -9930 -69 0
-9267 9263 0
-9267 9871 9930 0
9268 -9872 9930 -9263 0
9268 -9872 68 -9263 0
9268 9872 -9930 -68 -9263 0
-9268 9872 68 0
-9268 -9872 -9930 -68 0
-9268 9263 0
-9268 9872 9930 0
9269 -9873 9930 -9263 0
9269 -9873 67 -9263 0
9269 9873 -9930 -67 -9263 0
-9269 9873 67 0
-9269 -9873 -9930 -67 0
-9269 9263 0
-9269 9873 9930 0
9270 -9874 9930 -9263 0
9270 -9874 66 -9263 0
9270 9874 -9930 -66 -9263 0
-9270 9874 66 0
-9270 -9874 -9930 -66 0
-9270 9263 0
-9270 9874 9930 0
9271 -9875 9930 -9263 0
9271 -9875 65 -9263 0
9271 9875 -9930 -65 -9263 0
-9271 9875 65 0
-9271 -9875 -9930 -65 0
-9271 9263 0
-9271 9875 9930 0
9272 -9876 9930 -9263 0
9272 -9876 64 -9263 0
9272 9876 -9930 -64 -9263 0
-9272 9876 64 0
-9272 -9876 -9930 -64 0
-9272 9263 0
-9272 9876 9930 0
9273 -9877 9930 -9263 0
9273 -9877 63 -9263 0
9273 9877 -9930 -63 -9263 0
-9273 9877 63 0
-9273 -9877 -9930 -63 0
-9273 9263 0
-9273 9877 9930 0
9274 -9878 9930 -9263 0
9274 -9878 62 -9263 0
9274 9878 -9930 -62 -9263 0
-9274 9878 62 0
-9274 -9878 -9930 -62 0
-9274 9263 0
-9274 9878 9930 0
9275 -9879 9930 -9263 0
9275 -9879 61 -9263 0
9275 9879 -9930 -61 -9263 0
-9275 9879 61 0
-9275 -9879 -9930 -61 0
-9275 9263 0
-9275 9879 9930 0
9276 -9880 9930 -9263 0
9276 -9880 60 -9263 0
9276 9880 -9930 -60 -9263 0
-9276 9880 60 0
-9276 -9880 -9930 -60 0
-9276 9263 0
-9276 9880 9930 0
9277 -9881 9930 -9263 0
9277 -9881 59 -9263 0
9277 9881 -9930 -59 -9263 0
-9277 9881 59 0
-9277 -9881 -9930 -59 0
-9277 9263 0
-9277 9881 9930 0
9278 -9882 9930 -9263 0
9278 -9882 58 -9263 0
9278 9882 -9930 -58 -9263 0
-9278 9882 58 0
-9278 -9882 -9930 -58 0
-9278 9263 0
-9278 9882 9930 0
9279 -9883 9930 -9263 0
9279 -9883 57 -9263 0
9279 9883 -9930 -57 -9263 0
-9279 9883 57 0
-9279 -9883 -9930 -57 0
-9279 9263 0
-9279 9883 9930 0
9280 -9884 9930 -9263 0
9280 -9884 56 -9263 0
9280 9884 -9930 -56 -9263 0
-9280 9884 56 0
-9280 -9884 -9930 -56 0
-9280 9263 0
-9280 9884 9930 0
9281 -9885 9930 -9263 0
9281 -9885 55 -9263 0
9281 9885 -9930 -55 -9263 0
-9281 9885 55 0
-9281 -9885 -9930 -55 0
-9281 9263 0
-9281 9885 9930 0
9282 -9886 9930 -9263 0
9282 -9886 54 -9263 0
9282 9886 -9930 -54 -9263 0
-9282 9886 54 0
-9282 -9886 -9930 -54 0
-9282 9263 0
-9282 9886 9930 0
9283 -9887 9930 -9263 0
9283 -9887 53 -9263 0
9283 9887 -9930 -53 -9263 0
-9283 9887 53 0
-9283 -9887 -9930 -53 0
-9283 9263 0
-9283 9887 9930 0
9284 -9888 9930 -9263 0
9284 -9888 52 -9263 0
9284 9888 -9930 -52 -9263 0
-9284 9888 52 0
-9284 -9888 -9930 -52 0
-9284 9263 0
-9284 9888 9930 0
9285 -9889 9930 -9263 0
9285 -9889 51 -9263 0
9285 9889 -9930 -51 -9263 0
-9285 9889 51 0
-9285 -9889 -9930 -51 0
-9285 9263 0
-9285 9889 9930 0
9286 -9890 9930 -9263 0
9286 -9890 50 -9263 0
9286 9890 -9930 -50 -9263 0
-9286 9890 50 0
-9286 -9890 -9930 -50 0
-9286 9263 0
-9286 9890 9930 0
9287 -9891 9930 -9263 0
9287 -9891 49 -9263 0
9287 9891 -9930 -49 -9263 0
-9287 9891 49 0
-9287 -9891 -9930 -49 0
-9287 9263 0
-9287 9891 9930 0
9288 -9892 9930 -9263 0
9288 -9892 48 -9263 0
9288 9892 -9930 -48 -9263 0
-9288 9892 48 0
-9288 -9892 -9930 -48 0
-9288 9263 0
-9288 9892 9930 0
9289 -9893 9930 -9263 0
9289 -9893 47 -9263 0
9289 9893 -9930 -47 -9263 0
-9289 9893 47 0
-9289 -9893 -9930 -47 0
-9289 9263 0
-9289 9893 9930 0
9290 -9894 9930 -9263 0
9290 -9894 46 -9263 0
9290 9894 -9930 -46 -9263 0
-9290 9894 46 0
-9290 -9894 -9930 -46 0
-9290 9263 0
-9290 9894 9930 0
9291 -9895 9930 -9263 0
9291 -9895 45 -9263 0
9291 9895 -9930 -45 -9263 0
-9291 9895 45 0
-9291 -9895 -9930 -45 0
-9291 9263 0
-9291 9895 9930 0
9292 -9896 9930 -9263 0
9292 -9896 44 -9263 0
9292 9896 -9930 -44 -9263 0
-9292 9896 44 0
-9292 -9896 -9930 -44 0
-9292 9263 0
-9292 9896 9930 0
9293 -9897 9930 -9263 0
9293 -9897 43 -9263 0
9293 9897 -9930 -43 -9263 0
-9293 9897 43 0
-9293 -9897 -9930 -43 0
-9293 9263 0
-9293 9897 9930 0
9294 -9898 9930 -9263 0
9294 -9898 42 -9263 0
9294 9898 -9930 -42 -9263 0
-9294 9898 42 0
-9294 -9898 -9930 -42 0
-9294 9263 0
-9294 9898 9930 0
9295 -9899 9930 -9263 0
9295 -9899 41 -9263 0
9295 9899 -9930 -41 -9263 0
-9295 9899 41 0
-9295 -9899 -9930 -41 0
-9295 9263 0
-9295 9899 9930 0
9296 -9900 9930 -9263 0
9296 -9900 40 -9263 0
9296 9900 -9930 -40 -9263 0
-9296 9900 40 0
-9296 -9900 -9930 -40 0
-9296 9263 0
-9296 9900 9930 0
9297 9930 -9931 -39 0
-9297 -9930 0
-9297 9931 0
-9297 39 0
-9298 5587 9299 0
-9298 9299 9422 0
-9298 5587 9422 0
9298 -9299 -9422 0
9298 -5587 -9299 0
9298 -5587 -9422 0
-9299 9300 9302 0
-9299 9302 9421 0
-9299 9300 9421 0
9299 -9302 -9421 0
9299 -9300 -9302 0
9299 -9300 -9421 0
-9300 9171 9301 0
-9300 -9171 -9301 0
9300 -9171 9301 0
9300 9171 -9301 0
-9301 -5589 -9296 0
-9301 5589 9296 0
9301 5589 -9296 0
9301 -5589 9296 0
-9302 9303 9305 0
-9302 9305 9420 0
-9302 9303 9420 0
9302 -9305 -9420 0
9302 -9303 -9305 0
9302 -9303 -9420 0
-9303 9174 9304 0
-9303 -9174 -9304 0
9303 -9174 9304 0
9303 9174 -9304 0
-9304 -9172 -9295 0
-9304 9172 9295 0
9304 9172 -9295 0
9304 -9172 9295 0
-9305 9306 9308 0
-9305 9308 9419 0
-9305 9306 9419 0
9305 -9308 -9419 0
9305 -9306 -9308 0
9305 -9306 -9419 0
-9306 9177 9307 0
-9306 -9177 -9307 0
9306 -9177 9307 0
9306 9177 -9307 0
-9307 -9175 -9294 0
-9307 9175 9294 0
9307 9175 -9294 0
9307 -9175 9294 0
-9308 9309 9311 0
-9308 9311 9418 0
-9308 9309 9418 0
9308 -9311 -9418 0
9308 -9309 -9311 0
9308 -9309 -9418 0
-9309 9180 9310 0
-9309 -9180 -9310 0
9309 -9180 9310 0
9309 9180 -9310 0
-9310 -9178 -9293 0
-9310 9178 9293 0
9310 9178 -9293 0
9310 -9178 9293 0
-9311 9312 9314 0
-9311 9314 9417 0
-9311 9312 9417 0
9311 -9314 -9417 0
9311 -9312 -9314 0
9311 -9312 -9417 0
-9312 9183 9313 0
-9312 -9183 -9313 0
9312 -9183 9313 0
9312 9183 -9313 0
-9313 -9181 -9292 0
-9313 9181 9292 0
9313 9181 -9292 0
9313 -9181 9292 0
-9314 9315 9317 0
-9314 9317 9416 0
-9314 9315 9416 0
9314 -9317 -9416 0
9314 -9315 -9317 0
9314 -9315 -9416 0
-9315 9186 9316 0
-9315 -9186 -9316 0
9315 -9186 9316 0
9315 9186 -9316 0
-9316 -9184 -9291 0
-9316 9184 9291 0
9316 9184 -9291 0
9316 -9184 9291 0
-9317 9318 9320 0
-9317 9320 9415 0
-9317 9318 9415 0
9317 -9320 -9415 0
9317 -9318 -9320 0
9317 -9318 -9415 0
-9318 9189 9319 0
-9318 -9189 -9319 0
9318 -9189 9319 0
9318 9189 -9319 0
-9319 -9187 -9290 0
-9319 9187 9290 0
9319 9187 -9290 0
9319 -9187 9290 0
-9320 9321 9323 0
-9320 9323 9414 0
-9320 9321 9414 0
9320 -9323 -9414 0
9320 -9321 -9323 0
9320 -9321 -9414 0
-9321 9192 9322 0
-9321 -9192 -9322 0
9321 -9192 9322 0
9321 9192 -9322 0
-9322 -9190 -9289 0
-9322 9190 9289 0
9322 9190 -9289 0
9322 -9190 9289 0
-9323 9324 9326 0
-9323 9326 9413 0
-9323 9324 9413 0
9323 -9326 -9413 0
9323 -9324 -9326 0
9323 -9324 -9413 0
-9324 9195 9325 0
-9324 -9195 -9325 0
9324 -9195 9325 0
9324 9195 -9325 0
-9325 -9193 -9288 0
-9325 9193 9288 0
9325 9193 -9288 0
9325 -9193 9288 0
-9326 9327 9329 0
-9326 9329 9412 0
-9326 9327 9412 0
9326 -9329 -9412 0
9326 -9327 -9329 0
9326 -9327 -9412 0
-9327 9198 9328 0
-9327 -9198 -9328 0
9327 -9198 9328 0
9327 9198 -9328 0
-9328 -9196 -9287 0
-9328 9196 9287 0
9328 9196 -9287 0
9328 -9196 9287 0
-9329 9330 9332 0
-9329 9332 9411 0
-9329 9330 9411 0
9329 -9332 -9411 0
9329 -9330 -9332 0
9329 -9330 -9411 0
-9330 9201 9331 0
-9330 -9201 -9331 0
9330 -9201 9331 0
9330 9201 -9331 0
-9331 -9199 -9286 0
-9331 9199 9286 0
9331 9199 -9286 0
9331 -9199 9286 0
-9332 9333 9335 0
-9332 9335 9410 0
-9332 9333 9410 0
9332 -9335 -9410 0
9332 -9333 -9335 0
9332 -9333 -9410 0
-9333 9204 9334 0
-9333 -9204 -9334 0
9333 -9204 9334 0
9333 9204 -9334 0
-9334 -9202 -9285 0
-9334 9202 9285 0
9334 9202 -9285 0
9334 -9202 9285 0
-9335 9336 9338 0
-9335 9338 9409 0
-9335 9336 9409 0
9335 -9338 -9409 0
9335 -9336 -9338 0
9335 -9336 -9409 0
-9336 9207 9337 0
-9336 -9207 -9337 0
9336 -9207 9337 0
9336 9207 -9337 0
-9337 -9205 -9284 0
-9337 9205 9284 0
9337 9205 -9284 0
9337 -9205 9284 0
-9338 9339 9341 0
-9338 9341 9408 0
-9338 9339 9408 0
9338 -9341 -9408 0
9338 -9339 -9341 0
9338 -9339 -9408 0
-9339 9210 9340 0
-9339 -9210 -9340 0
9339 -9210 9340 0
9339 9210 -9340 0
-9340 -9208 -9283 0
-9340 9208 9283 0
9340 9208 -9283 0
9340 -9208 9283 0
-9341 9342 9344 0
-9341 9344 9407 0
-9341 9342 9407 0
9341 -9344 -9407 0
9341 -9342 -9344 0
9341 -9342 -9407 0
-9342 9213 9343 0
-9342 -9213 -9343 0
9342 -9213 9343 0
9342 9213 -9343 0
-9343 -9211 -9282 0
-9343 9211 9282 0
9343 9211 -9282 0
9343 -9211 9282 0
-9344 9345 9347 0
-9344 9347 9406 0
-9344 9345 9406 0
9344 -9347 -9406 0
9344 -9345 -9347 0
9344 -9345 -9406 0
-9345 9216 9346 0
-9345 -9216 -9346 0
9345 -9216 9346 0
9345 9216 -9346 0
-9346 -9214 -9281 0
-9346 9214 9281 0
9346 9214 -9281 0
9346 -9214 9281 0
-9347 9348 9350 0
-9347 9350 9405 0
-9347 9348 9405 0
9347 -9350 -9405 0
9347 -9348 -9350 0
9347 -9348 -9405 0
-9348 9219 9349 0
-9348 -9219 -9349 0
9348 -9219 9349 0
9348 9219 -9349 0
-9349 -9217 -9280 0
-9349 9217 9280 0
9349 9217 -9280 0
9349 -9217 9280 0
-9350 9351 9353 0
-9350 9353 9404 0
-9350 9351 9404 0
9350 -9353 -9404 0
9350 -9351 -9353 0
9350 -9351 -9404 0
-9351 9222 9352 0
-9351 -9222 -9352 0
9351 -9222 9352 0
9351 9222 -9352 0
-9352 -9220 -9279 0
-9352 9220 9279 0
9352 9220 -9279 0
9352 -9220 9279 0
-9353 9354 9356 0
-9353 9356 9403 0
-9353 9354 9403 0
9353 -9356 -9403 0
9353 -9354 -9356 0
9353 -9354 -9403 0
-9354 9225 9355 0
-9354 -9225 -9355 0
9354 -9225 9355 0
9354 9225 -9355 0
-9355 -9223 -9278 0
-9355 9223 9278 0
9355 9223 -9278 0
9355 -9223 9278 0
-9356 9357 9359 0
-9356 9359 9402 0
-9356 9357 9402 0
9356 -9359 -9402 0
9356 -9357 -9359 0
9356 -9357 -9402 0
-9357 9228 9358 0
-9357 -9228 -9358 0
9357 -9228 9358 0
9357 9228 -9358 0
-9358 -9226 -9277 0
-9358 9226 9277 0
9358 9226 -9277 0
9358 -9226 9277 0
-9359 9360 9362 0
-9359 9362 9401 0
-9359 9360 9401 0
9359 -9362 -9401 0
9359 -9360 -9362 0
9359 -9360 -9401 0
-9360 9231 9361 0
-9360 -9231 -9361 0
9360 -9231 9361 0
9360 9231 -9361 0
-9361 -9229 -9276 0
-9361 9229 9276 0
9361 9229 -9276 0
9361 -9229 9276 0
-9362 9363 9365 0
-9362 9365 9400 0
-9362 9363 9400 0
9362 -9365 -9400 0
9362 -9363 -9365 0
9362 -9363 -9400 0
-9363 9234 9364 0
-9363 -9234 -9364 0
9363 -9234 9364 0
9363 9234 -9364 0
-9364 -9232 -9275 0
-9364 9232 9275 0
9364 9232 -9275 0
9364 -9232 9275 0
-9365 9366 9368 0
-9365 9368 9399 0
-9365 9366 9399 0
9365 -9368 -9399 0
9365 -9366 -9368 0
9365 -9366 -9399 0
-9366 9237 9367 0
-9366 -9237 -9367 0
9366 -9237 9367 0
9366 9237 -9367 0
-9367 -9235 -9274 0
-9367 9235 9274 0
9367 9235 -9274 0
9367 -9235 9274 0
-9368 9369 9371 0
-9368 9371 9398 0
-9368 9369 9398 0
9368 -9371 -9398 0
9368 -9369 -9371 0
9368 -9369 -9398 0
-9369 9240 9370 0
-9369 -9240 -9370 0
9369 -9240 9370 0
9369 9240 -9370 0
-9370 -9238 -9273 0
-9370 9238 9273 0
9370 9238 -9273 0
9370 -9238 9273 0
-9371 9372 9374 0
-9371 9374 9397 0
-9371 9372 9397 0
9371 -9374 -9397 0
9371 -9372 -9374 0
9371 -9372 -9397 0
-9372 9243 9373 0
-9372 -9243 -9373 0
9372 -9243 9373 0
9372 9243 -9373 0
-9373 -9241 -9272 0
-9373 9241 9272 0
9373 9241 -9272 0
9373 -9241 9272 0
-9374 9375 9377 0
-9374 9377 9396 0
-9374 9375 9396 0
9374 -9377 -9396 0
9374 -9375 -9377 0
9374 -9375 -9396 0
-9375 9246 9376 0
-9375 -9246 -9376 0
9375 -9246 9376 0
9375 9246 -9376 0
-9376 -9244 -9271 0
-9376 9244 9271 0
9376 9244 -9271 0
9376 -9244 9271 0
-9377 9378 9380 0
-9377 9380 9395 0
-9377 9378 9395 0
9377 -9380 -9395 0
9377 -9378 -9380 0
9377 -9378 -9395 0
-9378 9249 9379 0
-9378 -9249 -9379 0
9378 -9249 9379 0
9378 9249 -9379 0
-9379 -9247 -9270 0
-9379 9247 9270 0
9379 9247 -9270 0
9379 -9247 9270 0
-9380 9381 9383 0
-9380 9383 9394 0
-9380 9381 9394 0
9380 -9383 -9394 0
9380 -9381 -9383 0
9380 -9381 -9394 0
-9381 9252 9382 0
-9381 -9252 -9382 0
9381 -9252 9382 0
9381 9252 -9382 0
-9382 -9250 -9269 0
-9382 9250 9269 0
9382 9250 -9269 0
9382 -9250 9269 0
-9383 9384 9386 0
-9383 9386 9393 0
-9383 9384 9393 0
9383 -9386 -9393 0
9383 -9384 -9386 0
9383 -9384 -9393 0
-9384 9255 9385 0
-9384 -9255 -9385 0
9384 -9255 9385 0
9384 9255 -9385 0
-9385 -9253 -9268 0
-9385 9253 9268 0
9385 9253 -9268 0
9385 -9253 9268 0
-9386 9389 9392 0
-9386 9387 9389 0
-9386 9387 9392 0
9386 -9387 -9389 0
9386 -9389 -9392 0
9386 -9387 -9392 0
-9387 9258 9388 0
-9387 -9258 -9388 0
9387 -9258 9388 0
9387 9258 -9388 0
-9388 -9256 -9267 0
-9388 9256 9267 0
9388 9256 -9267 0
9388 -9256 9267 0
9389 -5199 -9390 0
-9389 5199 0
-9389 9390 0
-9390 9261 9391 0
-9390 -9261 -9391 0
9390 -9261 9391 0
9390 9261 -9391 0
-9391 -9259 -9266 0
-9391 9259 9266 0
9391 9259 -9266 0
9391 -9259 9266 0
9392 9869 -9870 -5200 0
9392 -9870 9931 -5200 0
9392 -9869 9870 -9931 -5200 0
-9392 9870 9931 0
-9392 9869 9870 0
-9392 5200 0
-9392 -9869 -9870 -9931 0
9393 -9871 9931 -5200 0
9393 -9871 69 -5200 0
9393 9871 -9931 -69 -5200 0
-9393 9871 69 0
-9393 -9871 -9931 -69 0
-9393 5200 0
-9393 9871 9931 0
9394 -9872 9931 -5200 0
9394 -9872 68 -5200 0
9394 9872 -9931 -68 -5200 0
-9394 9872 68 0
-9394 -9872 -9931 -68 0
-9394 5200 0
-9394 9872 9931 0
9395 -9873 9931 -5200 0
9395 -9873 67 -5200 0
9395 9873 -9931 -67 -5200 0
-9395 9873 67 0
-9395 -9873 -9931 -67 0
-9395 5200 0
-9395 9873 9931 0
9396 -9874 9931 -5200 0
9396 -9874 66 -5200 0
9396 9874 -9931 -66 -5200 0
-9396 9874 66 0
-9396 -9874 -9931 -66 0
-9396 5200 0
-9396 9874 9931 0
9397 -9875 9931 -5200 0
9397 -9875 65 -5200 0
9397 9875 -9931 -65 -5200 0
-9397 9875 65 0
-9397 -9875 -9931 -65 0
-9397 5200 0
-9397 9875 9931 0
9398 -9876 9931 -5200 0
9398 -9876 64 -5200 0
9398 9876 -9931 -64 -5200 0
-9398 9876 64 0
-9398 -9876 -9931 -64 0
-9398 5200 0
-9398 9876 9931 0
9399 -9877 9931 -5200 0
9399 -9877 63 -5200 0
9399 9877 -9931 -63 -5200 0
-9399 9877 63 0
-9399 -9877 -9931 -63 0
-9399 5200 0
-9399 9877 9931 0
9400 -9878 9931 -5200 0
9400 -9878 62 -5200 0
9400 9878 -9931 -62 -5200 0
-9400 9878 62 0
-9400 -9878 -9931 -62 0
-9400 5200 0
-9400 9878 9931 0
9401 -9879 9931 -5200 0
9401 -9879 61 -5200 0
9401 9879 -9931 -61 -5200 0
-9401 9879 61 0
-9401 -9879 -9931 -61 0
-9401 5200 0
-9401 9879 9931 0
9402 -9880 9931 -5200 0
9402 -9880 60 -5200 0
9402 9880 -9931 -60 -5200 0
-9402 9880 60 0
-9402 -9880 -9931 -60 0
-9402 5200 0
-9402 9880 9931 0
9403 -9881 9931 -5200 0
9403 -9881 59 -5200 0
9403 9881 -9931 -59 -5200 0
-9403 9881 59 0
-9403 -9881 -9931 -59 0
-9403 5200 0
-9403 9881 9931 0
9404 -9882 9931 -5200 0
9404 -9882 58 -5200 0
9404 9882 -9931 -58 -5200 0
-9404 9882 58 0
-9404 -9882 -9931 -58 0
-9404 5200 0
-9404 9882 9931 0
9405 -9883 9931 -5200 0
9405 -9883 57 -5200 0
9405 9883 -9931 -57 -5200 0
-9405 9883 57 0
-9405 -9883 -9931 -57 0
-9405 5200 0
-9405 9883 9931 0
9406 -9884 9931 -5200 0
9406 -9884 56 -5200 0
9406 9884 -9931 -56 -5200 0
-9406 9884 56 0
-9406 -9884 -9931 -56 0
-9406 5200 0
-9406 9884 9931 0
9407 -9885 9931 -5200 0
9407 -9885 55 -5200 0
9407 9885 -9931 -55 -5200 0
-9407 9885 55 0
-9407 -9885 -9931 -55 0
-9407 5200 0
-9407 9885 9931 0
9408 -9886 9931 -5200 0
9408 -9886 54 -5200 0
9408 9886 -9931 -54 -5200 0
-9408 9886 54 0
-9408 -9886 -9931 -54 0
-9408 5200 0
-9408 9886 9931 0
9409 -9887 9931 -5200 0
9409 -9887 53 -5200 0
9409 9887 -9931 -53 -5200 0
-9409 9887 53 0
-9409 -9887 -9931 -53 0
-9409 5200 0
-9409 9887 9931 0
9410 -9888 9931 -5200 0
9410 -9888 52 -5200 0
9410 9888 -9931 -52 -5200 0
-9410 9888 52 0
-9410 -9888 -9931 -52 0
-9410 5200 0
-9410 9888 9931 0
9411 -9889 9931 -5200 0
9411 -9889 51 -5200 0
9411 9889 -9931 -51 -5200 0
-9411 9889 51 0
-9411 -9889 -9931 -51 0
-9411 5200 0
-9411 9889 9931 0
9412 -9890 9931 -5200 0
9412 -9890 50 -5200 0
9412 9890 -9931 -50 -5200 0
-9412 9890 50 0
-9412 -9890 -9931 -50 0
-9412 5200 0
-9412 9890 9931 0
9413 -9891 9931 -5200 0
9413 -9891 49 -5200 0
9413 9891 -9931 -49 -5200 0
-9413 9891 49 0
-9413 -9891 -9931 -49 0
-9413 5200 0
-9413 9891 9931 0
9414 -9892 9931 -5200 0
9414 -9892 48 -5200 0
9414 9892 -9931 -48 -5200 0
-9414 9892 48 0
-9414 -9892 -9931 -48 0
-9414 5200 0
-9414 9892 9931 0
9415 -9893 9931 -5200 0
9415 -9893 47 -5200 0
9415 9893 -9931 -47 -5200 0
-9415 9893 47 0
-9415 -9893 -9931 -47 0
-9415 5200 0
-9415 9893 9931 0
9416 -9894 9931 -5200 0
9416 -9894 46 -5200 0
9416 9894 -9931 -46 -5200 0
-9416 9894 46 0
-9416 -9894 -9931 -46 0
-9416 5200 0
-9416 9894 9931 0
9417 -9895 9931 -5200 0
9417 -9895 45 -5200 0
9417 9895 -9931 -45 -5200 0
-9417 9895 45 0
-9417 -9895 -9931 -45 0
-9417 5200 0
-9417 9895 9931 0
9418 -9896 9931 -5200 0
9418 -9896 44 -5200 0
9418 9896 -9931 -44 -5200 0
-9418 9896 44 0
-9418 -9896 -9931 -44 0
-9418 5200 0
-9418 9896 9931 0
9419 -9897 9931 -5200 0
9419 -9897 43 -5200 0
9419 9897 -9931 -43 -5200 0
-9419 9897 43 0
-9419 -9897 -9931 -43 0
-9419 5200 0
-9419 9897 9931 0
9420 -9898 9931 -5200 0
9420 -9898 42 -5200 0
9420 9898 -9931 -42 -5200 0
-9420 9898 42 0
-9420 -9898 -9931 -42 0
-9420 5200 0
-9420 9898 9931 0
9421 -9899 9931 -5200 0
9421 -9899 41 -5200 0
9421 9899 -9931 -41 -5200 0
-9421 9899 41 0
-9421 -9899 -9931 -41 0
-9421 5200 0
-9421 9899 9931 0
9422 -9900 9931 -5200 0
9422 -9900 40 -5200 0
9422 9900 -9931 -40 -5200 0
-9422 9900 40 0
-9422 -9900 -9931 -40 0
-9422 5200 0
-9422 9900 9931 0
9423 9931 -9932 -39 0
-9423 -9931 0
-9423 9932 0
-9423 39 0
-9424 5585 9425 0
-9424 9425 9550 0
-9424 5585 9550 0
9424 -9425 -9550 0
9424 -5585 -9425 0
9424 -5585 -9550 0
-9425 9426 9428 0
-9425 9428 9549 0
-9425 9426 9549 0
9425 -9428 -9549 0
9425 -9426 -9428 0
9425 -9426 -9549 0
-9426 9299 9427 0
-9426 -9299 -9427 0
9426 -9299 9427 0
9426 9299 -9427 0
-9427 -5587 -9422 0
-9427 5587 9422 0
9427 5587 -9422 0
9427 -5587 9422 0
-9428 9429 9431 0
-9428 9431 9548 0
-9428 9429 9548 0
9428 -9431 -9548 0
9428 -9429 -9431 0
9428 -9429 -9548 0
-9429 9302 9430 0
-9429 -9302 -9430 0
9429 -9302 9430 0
9429 9302 -9430 0
-9430 -9300 -9421 0
-9430 9300 9421 0
9430 9300 -9421 0
9430 -9300 9421 0
-9431 9432 9434 0
-9431 9434 9547 0
-9431 9432 9547 0
9431 -9434 -9547 0
9431 -9432 -9434 0
9431 -9432 -9547 0
-9432 9305 9433 0
-9432 -9305 -9433 0
9432 -9305 9433 0
9432 9305 -9433 0
-9433 -9303 -9420 0
-9433 9303 9420 0
9433 9303 -9420 0
9433 -9303 9420 0
-9434 9435 9437 0
-9434 9437 9546 0
-9434 9435 9546 0
9434 -9437 -9546 0
9434 -9435 -9437 0
9434 -9435 -9546 0
-9435 9308 9436 0
-9435 -9308 -9436 0
9435 -9308 9436 0
9435 9308 -9436 0
-9436 -9306 -9419 0
-9436 9306 9419 0
9436 9306 -9419 0
9436 -9306 9419 0
-9437 9438 9440 0
-9437 9440 9545 0
-9437 9438 9545 0
9437 -9440 -9545 0
9437 -9438 -9440 0
9437 -9438 -9545 0
-9438 9311 9439 0
-9438 -9311 -9439 0
9438 -9311 9439 0
9438 9311 -9439 0
-9439 -9309 -9418 0
-9439 9309 9418 0
9439 9309 -9418 0
9439 -9309 9418 0
-9440 9441 9443 0
-9440 9443 9544 0
-9440 9441 9544 0
9440 -9443 -9544 0
9440 -9441 -9443 0
9440 -9441 -9544 0
-9441 9314 9442 0
-9441 -9314 -9442 0
9441 -9314 9442 0
9441 9314 -9442 0
-9442 -9312 -9417 0
-9442 9312 9417 0
9442 9312 -9417 0
9442 -9312 9417 0
-9443 9444 9446 0
-9443 9446 9543 0
-9443 9444 9543 0
9443 -9446 -9543 0
9443 -9444 -9446 0
9443 -9444 -9543 0
-9444 9317 9445 0
-9444 -9317 -9445 0
9444 -9317 9445 0
9444 9317 -9445 0
-9445 -9315 -9416 0
-9445 9315 9416 0
9445 9315 -9416 0
9445 -9315 9416 0
-9446 9447 9449 0
-9446 9449 9542 0
-9446 9447 9542 0
9446 -9449 -9542 0
9446 -9447 -9449 0
9446 -9447 -9542 0
-9447 9320 9448 0
-9447 -9320 -9448 0
9447 -9320 9448 0
9447 9320 -9448 0
-9448 -9318 -9415 0
-9448 9318 9415 0
9448 9318 -9415 0
9448 -9318 9415 0
-9449 9450 9452 0
-9449 9452 9541 0
-9449 9450 9541 0
9449 -9452 -9541 0
9449 -9450 -9452 0
9449 -9450 -9541 0
-9450 9323 9451 0
-9450 -9323 -9451 0
9450 -9323 9451 0
9450 9323 -9451 0
-9451 -9321 -9414 0
-9451 9321 9414 0
9451 9321 -9414 0
9451 -9321 9414 0
-9452 9453 9455 0
-9452 9455 9540 0
-9452 9453 9540 0
9452 -9455 -9540 0
9452 -9453 -9455 0
9452 -9453 -9540 0
-9453 9326 9454 0
-9453 -9326 -9454 0
9453 -9326 9454 0
9453 9326 -9454 0
-9454 -9324 -9413 0
-9454 9324 9413 0
9454 9324 -9413 0
9454 -9324 9413 0
-9455 9456 9458 0
-9455 9458 9539 0
-9455 9456 9539 0
9455 -9458 -9539 0
9455 -9456 -9458 0
9455 -9456 -9539 0
-9456 9329 9457 0
-9456 -9329 -9457 0
9456 -9329 9457 0
9456 9329 -9457 0
-9457 -9327 -9412 0
-9457 9327 9412 0
9457 9327 -9412 0
9457 -9327 9412 0
-9458 9459 9461 0
-9458 9461 9538 0
-9458 9459 9538 0
9458 -9461 -9538 0
9458 -9459 -9461 0
9458 -9459 -9538 0
-9459 9332 9460 0
-9459 -9332 -9460 0
9459 -9332 9460 0
9459 9332 -9460 0
-9460 -9330 -9411 0
-9460 9330 9411 0
9460 9330 -9411 0
9460 -9330 9411 0
-9461 9462 9464 0
-9461 9464 9537 0
-9461 9462 9537 0
9461 -9464 -9537 0
9461 -9462 -9464 0
9461 -9462 -9537 0
-9462 9335 9463 0
-9462 -9335 -9463 0
9462 -9335 9463 0
9462 9335 -9463 0
-9463 -9333 -9410 0
-9463 9333 9410 0
9463 9333 -9410 0
9463 -9333 9410 0
-9464 9465 9467 0
-9464 9467 9536 0
-9464 9465 9536 0
9464 -9467 -9536 0
9464 -9465 -9467 0
9464 -9465 -9536 0
-9465 9338 9466 0
-9465 -9338 -9466 0
9465 -9338 9466 0
9465 9338 -9466 0
-9466 -9336 -9409 0
-9466 9336 9409 0
9466 9336 -9409 0
9466 -9336 9409 0
-9467 9468 9470 0
-9467 9470 9535 0
-9467 9468 9535 0
9467 -9470 -9535 0
9467 -9468 -9470 0
9467 -9468 -9535 0
-9468 9341 9469 0
-9468 -9341 -9469 0
9468 -9341 9469 0
9468 9341 -9469 0
-9469 -9339 -9408 0
-9469 9339 9408 0
9469 9339 -9408 0
9469 -9339 9408 0
-9470 9471 9473 0
-9470 9473 9534 0
-9470 9471 9534 0
9470 -9473 -9534 0
9470 -9471 -9473 0
9470 -9471 -9534 0
-9471 9344 9472 0
-9471 -9344 -9472 0
9471 -9344 9472 0
9471 9344 -9472 0
-9472 -9342 -9407 0
-9472 9342 9407 0
9472 9342 -9407 0
9472 -9342 9407 0
-9473 9474 9476 0
-9473 9476 9533 0
-9473 9474 9533 0
9473 -9476 -9533 0
9473 -9474 -9476 0
9473 -9474 -9533 0
-9474 9347 9475 0
-9474 -9347 -9475 0
9474 -9347 9475 0
9474 9347 -9475 0
-9475 -9345 -9406 0
-9475 9345 9406 0
9475 9345 -9406 0
9475 -9345 9406 0
-9476 9477 9479 0
-9476 9479 9532 0
-9476 9477 9532 0
9476 -9479 -9532 0
9476 -9477 -9479 0
9476 -9477 -9532 0
-9477 9350 9478 0
-9477 -9350 -9478 0
9477 -9350 9478 0
9477 9350 -9478 0
-9478 -9348 -9405 0
-9478 9348 9405 0
9478 9348 -9405 0
9478 -9348 9405 0
-9479 9480 9482 0
-9479 9482 9531 0
-9479 9480 9531 0
9479 -9482 -9531 0
9479 -9480 -9482 0
9479 -9480 -9531 0
-9480 9353 9481 0
-9480 -9353 -9481 0
9480 -9353 9481 0
9480 9353 -9481 0
-9481 -9351 -9404 0
-9481 9351 9404 0
9481 9351 -9404 0
9481 -9351 9404 0
-9482 9483 9485 0
-9482 9485 9530 0
-9482 9483 9530 0
9482 -9485 -9530 0
9482 -9483 -9485 0
9482 -9483 -9530 0
-9483 9356 9484 0
-9483 -9356 -9484 0
9483 -9356 9484 0
9483 9356 -9484 0
-9484 -9354 -9403 0
-9484 9354 9403 0
9484 9354 -9403 0
9484 -9354 9403 0
-9485 9486 9488 0
-9485 9488 9529 0
-9485 9486 9529 0
9485 -9488 -9529 0
9485 -9486 -9488 0
9485 -9486 -9529 0
-9486 9359 9487 0
-9486 -9359 -9487 0
9486 -9359 9487 0
9486 9359 -9487 0
-9487 -9357 -9402 0
-9487 9357 9402 0
9487 9357 -9402 0
9487 -9357 9402 0
-9488 9489 9491 0
-9488 9491 9528 0
-9488 9489 9528 0
9488 -9491 -9528 0
9488 -9489 -9491 0
9488 -9489 -9528 0
-9489 9362 9490 0
-9489 -9362 -9490 0
9489 -9362 9490 0
9489 9362 -9490 0
-9490 -9360 -9401 0
-9490 9360 9401 0
9490 9360 -9401 0
9490 -9360 9401 0
-9491 9492 9494 0
-9491 9494 9527 0
-9491 9492 9527 0
9491 -9494 -9527 0
9491 -9492 -9494 0
9491 -9492 -9527 0
-9492 9365 9493 0
-9492 -9365 -9493 0
9492 -9365 9493 0
9492 9365 -9493 0
-9493 -9363 -9400 0
-9493 9363 9400 0
9493 9363 -9400 0
9493 -9363 9400 0
-9494 9495 9497 0
-9494 9497 9526 0
-9494 9495 9526 0
9494 -9497 -9526 0
9494 -9495 -9497 0
9494 -9495 -9526 0
-9495 9368 9496 0
-9495 -9368 -9496 0
9495 -9368 9496 0
9495 9368 -9496 0
-9496 -9366 -9399 0
-9496 9366 9399 0
9496 9366 -9399 0
9496 -9366 9399 0
-9497 9498 9500 0
-9497 9500 9525 0
-9497 9498 9525 0
9497 -9500 -9525 0
9497 -9498 -9500 0
9497 -9498 -9525 0
-9498 9371 9499 0
-9498 -9371 -9499 0
9498 -9371 9499 0
9498 9371 -9499 0
-9499 -9369 -9398 0
-9499 9369 9398 0
9499 9369 -9398 0
9499 -9369 9398 0
-9500 9501 9503 0
-9500 9503 9524 0
-9500 9501 9524 0
9500 -9503 -9524 0
9500 -9501 -9503 0
9500 -9501 -9524 0
-9501 9374 9502 0
-9501 -9374 -9502 0
9501 -9374 9502 0
9501 9374 -9502 0
-9502 -9372 -9397 0
-9502 9372 9397 0
9502 9372 -9397 0
9502 -9372 9397 0
-9503 9504 9506 0
-9503 9506 9523 0
-9503 9504 9523 0
9503 -9506 -9523 0
9503 -9504 -9506 0
9503 -9504 -9523 0
-9504 9377 9505 0
-9504 -9377 -9505 0
9504 -9377 9505 0
9504 9377 -9505 0
-9505 -9375 -9396 0
-9505 9375 9396 0
9505 9375 -9396 0
9505 -9375 9396 0
-9506 9507 9509 0
-9506 9509 9522 0
-9506 9507 9522 0
9506 -9509 -9522 0
9506 -9507 -9509 0
9506 -9507 -9522 0
-9507 9380 9508 0
-9507 -9380 -9508 0
9507 -9380 9508 0
9507 9380 -9508 0
-9508 -9378 -9395 0
-9508 9378 9395 0
9508 9378 -9395 0
9508 -9378 9395 0
-9509 9510 9512 0
-9509 9512 9521 0
-9509 9510 9521 0
9509 -9512 -9521 0
9509 -9510 -9512 0
9509 -9510 -9521 0
-9510 9383 9511 0
-9510 -9383 -9511 0
9510 -9383 9511 0
9510 9383 -9511 0
-9511 -9381 -9394 0
-9511 9381 9394 0
9511 9381 -9394 0
9511 -9381 9394 0
-9512 9515 9520 0
-9512 9513 9515 0
-9512 9513 9520 0
9512 -9513 -9515 0
9512 -9515 -9520 0
9512 -9513 -9520 0
-9513 9386 9514 0
-9513 -9386 -9514 0
9513 -9386 9514 0
9513 9386 -9514 0
-9514 -9384 -9393 0
-9514 9384 9393 0
9514 9384 -9393 0
9514 -9384 9393 0
9515 -9516 -9518 0
-9515 9516 0
-9515 9518 0
9516 -9869 -9517 0
-9516 9869 0
-9516 9517 0
-9517 -9931 -9932 0
-9517 9931 9932 0
9517 9931 -9932 0
9517 -9931 9932 0
-9518 9389 9519 0
-9518 -9389 -9519 0
9518 -9389 9519 0
9518 9389 -9519 0
-9519 -9387 -9392 0
-9519 9387 9392 0
9519 9387 -9392 0
9519 -9387 9392 0
9520 9869 -9870 -9517 0
9520 -9870 9932 -9517 0
9520 -9869 9870 -9932 -9517 0
-9520 9870 9932 0
-9520 9869 9870 0
-9520 9517 0
-9520 -9869 -9870 -9932 0
9521 -9871 9932 -9517 0
9521 -9871 69 -9517 0
9521 9871 -9932 -69 -9517 0
-9521 9871 69 0
-9521 -9871 -9932 -69 0
-9521 9517 0
-9521 9871 9932 0
9522 -9872 9932 -9517 0
9522 -9872 68 -9517 0
9522 9872 -9932 -68 -9517 0
-9522 9872 68 0
-9522 -9872 -9932 -68 0
-9522 9517 0
-9522 9872 9932 0
9523 -9873 9932 -9517 0
9523 -9873 67 -9517 0
9523 9873 -9932 -67 -9517 0
-9523 9873 67 0
-9523 -9873 -9932 -67 0
-9523 9517 0
-9523 9873 9932 0
9524 -9874 9932 -9517 0
9524 -9874 66 -9517 0
9524 9874 -9932 -66 -9517 0
-9524 9874 66 0
-9524 -9874 -9932 -66 0
-9524 9517 0
-9524 9874 9932 0
9525 -9875 9932 -9517 0
9525 -9875 65 -9517 0
9525 9875 -9932 -65 -9517 0
-9525 9875 65 0
-9525 -9875 -9932 -65 0
-9525 9517 0
-9525 9875 9932 0
9526 -9876 9932 -9517 0
9526 -9876 64 -9517 0
9526 9876 -9932 -64 -9517 0
-9526 9876 64 0
-9526 -9876 -9932 -64 0
-9526 9517 0
-9526 9876 9932 0
9527 -9877 9932 -9517 0
9527 -9877 63 -9517 0
9527 9877 -9932 -63 -9517 0
-9527 9877 63 0
-9527 -9877 -9932 -63 0
-9527 9517 0
-9527 9877 9932 0
9528 -9878 9932 -9517 0
9528 -9878 62 -9517 0
9528 9878 -9932 -62 -9517 0
-9528 9878 62 0
-9528 -9878 -9932 -62 0
-9528 9517 0
-9528 9878 9932 0
9529 -9879 9932 -9517 0
9529 -9879 61 -9517 0
9529 9879 -9932 -61 -9517 0
-9529 9879 61 0
-9529 -9879 -9932 -61 0
-9529 9517 0
-9529 9879 9932 0
9530 -9880 9932 -9517 0
9530 -9880 60 -9517 0
9530 9880 -9932 -60 -9517 0
-9530 9880 60 0
-9530 -9880 -9932 -60 0
-9530 9517 0
-9530 9880 9932 0
9531 -9881 9932 -9517 0
9531 -9881 59 -9517 0
9531 9881 -9932 -59 -9517 0
-9531 9881 59 0
-9531 -9881 -9932 -59 0
-9531 9517 0
-9531 9881 9932 0
9532 -9882 9932 -9517 0
9532 -9882 58 -9517 0
9532 9882 -9932 -58 -9517 0
-9532 9882 58 0
-9532 -9882 -9932 -58 0
-9532 9517 0
-9532 9882 9932 0
9533 -9883 9932 -9517 0
9533 -9883 57 -9517 0
9533 9883 -9932 -57 -9517 0
-9533 9883 57 0
-9533 -9883 -9932 -57 0
-9533 9517 0
-9533 9883 9932 0
9534 -9884 9932 -9517 0
9534 -9884 56 -9517 0
9534 9884 -9932 -56 -9517 0
-9534 9884 56 0
-9534 -9884 -9932 -56 0
-9534 9517 0
-9534 9884 9932 0
9535 -9885 9932 -9517 0
9535 -9885 55 -9517 0
9535 9885 -9932 -55 -9517 0
-9535 9885 55 0
-9535 -9885 -9932 -55 0
-9535 9517 0
-9535 9885 9932 0
9536 -9886 9932 -9517 0
9536 -9886 54 -9517 0
9536 9886 -9932 -54 -9517 0
-9536 9886 54 0
-9536 -9886 -9932 -54 0
-9536 9517 0
-9536 9886 9932 0
9537 -9887 9932 -9517 0
9537 -9887 53 -9517 0
9537 9887 -9932 -53 -9517 0
-9537 9887 53 0
-9537 -9887 -9932 -53 0
-9537 9517 0
-9537 9887 9932 0
9538 -9888 9932 -9517 0
9538 -9888 52 -9517 0
9538 9888 -9932 -52 -9517 0
-9538 9888 52 0
-9538 -9888 -9932 -52 0
-9538 9517 0
-9538 9888 9932 0
9539 -9889 9932 -9517 0
9539 -9889 51 -9517 0
9539 9889 -9932 -51 -9517 0
-9539 9889 51 0
-9539 -9889 -9932 -51 0
-9539 9517 0
-9539 9889 9932 0
9540 -9890 9932 -9517 0
9540 -9890 50 -9517 0
9540 9890 -9932 -50 -9517 0
-9540 9890 50 0
-9540 -9890 -9932 -50 0
-9540 9517 0
-9540 9890 9932 0
9541 -9891 9932 -9517 0
9541 -9891 49 -9517 0
9541 9891 -9932 -49 -9517 0
-9541 9891 49 0
-9541 -9891 -9932 -49 0
-9541 9517 0
-9541 9891 9932 0
9542 -9892 9932 -9517 0
9542 -9892 48 -9517 0
9542 9892 -9932 -48 -9517 0
-9542 9892 48 0
-9542 -9892 -9932 -48 0
-9542 9517 0
-9542 9892 9932 0
9543 -9893 9932 -9517 0
9543 -9893 47 -9517 0
9543 9893 -9932 -47 -9517 0
-9543 9893 47 0
-9543 -9893 -9932 -47 0
-9543 9517 0
-9543 9893 9932 0
9544 -9894 9932 -9517 0
9544 -9894 46 -9517 0
9544 9894 -9932 -46 -9517 0
-9544 9894 46 0
-9544 -9894 -9932 -46 0
-9544 9517 0
-9544 9894 9932 0
9545 -9895 9932 -9517 0
9545 -9895 45 -9517 0
9545 9895 -9932 -45 -9517 0
-9545 9895 45 0
-9545 -9895 -9932 -45 0
-9545 9517 0
-9545 9895 9932 0
9546 -9896 9932 -9517 0
9546 -9896 44 -9517 0
9546 9896 -9932 -44 -9517 0
-9546 9896 44 0
-9546 -9896 -9932 -44 0
-9546 9517 0
-9546 9896 9932 0
9547 -9897 9932 -9517 0
9547 -9897 43 -9517 0
9547 9897 -9932 -43 -9517 0
-9547 9897 43 0
-9547 -9897 -9932 -43 0
-9547 9517 0
-9547 9897 9932 0
9548 -9898 9932 -9517 0
9548 -9898 42 -9517 0
9548 9898 -9932 -42 -9517 0
-9548 9898 42 0
-9548 -9898 -9932 -42 0
-9548 9517 0
-9548 9898 9932 0
9549 -9899 9932 -9517 0
9549 -9899 41 -9517 0
9549 9899 -9932 -41 -9517 0
-9549 9899 41 0
-9549 -9899 -9932 -41 0
-9549 9517 0
-9549 9899 9932 0
9550 -9900 9932 -9517 0
9550 -9900 40 -9517 0
9550 9900 -9932 -40 -9517 0
-9550 9900 40 0
-9550 -9900 -9932 -40 0
-9550 9517 0
-9550 9900 9932 0
-9551 5580 9552 0
-9551 9552 9554 0
-9551 5580 9554 0
9551 -9552 -9554 0
9551 -5580 -9552 0
9551 -5580 -9554 0
-9552 9425 9553 0
-9552 -9425 -9553 0
9552 -9425 9553 0
9552 9425 -9553 0
-9553 -5585 -9550 0
-9553 5585 9550 0
9553 5585 -9550 0
9553 -5585 9550 0
-9554 5579 9555 0
-9554 9555 9557 0
-9554 5579 9557 0
9554 -9555 -9557 0
9554 -5579 -9555 0
9554 -5579 -9557 0
-9555 9428 9556 0
-9555 -9428 -9556 0
9555 -9428 9556 0
9555 9428 -9556 0
-9556 -9426 -9549 0
-9556 9426 9549 0
9556 9426 -9549 0
9556 -9426 9549 0
-9557 5578 9558 0
-9557 9558 9560 0
-9557 5578 9560 0
9557 -9558 -9560 0
9557 -5578 -9558 0
9557 -5578 -9560 0
-9558 9431 9559 0
-9558 -9431 -9559 0
9558 -9431 9559 0
9558 9431 -9559 0
-9559 -9429 -9548 0
-9559 9429 9548 0
9559 9429 -9548 0
9559 -9429 9548 0
-9560 5577 9561 0
-9560 9561 9563 0
-9560 5577 9563 0
9560 -9561 -9563 0
9560 -5577 -9561 0
9560 -5577 -9563 0
-9561 9434 9562 0
-9561 -9434 -9562 0
9561 -9434 9562 0
9561 9434 -9562 0
-9562 -9432 -9547 0
-9562 9432 9547 0
9562 9432 -9547 0
9562 -9432 9547 0
-9563 5576 9564 0
-9563 9564 9566 0
-9563 5576 9566 0
9563 -9564 -9566 0
9563 -5576 -9564 0
9563 -5576 -9566 0
-9564 9437 9565 0
-9564 -9437 -9565 0
9564 -9437 9565 0
9564 9437 -9565 0
-9565 -9435 -9546 0
-9565 9435 9546 0
9565 9435 -9546 0
9565 -9435 9546 0
-9566 5575 9567 0
-9566 9567 9569 0
-9566 5575 9569 0
9566 -9567 -9569 0
9566 -5575 -9567 0
9566 -5575 -9569 0
-9567 9440 9568 0
-9567 -9440 -9568 0
9567 -9440 9568 0
9567 9440 -9568 0
-9568 -9438 -9545 0
-9568 9438 9545 0
9568 9438 -9545 0
9568 -9438 9545 0
-9569 5574 9570 0
-9569 9570 9572 0
-9569 5574 9572 0
9569 -9570 -9572 0
9569 -5574 -9570 0
9569 -5574 -9572 0
-9570 9443 9571 0
-9570 -9443 -9571 0
9570 -9443 9571 0
9570 9443 -9571 0
-9571 -9441 -9544 0
-9571 9441 9544 0
9571 9441 -9544 0
9571 -9441 9544 0
-9572 5573 9573 0
-9572 9573 9575 0
-9572 5573 9575 0
9572 -9573 -9575 0
9572 -5573 -9573 0
9572 -5573 -9575 0
-9573 9446 9574 0
-9573 -9446 -9574 0
9573 -9446 9574 0
9573 9446 -9574 0
-9574 -9444 -9543 0
-9574 9444 9543 0
9574 9444 -9543 0
9574 -9444 9543 0
-9575 5572 9576 0
-9575 9576 9578 0
-9575 5572 9578 0
9575 -9576 -9578 0
9575 -5572 -9576 0
9575 -5572 -9578 0
-9576 9449 9577 0
-9576 -9449 -9577 0
9576 -9449 9577 0
9576 9449 -9577 0
-9577 -9447 -9542 0
-9577 9447 9542 0
9577 9447 -9542 0
9577 -9447 9542 0
-9578 5571 9579 0
-9578 9579 9581 0
-9578 5571 9581 0
9578 -9579 -9581 0
9578 -5571 -9579 0
9578 -5571 -9581 0
-9579 9452 9580 0
-9579 -9452 -9580 0
9579 -9452 9580 0
9579 9452 -9580 0
-9580 -9450 -9541 0
-9580 9450 9541 0
9580 9450 -9541 0
9580 -9450 9541 0
-9581 5570 9582 0
-9581 9582 9584 0
-9581 5570 9584 0
9581 -9582 -9584 0
9581 -5570 -9582 0
9581 -5570 -9584 0
-9582 9455 9583 0
-9582 -9455 -9583 0
9582 -9455 9583 0
9582 9455 -9583 0
-9583 -9453 -9540 0
-9583 9453 9540 0
9583 9453 -9540 0
9583 -9453 9540 0
-9584 5569 9585 0
-9584 9585 9587 0
-9584 5569 9587 0
9584 -9585 -9587 0
9584 -5569 -9585 0
9584 -5569 -9587 0
-9585 9458 9586 0
-9585 -9458 -9586 0
9585 -9458 9586 0
9585 9458 -9586 0
-9586 -9456 -9539 0
-9586 9456 9539 0
9586 9456 -9539 0
9586 -9456 9539 0
-9587 5568 9588 0
-9587 9588 9590 0
-9587 5568 9590 0
9587 -9588 -9590 0
9587 -5568 -9588 0
9587 -5568 -9590 0
-9588 9461 9589 0
-9588 -9461 -9589 0
9588 -9461 9589 0
9588 9461 -9589 0
-9589 -9459 -9538 0
-9589 9459 9538 0
9589 9459 -9538 0
9589 -9459 9538 0
-9590 5567 9591 0
-9590 9591 9593 0
-9590 5567 9593 0
9590 -9591 -9593 0
9590 -5567 -9591 0
9590 -5567 -9593 0
-9591 9464 9592 0
-9591 -9464 -9592 0
9591 -9464 9592 0
9591 9464 -9592 0
-9592 -9462 -9537 0
-9592 9462 9537 0
9592 9462 -9537 0
9592 -9462 9537 0
-9593 5566 9594 0
-9593 9594 9596 0
-9593 5566 9596 0
9593 -9594 -9596 0
9593 -5566 -9594 0
9593 -5566 -9596 0
-9594 9467 9595 0
-9594 -9467 -9595 0
9594 -9467 9595 0
9594 9467 -9595 0
-9595 -9465 -9536 0
-9595 9465 9536 0
9595 9465 -9536 0
9595 -9465 9536 0
-9596 5565 9597 0
-9596 9597 9599 0
-9596 5565 9599 0
9596 -9597 -9599 0
9596 -5565 -9597 0
9596 -5565 -9599 0
-9597 9470 9598 0
-9597 -9470 -9598 0
9597 -9470 9598 0
9597 9470 -9598 0
-9598 -9468 -9535 0
-9598 9468 9535 0
9598 9468 -9535 0
9598 -9468 9535 0
-9599 5564 9600 0
-9599 9600 9602 0
-9599 5564 9602 0
9599 -9600 -9602 0
9599 -5564 -9600 0
9599 -5564 -9602 0
-9600 9473 9601 0
-9600 -9473 -9601 0
9600 -9473 9601 0
9600 9473 -9601 0
-9601 -9471 -9534 0
-9601 9471 9534 0
9601 9471 -9534 0
9601 -9471 9534 0
-9602 5563 9603 0
-9602 9603 9605 0
-9602 5563 9605 0
9602 -9603 -9605 0
9602 -5563 -9603 0
9602 -5563 -9605 0
-9603 9476 9604 0
-9603 -9476 -9604 0
9603 -9476 9604 0
9603 9476 -9604 0
-9604 -9474 -9533 0
-9604 9474 9533 0
9604 9474 -9533 0
9604 -9474 9533 0
-9605 5562 9606 0
-9605 9606 9608 0
-9605 5562 9608 0
9605 -9606 -9608 0
9605 -5562 -9606 0
9605 -5562 -9608 0
-9606 9479 9607 0
-9606 -9479 -9607 0
9606 -9479 9607 0
9606 9479 -9607 0
-9607 -9477 -9532 0
-9607 9477 9532 0
9607 9477 -9532 0
9607 -9477 9532 0
-9608 5561 9609 0
-9608 9609 9611 0
-9608 5561 9611 0
9608 -9609 -9611 0
9608 -5561 -9609 0
9608 -5561 -9611 0
-9609 9482 9610 0
-9609 -9482 -9610 0
9609 -9482 9610 0
9609 9482 -9610 0
-9610 -9480 -9531 0
-9610 9480 9531 0
9610 9480 -9531 0
9610 -9480 9531 0
-9611 5560 9612 0
-9611 9612 9614 0
-9611 5560 9614 0
9611 -9612 -9614 0
9611 -5560 -9612 0
9611 -5560 -9614 0
-9612 9485 9613 0
-9612 -9485 -9613 0
9612 -9485 9613 0
9612 9485 -9613 0
-9613 -9483 -9530 0
-9613 9483 9530 0
9613 9483 -9530 0
9613 -9483 9530 0
-9614 5559 9615 0
-9614 9615 9617 0
-9614 5559 9617 0
9614 -9615 -9617 0
9614 -5559 -9615 0
9614 -5559 -9617 0
-9615 9488 9616 0
-9615 -9488 -9616 0
9615 -9488 9616 0
9615 9488 -9616 0
-9616 -9486 -9529 0
-9616 9486 9529 0
9616 9486 -9529 0
9616 -9486 9529 0
-9617 5558 9618 0
-9617 9618 9620 0
-9617 5558 9620 0
9617 -9618 -9620 0
9617 -5558 -9618 0
9617 -5558 -9620 0
-9618 9491 9619 0
-9618 -9491 -9619 0
9618 -9491 9619 0
9618 9491 -9619 0
-9619 -9489 -9528 0
-9619 9489 9528 0
9619 9489 -9528 0
9619 -9489 9528 0
-9620 5557 9621 0
-9620 9621 9623 0
-9620 5557 9623 0
9620 -9621 -9623 0
9620 -5557 -9621 0
9620 -5557 -9623 0
-9621 9494 9622 0
-9621 -9494 -9622 0
9621 -9494 9622 0
9621 9494 -9622 0
-9622 -9492 -9527 0
-9622 9492 9527 0
9622 9492 -9527 0
9622 -9492 9527 0
-9623 5556 9624 0
-9623 9624 9626 0
-9623 5556 9626 0
9623 -9624 -9626 0
9623 -5556 -9624 0
9623 -5556 -9626 0
-9624 9497 9625 0
-9624 -9497 -9625 0
9624 -9497 9625 0
9624 9497 -9625 0
-9625 -9495 -9526 0
-9625 9495 9526 0
9625 9495 -9526 0
9625 -9495 9526 0
-9626 5555 9627 0
-9626 9627 9629 0
-9626 5555 9629 0
9626 -9627 -9629 0
9626 -5555 -9627 0
9626 -5555 -9629 0
-9627 9500 9628 0
-9627 -9500 -9628 0
9627 -9500 9628 0
9627 9500 -9628 0
-9628 -9498 -9525 0
-9628 9498 9525 0
9628 9498 -9525 0
9628 -9498 9525 0
-9629 5554 9630 0
-9629 9630 9632 0
-9629 5554 9632 0
9629 -9630 -9632 0
9629 -5554 -9630 0
9629 -5554 -9632 0
-9630 9503 9631 0
-9630 -9503 -9631 0
9630 -9503 9631 0
9630 9503 -9631 0
-9631 -9501 -9524 0
-9631 9501 9524 0
9631 9501 -9524 0
9631 -9501 9524 0
-9632 5553 9633 0
-9632 9633 9635 0
-9632 5553 9635 0
9632 -9633 -9635 0
9632 -5553 -9633 0
9632 -5553 -9635 0
-9633 9506 9634 0
-9633 -9506 -9634 0
9633 -9506 9634 0
9633 9506 -9634 0
-9634 -9504 -9523 0
-9634 9504 9523 0
9634 9504 -9523 0
9634 -9504 9523 0
-9635 5552 9636 0
-9635 9636 9638 0
-9635 5552 9638 0
9635 -9636 -9638 0
9635 -5552 -9636 0
9635 -5552 -9638 0
-9636 9509 9637 0
-9636 -9509 -9637 0
9636 -9509 9637 0
9636 9509 -9637 0
-9637 -9507 -9522 0
-9637 9507 9522 0
9637 9507 -9522 0
9637 -9507 9522 0
-9638 9639 9641 0
-9638 5551 9641 0
-9638 5551 9639 0
9638 -5551 -9641 0
9638 -5551 -9639 0
9638 -9639 -9641 0
-9639 9512 9640 0
-9639 -9512 -9640 0
9639 -9512 9640 0
9639 9512 -9640 0
-9640 -9510 -9521 0
-9640 9510 9521 0
9640 9510 -9521 0
9640 -9510 9521 0
9641 -5548 -9642 0
-9641 5548 0
-9641 9642 0
-9642 9515 9643 0
-9642 -9515 -9643 0
9642 -9515 9643 0
9642 9515 -9643 0
-9643 -9513 -9520 0
-9643 9513 9520 0
9643 9513 -9520 0
9643 -9513 9520 0
-9644 5460 9645 0
-9644 -5460 -9645 0
9644 -5460 9645 0
9644 5460 -9645 0
-9645 -5458 -5580 0
-9645 5458 5580 0
9645 5458 -5580 0
9645 -5458 5580 0
-9646 9554 9647 0
-9646 -9554 -9647 0
9646 -9554 9647 0
9646 9554 -9647 0
-9647 5580 9552 0
-9647 -5580 -9552 0
9647 -5580 9552 0
9647 5580 -9552 0
-9648 9649 -9654 -9656 9658 0
-9648 9649 9654 9656 9658 0
9648 -9658 0
9648 9654 -9656 0
9648 -9649 0
9648 -9654 9656 0
-9649 9650 9652 0
-9649 -9650 -9652 0
9649 -9650 9652 0
9649 9650 -9652 0
-9650 5463 9651 0
-9650 -5463 -9651 0
9650 -5463 9651 0
9650 5463 -9651 0
-9651 -5461 -5579 0
-9651 5461 5579 0
9651 5461 -5579 0
9651 -5461 5579 0
-9652 9557 9653 0
-9652 -9557 -9653 0
9652 -9557 9653 0
9652 9557 -9653 0
-9653 5579 9555 0
-9653 -5579 -9555 0
9653 -5579 9555 0
9653 5579 -9555 0
-9654 5466 9655 0
-9654 -5466 -9655 0
9654 -5466 9655 0
9654 5466 -9655 0
-9655 -5464 -5578 0
-9655 5464 5578 0
9655 5464 -5578 0
9655 -5464 5578 0
-9656 9560 9657 0
-9656 -9560 -9657 0
9656 -9560 9657 0
9656 9560 -9657 0
-9657 5578 9558 0
-9657 -5578 -9558 0
9657 -5578 9558 0
9657 5578 -9558 0
-9658 9659 -9664 -9666 9668 0
-9658 9659 9664 9666 9668 0
9658 -9668 0
9658 9664 -9666 0
9658 -9659 0
9658 -9664 9666 0
-9659 9660 9662 0
-9659 -9660 -9662 0
9659 -9660 9662 0
9659 9660 -9662 0
-9660 5469 9661 0
-9660 -5469 -9661 0
9660 -5469 9661 0
9660 5469 -9661 0
-9661 -5467 -5577 0
-9661 5467 5577 0
9661 5467 -5577 0
9661 -5467 5577 0
-9662 9563 9663 0
-9662 -9563 -9663 0
9662 -9563 9663 0
9662 9563 -9663 0
-9663 5577 9561 0
-9663 -5577 -9561 0
9663 -5577 9561 0
9663 5577 -9561 0
-9664 5472 9665 0
-9664 -5472 -9665 0
9664 -5472 9665 0
9664 5472 -9665 0
-9665 -5470 -5576 0
-9665 5470 5576 0
9665 5470 -5576 0
9665 -5470 5576 0
-9666 9566 9667 0
-9666 -9566 -9667 0
9666 -9566 9667 0
9666 9566 -9667 0
-9667 5576 9564 0
-9667 -5576 -9564 0
9667 -5576 9564 0
9667 5576 -9564 0
-9668 9669 -9674 -9676 9678 0
-9668 9669 9674 9676 9678 0
9668 -9678 0
9668 9674 -9676 0
9668 -9669 0
9668 -9674 9676 0
-9669 9670 9672 0
-9669 -9670 -9672 0
9669 -9670 9672 0
9669 9670 -9672 0
-9670 5475 9671 0
-9670 -5475 -9671 0
9670 -5475 9671 0
9670 5475 -9671 0
-9671 -5473 -5575 0
-9671 5473 5575 0
9671 5473 -5575 0
9671 -5473 5575 0
-9672 9569 9673 0
-9672 -9569 -9673 0
9672 -9569 9673 0
9672 9569 -9673 0
-9673 5575 9567 0
-9673 -5575 -9567 0
9673 -5575 9567 0
9673 5575 -9567 0
-9674 5478 9675 0
-9674 -5478 -9675 0
9674 -5478 9675 0
9674 5478 -9675 0
-9675 -5476 -5574 0
-9675 5476 5574 0
9675 5476 -5574 0
9675 -5476 5574 0
-9676 9572 9677 0
-9676 -9572 -9677 0
9676 -9572 9677 0
9676 9572 -9677 0
-9677 5574 9570 0
-9677 -5574 -9570 0
9677 -5574 9570 0
9677 5574 -9570 0
-9678 9679 -9684 -9686 9688 0
-9678 9679 9684 9686 9688 0
9678 -9688 0
9678 9684 -9686 0
9678 -9679 0
9678 -9684 9686 0
-9679 9680 9682 0
-9679 -9680 -9682 0
9679 -9680 9682 0
9679 9680 -9682 0
-9680 5481 9681 0
-9680 -5481 -9681 0
9680 -5481 9681 0
9680 5481 -9681 0
-9681 -5479 -5573 0
-9681 5479 5573 0
9681 5479 -5573 0
9681 -5479 5573 0
-9682 9575 9683 0
-9682 -9575 -9683 0
9682 -9575 9683 0
9682 9575 -9683 0
-9683 5573 9573 0
-9683 -5573 -9573 0
9683 -5573 9573 0
9683 5573 -9573 0
-9684 5484 9685 0
-9684 -5484 -9685 0
9684 -5484 9685 0
9684 5484 -9685 0
-9685 -5482 -5572 0
-9685 5482 5572 0
9685 5482 -5572 0
9685 -5482 5572 0
-9686 9578 9687 0
-9686 -9578 -9687 0
9686 -9578 9687 0
9686 9578 -9687 0
-9687 5572 9576 0
-9687 -5572 -9576 0
9687 -5572 9576 0
9687 5572 -9576 0
-9688 9689 -9694 -9696 9698 0
-9688 9689 9694 9696 9698 0
9688 -9698 0
9688 9694 -9696 0
9688 -9689 0
9688 -9694 9696 0
-9689 9690 9692 0
-9689 -9690 -9692 0
9689 -9690 9692 0
9689 9690 -9692 0
-9690 5487 9691 0
-9690 -5487 -9691 0
9690 -5487 9691 0
9690 5487 -9691 0
-9691 -5485 -5571 0
-9691 5485 5571 0
9691 5485 -5571 0
9691 -5485 5571 0
-9692 9581 9693 0
-9692 -9581 -9693 0
9692 -9581 9693 0
9692 9581 -9693 0
-9693 5571 9579 0
-9693 -5571 -9579 0
9693 -5571 9579 0
9693 5571 -9579 0
-9694 5490 9695 0
-9694 -5490 -9695 0
9694 -5490 9695 0
9694 5490 -9695 0
-9695 -5488 -5570 0
-9695 5488 5570 0
9695 5488 -5570 0
9695 -5488 5570 0
-9696 9584 9697 0
-9696 -9584 -9697 0
9696 -9584 9697 0
9696 9584 -9697 0
-9697 5570 9582 0
-9697 -5570 -9582 0
9697 -5570 9582 0
9697 5570 -9582 0
-9698 9699 -9704 -9706 9708 0
-9698 9699 9704 9706 9708 0
9698 -9708 0
9698 9704 -9706 0
9698 -9699 0
9698 -9704 9706 0
-9699 9700 9702 0
-9699 -9700 -9702 0
9699 -9700 9702 0
9699 9700 -9702 0
-9700 5493 9701 0
-9700 -5493 -9701 0
9700 -5493 9701 0
9700 5493 -9701 0
-9701 -5491 -5569 0
-9701 5491 5569 0
9701 5491 -5569 0
9701 -5491 5569 0
-9702 9587 9703 0
-9702 -9587 -9703 0
9702 -9587 9703 0
9702 9587 -9703 0
-9703 5569 9585 0
-9703 -5569 -9585 0
9703 -5569 9585 0
9703 5569 -9585 0
-9704 5496 9705 0
-9704 -5496 -9705 0
9704 -5496 9705 0
9704 5496 -9705 0
-9705 -5494 -5568 0
-9705 5494 5568 0
9705 5494 -5568 0
9705 -5494 5568 0
-9706 9590 9707 0
-9706 -9590 -9707 0
9706 -9590 9707 0
9706 9590 -9707 0
-9707 5568 9588 0
-9707 -5568 -9588 0
9707 -5568 9588 0
9707 5568 -9588 0
-9708 9709 -9714 -9716 9718 0
-9708 9709 9714 9716 9718 0
9708 -9718 0
9708 9714 -9716 0
9708 -9709 0
9708 -9714 9716 0
-9709 9710 9712 0
-9709 -9710 -9712 0
9709 -9710 9712 0
9709 9710 -9712 0
-9710 5499 9711 0
-9710 -5499 -9711 0
9710 -5499 9711 0
9710 5499 -9711 0
-9711 -5497 -5567 0
-9711 5497 5567 0
9711 5497 -5567 0
9711 -5497 5567 0
-9712 9593 9713 0
-9712 -9593 -9713 0
9712 -9593 9713 0
9712 9593 -9713 0
-9713 5567 9591 0
-9713 -5567 -9591 0
9713 -5567 9591 0
9713 5567 -9591 0
-9714 5502 9715 0
-9714 -5502 -9715 0
9714 -5502 9715 0
9714 5502 -9715 0
-9715 -5500 -5566 0
-9715 5500 5566 0
9715 5500 -5566 0
9715 -5500 5566 0
-9716 9596 9717 0
-9716 -9596 -9717 0
9716 -9596 9717 0
9716 9596 -9717 0
-9717 5566 9594 0
-9717 -5566 -9594 0
9717 -5566 9594 0
9717 5566 -9594 0
-9718 9719 -9724 -9726 9728 0
-9718 9719 9724 9726 9728 0
9718 -9728 0
9718 9724 -9726 0
9718 -9719 0
9718 -9724 9726 0
-9719 9720 9722 0
-9719 -9720 -9722 0
9719 -9720 9722 0
9719 9720 -9722 0
-9720 5505 9721 0
-9720 -5505 -9721 0
9720 -5505 9721 0
9720 5505 -9721 0
-9721 -5503 -5565 0
-9721 5503 5565 0
9721 5503 -5565 0
9721 -5503 5565 0
-9722 9599 9723 0
-9722 -9599 -9723 0
9722 -9599 9723 0
9722 9599 -9723 0
-9723 5565 9597 0
-9723 -5565 -9597 0
9723 -5565 9597 0
9723 5565 -9597 0
-9724 5508 9725 0
-9724 -5508 -9725 0
9724 -5508 9725 0
9724 5508 -9725 0
-9725 -5506 -5564 0
-9725 5506 5564 0
9725 5506 -5564 0
9725 -5506 5564 0
-9726 9602 9727 0
-9726 -9602 -9727 0
9726 -9602 9727 0
9726 9602 -9727 0
-9727 5564 9600 0
-9727 -5564 -9600 0
9727 -5564 9600 0
9727 5564 -9600 0
-9728 9729 -9734 -9736 9738 0
-9728 9729 9734 9736 9738 0
9728 -9738 0
9728 9734 -9736 0
9728 -9729 0
9728 -9734 9736 0
-9729 9730 9732 0
-9729 -9730 -9732 0
9729 -9730 9732 0
9729 9730 -9732 0
-9730 5511 9731 0
-9730 -5511 -9731 0
9730 -5511 9731 0
9730 5511 -9731 0
-9731 -5509 -5563 0
-9731 5509 5563 0
9731 5509 -5563 0
9731 -5509 5563 0
-9732 9605 9733 0
-9732 -9605 -9733 0
9732 -9605 9733 0
9732 9605 -9733 0
-9733 5563 9603 0
-9733 -5563 -9603 0
9733 -5563 9603 0
9733 5563 -9603 0
-9734 5514 9735 0
-9734 -5514 -9735 0
9734 -5514 9735 0
9734 5514 -9735 0
-9735 -5512 -5562 0
-9735 5512 5562 0
9735 5512 -5562 0
9735 -5512 5562 0
-9736 9608 9737 0
-9736 -9608 -9737 0
9736 -9608 9737 0
9736 9608 -9737 0
-9737 5562 9606 0
-9737 -5562 -9606 0
9737 -5562 9606 0
9737 5562 -9606 0
-9738 9739 -9744 -9746 9748 0
-9738 9739 9744 9746 9748 0
9738 -9748 0
9738 9744 -9746 0
9738 -9739 0
9738 -9744 9746 0
-9739 9740 9742 0
-9739 -9740 -9742 0
9739 -9740 9742 0
9739 9740 -9742 0
-9740 5517 9741 0
-9740 -5517 -9741 0
9740 -5517 9741 0
9740 5517 -9741 0
-9741 -5515 -5561 0
-9741 5515 5561 0
9741 5515 -5561 0
9741 -5515 5561 0
-9742 9611 9743 0
-9742 -9611 -9743 0
9742 -9611 9743 0
9742 9611 -9743 0
-9743 5561 9609 0
-9743 -5561 -9609 0
9743 -5561 9609 0
9743 5561 -9609 0
-9744 5520 9745 0
-9744 -5520 -9745 0
9744 -5520 9745 0
9744 5520 -9745 0
-9745 -5518 -5560 0
-9745 5518 5560 0
9745 5518 -5560 0
9745 -5518 5560 0
-9746 9614 9747 0
-9746 -9614 -9747 0
9746 -9614 9747 0
9746 9614 -9747 0
-9747 5560 9612 0
-9747 -5560 -9612 0
9747 -5560 9612 0
9747 5560 -9612 0
-9748 9749 -9754 -9756 9758 0
-9748 9749 9754 9756 9758 0
9748 -9758 0
9748 9754 -9756 0
9748 -9749 0
9748 -9754 9756 0
-9749 9750 9752 0
-9749 -9750 -9752 0
9749 -9750 9752 0
9749 9750 -9752 0
-9750 5523 9751 0
-9750 -5523 -9751 0
9750 -5523 9751 0
9750 5523 -9751 0
-9751 -5521 -5559 0
-9751 5521 5559 0
9751 5521 -5559 0
9751 -5521 5559 0
-9752 9617 9753 0
-9752 -9617 -9753 0
9752 -9617 9753 0
9752 9617 -9753 0
-9753 5559 9615 0
-9753 -5559 -9615 0
9753 -5559 9615 0
9753 5559 -9615 0
-9754 5526 9755 0
-9754 -5526 -9755 0
9754 -5526 9755 0
9754 5526 -9755 0
-9755 -5524 -5558 0
-9755 5524 5558 0
9755 5524 -5558 0
9755 -5524 5558 0
-9756 9620 9757 0
-9756 -9620 -9757 0
9756 -9620 9757 0
9756 9620 -9757 0
-9757 5558 9618 0
-9757 -5558 -9618 0
9757 -5558 9618 0
9757 5558 -9618 0
-9758 9759 -9764 -9766 9768 0
-9758 9759 9764 9766 9768 0
9758 -9768 0
9758 9764 -9766 0
9758 -9759 0
9758 -9764 9766 0
-9759 9760 9762 0
-9759 -9760 -9762 0
9759 -9760 9762 0
9759 9760 -9762 0
-9760 5529 9761 0
-9760 -5529 -9761 0
9760 -5529 9761 0
9760 5529 -9761 0
-9761 -5527 -5557 0
-9761 5527 5557 0
9761 5527 -5557 0
9761 -5527 5557 0
-9762 9623 9763 0
-9762 -9623 -9763 0
9762 -9623 9763 0
9762 9623 -9763 0
-9763 5557 9621 0
-9763 -5557 -9621 0
9763 -5557 9621 0
9763 5557 -9621 0
-9764 5532 9765 0
-9764 -5532 -9765 0
9764 -5532 9765 0
9764 5532 -9765 0
-9765 -5530 -5556 0
-9765 5530 5556 0
9765 5530 -5556 0
9765 -5530 5556 0
-9766 9626 9767 0
-9766 -9626 -9767 0
9766 -9626 9767 0
9766 9626 -9767 0
-9767 5556 9624 0
-9767 -5556 -9624 0
9767 -5556 9624 0
9767 5556 -9624 0
-9768 9769 -9774 -9776 9778 0
-9768 9769 9774 9776 9778 0
9768 -9778 0
9768 9774 -9776 0
9768 -9769 0
9768 -9774 9776 0
-9769 9770 9772 0
-9769 -9770 -9772 0
9769 -9770 9772 0
9769 9770 -9772 0
-9770 5535 9771 0
-9770 -5535 -9771 0
9770 -5535 9771 0
9770 5535 -9771 0
-9771 -5533 -5555 0
-9771 5533 5555 0
9771 5533 -5555 0
9771 -5533 5555 0
-9772 9629 9773 0
-9772 -9629 -9773 0
9772 -9629 9773 0
9772 9629 -9773 0
-9773 5555 9627 0
-9773 -5555 -9627 0
9773 -5555 9627 0
9773 5555 -9627 0
-9774 5538 9775 0
-9774 -5538 -9775 0
9774 -5538 9775 0
9774 5538 -9775 0
-9775 -5536 -5554 0
-9775 5536 5554 0
9775 5536 -5554 0
9775 -5536 5554 0
-9776 9632 9777 0
-9776 -9632 -9777 0
9776 -9632 9777 0
9776 9632 -9777 0
-9777 5554 9630 0
-9777 -5554 -9630 0
9777 -5554 9630 0
9777 5554 -9630 0
-9778 9779 -9784 -9786 9788 0
-9778 9779 9784 9786 9788 0
9778 -9788 0
9778 9784 -9786 0
9778 -9779 0
9778 -9784 9786 0
-9779 9780 9782 0
-9779 -9780 -9782 0
9779 -9780 9782 0
9779 9780 -9782 0
-9780 5541 9781 0
-9780 -5541 -9781 0
9780 -5541 9781 0
9780 5541 -9781 0
-9781 -5539 -5553 0
-9781 5539 5553 0
9781 5539 -5553 0
9781 -5539 5553 0
-9782 9635 9783 0
-9782 -9635 -9783 0
9782 -9635 9783 0
9782 9635 -9783 0
-9783 5553 9633 0
-9783 -5553 -9633 0
9783 -5553 9633 0
9783 5553 -9633 0
-9784 5544 9785 0
-9784 -5544 -9785 0
9784 -5544 9785 0
9784 5544 -9785 0
-9785 -5542 -5552 0
-9785 5542 5552 0
9785 5542 -5552 0
9785 -5542 5552 0
-9786 9638 9787 0
-9786 -9638 -9787 0
9786 -9638 9787 0
9786 9638 -9787 0
-9787 5552 9636 0
-9787 -5552 -9636 0
9787 -5552 9636 0
9787 5552 -9636 0
-9788 -5549 -9642 9789 9794 0
-9788 5549 9642 9789 9794 0
9788 -9794 0
9788 5549 -9642 0
9788 -9789 0
9788 -5549 9642 0
-9789 9790 9792 0
-9789 -9790 -9792 0
9789 -9790 9792 0
9789 9790 -9792 0
-9790 5547 9791 0
-9790 -5547 -9791 0
9790 -5547 9791 0
9790 5547 -9791 0
-9791 -5545 -5551 0
-9791 5545 5551 0
9791 5545 -5551 0
9791 -5545 5551 0
-9792 9641 9793 0
-9792 -9641 -9793 0
9792 -9641 9793 0
9792 9641 -9793 0
-9793 5551 9639 0
-9793 -5551 -9639 0
9793 -5551 9639 0
9793 5551 -9639 0
-9794 -5201 -9390 9795 9799 0
-9794 5201 9390 9795 9799 0
9794 -9799 0
9794 5201 -9390 0
9794 -9795 0
9794 -5201 9390 0
-9795 9796 9798 0
-9795 -9796 -9798 0
9795 -9796 9798 0
9795 9796 -9798 0
-9796 5198 9797 0
-9796 -5198 -9797 0
9796 -5198 9797 0
9796 5198 -9797 0
-9797 5196 5203 0
-9797 -5196 -5203 0
9797 -5196 5203 0
9797 5196 -5203 0
-9798 9516 9518 0
-9798 -9516 -9518 0
9798 -9516 9518 0
9798 9516 -9518 0
-9799 -4846 -9136 9800 9804 0
-9799 4846 9136 9800 9804 0
9799 -9804 0
9799 4846 -9136 0
9799 -9800 0
9799 -4846 9136 0
-9800 9801 9803 0
-9800 -9801 -9803 0
9800 -9801 9803 0
9800 9801 -9803 0
-9801 4843 9802 0
-9801 -4843 -9802 0
9801 -4843 9802 0
9801 4843 -9802 0
-9802 4841 4848 0
-9802 -4841 -4848 0
9802 -4841 4848 0
9802 4841 -4848 0
-9803 9262 9264 0
-9803 -9262 -9264 0
9803 -9262 9264 0
9803 9262 -9264 0
-9804 -4491 -8882 9805 9809 0
-9804 4491 8882 9805 9809 0
9804 -9809 0
9804 4491 -8882 0
9804 -9805 0
9804 -4491 8882 0
-9805 9806 9808 0
-9805 -9806 -9808 0
9805 -9806 9808 0
9805 9806 -9808 0
-9806 4488 9807 0
-9806 -4488 -9807 0
9806 -4488 9807 0
9806 4488 -9807 0
-9807 4486 4493 0
-9807 -4486 -4493 0
9807 -4486 4493 0
9807 4486 -4493 0
-9808 9008 9010 0
-9808 -9008 -9010 0
9808 -9008 9010 0
9808 9008 -9010 0
-9809 -4136 -8628 9810 9814 0
-9809 4136 8628 9810 9814 0
9809 -9814 0
9809 4136 -8628 0
9809 -9810 0
9809 -4136 8628 0
-9810 9811 9813 0
-9810 -9811 -9813 0
9810 -9811 9813 0
9810 9811 -9813 0
-9811 4133 9812 0
-9811 -4133 -9812 0
9811 -4133 9812 0
9811 4133 -9812 0
-9812 4131 4138 0
-9812 -4131 -4138 0
9812 -4131 4138 0
9812 4131 -4138 0
-9813 8754 8756 0
-9813 -8754 -8756 0
9813 -8754 8756 0
9813 8754 -8756 0
-9814 -3781 -8374 9815 9819 0
-9814 3781 8374 9815 9819 0
9814 -9819 0
9814 3781 -8374 0
9814 -9815 0
9814 -3781 8374 0
-9815 9816 9818 0
-9815 -9816 -9818 0
9815 -9816 9818 0
9815 9816 -9818 0
-9816 3778 9817 0
-9816 -3778 -9817 0
9816 -3778 9817 0
9816 3778 -9817 0
-9817 3776 3783 0
-9817 -3776 -3783 0
9817 -3776 3783 0
9817 3776 -3783 0
-9818 8500 8502 0
-9818 -8500 -8502 0
9818 -8500 8502 0
9818 8500 -8502 0
-9819 -3426 -8120 9820 9824 0
-9819 3426 8120 9820 9824 0
9819 -9824 0
9819 3426 -8120 0
9819 -9820 0
9819 -3426 8120 0
-9820 9821 9823 0
-9820 -9821 -9823 0
9820 -9821 9823 0
9820 9821 -9823 0
-9821 3423 9822 0
-9821 -3423 -9822 0
9821 -3423 9822 0
9821 3423 -9822 0
-9822 3421 3428 0
-9822 -3421 -3428 0
9822 -3421 3428 0
9822 3421 -3428 0
-9823 8246 8248 0
-9823 -8246 -8248 0
9823 -8246 8248 0
9823 8246 -8248 0
-9824 -3071 -7866 9825 9829 0
-9824 3071 7866 9825 9829 0
9824 -9829 0
9824 3071 -7866 0
9824 -9825 0
9824 -3071 7866 0
-9825 9826 9828 0
-9825 -9826 -9828 0
9825 -9826 9828 0
9825 9826 -9828 0
-9826 3068 9827 0
-9826 -3068 -9827 0
9826 -3068 9827 0
9826 3068 -9827 0
-9827 3066 3073 0
-9827 -3066 -3073 0
9827 -3066 3073 0
9827 3066 -3073 0
-9828 7992 7994 0
-9828 -7992 -7994 0
9828 -7992 7994 0
9828 7992 -7994 0
-9829 -2716 -7612 9830 9834 0
-9829 2716 7612 9830 9834 0
9829 -9834 0
9829 2716 -7612 0
9829 -9830 0
9829 -2716 7612 0
-9830 9831 9833 0
-9830 -9831 -9833 0
9830 -9831 9833 0
9830 9831 -9833 0
-9831 2713 9832 0
-9831 -2713 -9832 0
9831 -2713 9832 0
9831 2713 -9832 0
-9832 2711 2718 0
-9832 -2711 -2718 0
9832 -2711 2718 0
9832 2711 -2718 0
-9833 7738 7740 0
-9833 -7738 -7740 0
9833 -7738 7740 0
9833 7738 -7740 0
-9834 -2361 -7358 9835 9839 0
-9834 2361 7358 9835 9839 0
9834 -9839 0
9834 2361 -7358 0
9834 -9835 0
9834 -2361 7358 0
-9835 9836 9838 0
-9835 -9836 -9838 0
9835 -9836 9838 0
9835 9836 -9838 0
-9836 2358 9837 0
-9836 -2358 -9837 0
9836 -2358 9837 0
9836 2358 -9837 0
-9837 2356 2363 0
-9837 -2356 -2363 0
9837 -2356 2363 0
9837 2356 -2363 0
-9838 7484 7486 0
-9838 -7484 -7486 0
9838 -7484 7486 0
9838 7484 -7486 0
-9839 -2006 -7104 9840 9844 0
-9839 2006 7104 9840 9844 0
9839 -9844 0
9839 2006 -7104 0
9839 -9840 0
9839 -2006 7104 0
-9840 9841 9843 0
-9840 -9841 -9843 0
9840 -9841 9843 0
9840 9841 -9843 0
-9841 2003 9842 0
-9841 -2003 -9842 0
9841 -2003 9842 0
9841 2003 -9842 0
-9842 2001 2008 0
-9842 -2001 -2008 0
9842 -2001 2008 0
9842 2001 -2008 0
-9843 7230 7232 0
-9843 -7230 -7232 0
9843 -7230 7232 0
9843 7230 -7232 0
-9844 -1651 -6850 9845 9849 0
-9844 1651 6850 9845 9849 0
9844 -9849 0
9844 1651 -6850 0
9844 -9845 0
9844 -1651 6850 0
-9845 9846 9848 0
-9845 -9846 -9848 0
9845 -9846 9848 0
9845 9846 -9848 0
-9846 1648 9847 0
-9846 -1648 -9847 0
9846 -1648 9847 0
9846 1648 -9847 0
-9847 1646 1653 0
-9847 -1646 -1653 0
9847 -1646 1653 0
9847 1646 -1653 0
-9848 6976 6978 0
-9848 -6976 -6978 0
9848 -6976 6978 0
9848 6976 -6978 0
-9849 -1296 -6596 9850 9854 0
-9849 1296 6596 9850 9854 0
9849 -9854 0
9849 1296 -6596 0
9849 -9850 0
9849 -1296 6596 0
-9850 9851 9853 0
-9850 -9851 -9853 0
9850 -9851 9853 0
9850 9851 -9853 0
-9851 1293 9852 0
-9851 -1293 -9852 0
9851 -1293 9852 0
9851 1293 -9852 0
-9852 1291 1298 0
-9852 -1291 -1298 0
9852 -1291 1298 0
9852 1291 -1298 0
-9853 6722 6724 0
-9853 -6722 -6724 0
9853 -6722 6724 0
9853 6722 -6724 0
-9854 -941 -6342 9855 9859 0
-9854 941 6342 9855 9859 0
9854 -9859 0
9854 941 -6342 0
9854 -9855 0
9854 -941 6342 0
-9855 9856 9858 0
-9855 -9856 -9858 0
9855 -9856 9858 0
9855 9856 -9858 0
-9856 938 9857 0
-9856 -938 -9857 0
9856 -938 9857 0
9856 938 -9857 0
-9857 936 943 0
-9857 -936 -943 0
9857 -936 943 0
9857 936 -943 0
-9858 6468 6470 0
-9858 -6468 -6470 0
9858 -6468 6470 0
9858 6468 -6470 0
-9859 -586 -6088 9860 9864 0
-9859 586 6088 9860 9864 0
9859 -9864 0
9859 586 -6088 0
9859 -9860 0
9859 -586 6088 0
-9860 9861 9863 0
-9860 -9861 -9863 0
9860 -9861 9863 0
9860 9861 -9863 0
-9861 583 9862 0
-9861 -583 -9862 0
9861 -583 9862 0
9861 583 -9862 0
-9862 581 588 0
-9862 -581 -588 0
9862 -581 588 0
9862 581 -588 0
-9863 6214 6216 0
-9863 -6214 -6216 0
9863 -6214 6216 0
9863 6214 -6216 0
-9864 9865 9867 9868 0
-9864 -9865 -9867 9868 0
9864 -9868 0
9864 9865 -9867 0
9864 -9865 9867 0
-9865 226 9866 0
-9865 -226 -9866 0
9865 -226 9866 0
9865 226 -9866 0
-9866 222 233 0
-9866 -222 -233 0
9866 -222 233 0
9866 222 -233 0
-9867 5960 5962 0
-9867 -5960 -5962 0
9867 -5960 5962 0
9867 5960 -5962 0
-9868 229 5834 0
-9868 -229 -5834 0
9868 -229 5834 0
9868 229 -5834 0
-9933 0
2 0
6654 0

