c Result of efficient AIG-to-CNF conversion using package CNF
p cnf 8311 33647
2 -3 -2381 -4289 -6325 0
-2 6325 0
-2 3 0
-2 4289 0
-2 2381 0
3 -4 -1264 -1562 -1963 0
-3 1963 0
-3 4 0
-3 1562 0
-3 1264 0
4 -5 1163 -1176 1225 0
4 5 -1163 1176 -1225 0
4 -5 1163 1176 -1225 0
4 5 -1163 -1176 1225 0
-4 -5 -1163 0
-4 5 1163 0
-4 1176 1225 0
-4 -1176 -1225 0
5 -1116 -1162 0
5 6 1115 -1162 0
-5 1162 0
-5 -1115 1116 0
-5 -6 1116 0
6 1092 -1093 0
6 7 1085 -1092 0
6 -7 -1085 -1092 0
-6 1092 1093 0
-6 -7 1085 -1092 0
-6 7 -1085 -1092 0
-7 8 1074 0
-7 8 1073 0
-7 1073 1074 0
7 -1073 -1074 0
7 -8 -1074 0
7 -8 -1073 0
-8 9 1071 0
-8 107 1071 0
-8 140 1071 0
8 -1071 0
8 -9 -107 -140 0
-9 10 94 0
-9 -10 -94 0
9 -10 94 0
9 10 -94 0
10 -11 -81 0
-10 11 0
-10 81 0
11 -12 -66 0
-11 12 0
-11 66 0
12 -13 -51 0
-12 13 0
-12 51 0
-13 14 20 0
-13 20 36 0
-13 14 36 0
13 -14 -36 0
13 -20 -36 0
13 -14 -20 0
-14 15 19 0
-14 17 19 0
-14 15 17 0
14 -15 -17 0
14 -17 -19 0
14 -15 -19 0
15 -8301 -16 0
-15 8301 0
-15 16 0
-16 8289 0
-16 8305 -8307 -8308 0
16 -8289 -8305 0
16 -8289 8308 0
16 -8289 8307 0
17 -8302 -18 0
-17 8302 0
-17 18 0
-18 8288 0
-18 8304 -8307 -8308 0
18 -8288 -8304 0
18 -8288 8308 0
18 -8288 8307 0
19 -8287 -8303 0
-19 8287 0
-19 8303 0
-20 21 23 0
-20 23 30 0
-20 21 30 0
20 -21 -30 0
20 -23 -30 0
20 -21 -23 0
-21 15 22 0
-21 -15 -22 0
21 -15 22 0
21 15 -22 0
-22 -17 -19 0
-22 17 19 0
22 17 -19 0
22 -17 19 0
-23 24 28 0
-23 26 28 0
-23 24 26 0
23 -24 -26 0
23 -26 -28 0
23 -24 -28 0
24 -8304 -25 0
-24 8304 0
-24 25 0
-25 8285 0
-25 8301 -8307 -8308 0
25 -8285 -8301 0
25 -8285 8308 0
25 -8285 8307 0
26 -8305 -27 0
-26 8305 0
-26 27 0
-27 8284 0
-27 8300 -8307 -8308 0
27 -8284 -8300 0
27 -8284 8308 0
27 -8284 8307 0
28 -8306 -29 0
-28 8306 0
-28 29 0
-29 8283 0
-29 8299 -8307 -8308 0
29 -8283 -8299 0
29 -8283 8308 0
29 -8283 8307 0
-30 31 33 0
-30 -31 -33 0
30 -31 33 0
30 31 -33 0
31 -8304 -32 0
-31 8304 0
-31 32 0
-32 8286 0
-32 8302 -8307 -8308 0
32 -8286 -8302 0
32 -8286 8308 0
32 -8286 8307 0
-33 -34 -35 0
-33 34 35 0
33 34 -35 0
33 -34 35 0
34 -8305 -25 0
-34 8305 0
-34 25 0
35 -8306 -27 0
-35 8306 0
-35 27 0
-36 37 43 0
-36 -37 -43 0
36 -37 43 0
36 37 -43 0
-37 38 40 0
-37 -38 -40 0
37 -38 40 0
37 38 -40 0
38 -8301 -39 0
-38 8301 0
-38 39 0
-39 8290 0
-39 8306 -8307 -8308 0
39 -8290 -8306 0
39 -8290 8308 0
39 -8290 8307 0
-40 -41 -42 0
-40 41 42 0
40 41 -42 0
40 -41 42 0
41 -8302 -16 0
-41 8302 0
-41 16 0
42 -8303 -18 0
-42 8303 0
-42 18 0
-43 44 45 0
-43 -44 -45 0
43 -44 45 0
43 44 -45 0
-44 31 35 0
-44 34 35 0
-44 31 34 0
44 -31 -34 0
44 -34 -35 0
44 -31 -35 0
-45 46 48 0
-45 -46 -48 0
45 -46 48 0
45 46 -48 0
46 -8304 -47 0
-46 8304 0
-46 47 0
-47 8287 0
-47 8303 -8307 -8308 0
47 -8287 -8303 0
47 -8287 8308 0
47 -8287 8307 0
-48 -49 -50 0
-48 49 50 0
48 49 -50 0
48 -49 50 0
49 -8305 -32 0
-49 8305 0
-49 32 0
50 -8306 -25 0
-50 8306 0
-50 25 0
-51 52 53 0
-51 -52 -53 0
51 -52 53 0
51 52 -53 0
-52 38 42 0
-52 41 42 0
-52 38 41 0
52 -38 -41 0
52 -41 -42 0
52 -38 -42 0
-53 54 55 0
-53 -54 -55 0
53 -54 55 0
53 54 -55 0
-54 37 44 0
-54 44 45 0
-54 37 45 0
54 -37 -45 0
54 -44 -45 0
54 -37 -44 0
-55 56 59 0
-55 -56 -59 0
55 -56 59 0
55 56 -59 0
-56 -57 -58 0
-56 57 58 0
56 57 -58 0
56 -57 58 0
57 -8302 -39 0
-57 8302 0
-57 39 0
58 -8303 -16 0
-58 8303 0
-58 16 0
-59 60 61 0
-59 -60 -61 0
59 -60 61 0
59 60 -61 0
-60 46 50 0
-60 49 50 0
-60 46 49 0
60 -46 -49 0
60 -49 -50 0
60 -46 -50 0
-61 62 63 0
-61 -62 -63 0
61 -62 63 0
61 62 -63 0
62 -8288 -8304 0
-62 8288 0
-62 8304 0
-63 -64 -65 0
-63 64 65 0
63 64 -65 0
63 -64 65 0
64 -8305 -47 0
-64 8305 0
-64 47 0
65 -8306 -32 0
-65 8306 0
-65 32 0
-66 67 68 0
-66 -67 -68 0
66 -67 68 0
66 67 -68 0
-67 52 54 0
-67 54 55 0
-67 52 55 0
67 -52 -55 0
67 -54 -55 0
67 -52 -54 0
-68 69 70 0
-68 -69 -70 0
68 -69 70 0
68 69 -70 0
69 -57 -58 0
-69 57 0
-69 58 0
-70 71 72 0
-70 -71 -72 0
70 -71 72 0
70 71 -72 0
-71 56 60 0
-71 60 61 0
-71 56 61 0
71 -56 -61 0
71 -60 -61 0
71 -56 -60 0
-72 73 74 0
-72 -73 -74 0
72 -73 74 0
72 73 -74 0
73 -8303 -39 0
-73 8303 0
-73 39 0
-74 75 76 0
-74 -75 -76 0
74 -75 76 0
74 75 -76 0
-75 62 65 0
-75 64 65 0
-75 62 64 0
75 -62 -64 0
75 -64 -65 0
75 -62 -65 0
-76 77 78 0
-76 -77 -78 0
76 -77 78 0
76 77 -78 0
77 -8304 -16 0
-77 8304 0
-77 16 0
-78 -79 -80 0
-78 79 80 0
78 79 -80 0
78 -79 80 0
79 -8305 -18 0
-79 8305 0
-79 18 0
80 -8306 -47 0
-80 8306 0
-80 47 0
-81 82 83 0
-81 -82 -83 0
81 -82 83 0
81 82 -83 0
82 -67 -68 0
-82 67 0
-82 68 0
-83 84 85 0
-83 -84 -85 0
83 -84 85 0
83 84 -85 0
-84 69 71 0
-84 71 72 0
-84 69 72 0
84 -71 -72 0
84 -69 -71 0
84 -69 -72 0
-85 86 87 0
-85 -86 -87 0
85 -86 87 0
85 86 -87 0
-86 73 75 0
-86 75 76 0
-86 73 76 0
86 -75 -76 0
86 -73 -75 0
86 -73 -76 0
-87 88 89 0
-87 -88 -89 0
87 -88 89 0
87 88 -89 0
-88 77 80 0
-88 79 80 0
-88 77 79 0
88 -77 -79 0
88 -79 -80 0
88 -77 -80 0
-89 90 91 0
-89 -90 -91 0
89 -90 91 0
89 90 -91 0
90 -8304 -39 0
-90 8304 0
-90 39 0
-91 -92 -93 0
-91 92 93 0
91 92 -93 0
91 -92 93 0
92 -8289 -8305 0
-92 8289 0
-92 8305 0
93 -8306 -18 0
-93 8306 0
-93 18 0
-94 95 96 0
-94 -95 -96 0
94 -95 96 0
94 95 -96 0
95 -82 -83 0
-95 82 0
-95 83 0
-96 97 98 0
-96 -97 -98 0
96 -97 98 0
96 97 -98 0
97 -84 -85 0
-97 84 0
-97 85 0
-98 99 100 0
-98 -99 -100 0
98 -99 100 0
98 99 -100 0
99 -86 -87 0
-99 86 0
-99 87 0
-100 101 102 0
-100 -101 -102 0
100 -101 102 0
100 101 -102 0
101 -88 -89 0
-101 88 0
-101 89 0
-102 103 104 0
-102 -103 -104 0
102 -103 104 0
102 103 -104 0
-103 92 93 0
-103 90 93 0
-103 92 90 0
103 -92 -90 0
103 -90 -93 0
103 -92 -93 0
-104 -105 -106 0
-104 105 106 0
104 105 -106 0
104 -105 106 0
105 -8305 -39 0
-105 8305 0
-105 39 0
106 -8306 -16 0
-106 8306 0
-106 16 0
-107 108 139 0
-107 -108 -139 0
107 -108 139 0
107 108 -139 0
108 -109 -138 0
-108 109 0
-108 138 0
109 -110 -137 0
-109 110 0
-109 137 0
-110 111 120 0
-110 120 135 0
-110 111 135 0
110 -111 -135 0
110 -120 -135 0
110 -111 -120 0
-111 115 116 0
-111 112 115 0
-111 112 116 0
111 -112 -115 0
111 -115 -116 0
111 -112 -116 0
112 -113 -114 0
-112 113 0
-112 114 0
113 -8299 -39 0
-113 8299 0
-113 39 0
114 -8300 -16 0
-114 8300 0
-114 16 0
115 -8300 -39 0
-115 8300 0
-115 39 0
-116 117 119 0
-116 118 119 0
-116 117 118 0
116 -117 -118 0
116 -118 -119 0
116 -117 -119 0
117 -8301 -18 0
-117 8301 0
-117 18 0
118 -8302 -47 0
-118 8302 0
-118 47 0
119 -8303 -32 0
-119 8303 0
-119 32 0
-120 121 123 0
-120 123 133 0
-120 121 133 0
120 -121 -133 0
120 -123 -133 0
120 -121 -123 0
-121 112 122 0
-121 -112 -122 0
121 -112 122 0
121 112 -122 0
-122 115 116 0
-122 -115 -116 0
122 -115 116 0
122 115 -116 0
-123 124 126 0
-123 126 131 0
-123 124 131 0
123 -124 -131 0
123 -126 -131 0
123 -124 -126 0
-124 117 125 0
-124 -117 -125 0
124 -117 125 0
124 117 -125 0
-125 -118 -119 0
-125 118 119 0
125 118 -119 0
125 -118 119 0
-126 127 129 0
-126 128 129 0
-126 127 128 0
126 -127 -128 0
126 -128 -129 0
126 -127 -129 0
127 -8304 -27 0
-127 8304 0
-127 27 0
128 -8305 -29 0
-128 8305 0
-128 29 0
129 -8306 -130 0
-129 8306 0
-129 130 0
-130 8282 0
-130 8298 -8307 -8308 0
130 -8282 -8298 0
130 -8282 8308 0
130 -8282 8307 0
-131 24 132 0
-131 -24 -132 0
131 -24 132 0
131 24 -132 0
-132 -26 -28 0
-132 26 28 0
132 26 -28 0
132 -26 28 0
-133 21 134 0
-133 -21 -134 0
133 -21 134 0
133 21 -134 0
-134 23 30 0
-134 -23 -30 0
134 -23 30 0
134 23 -30 0
-135 14 136 0
-135 -14 -136 0
135 -14 136 0
135 14 -136 0
-136 20 36 0
-136 -20 -36 0
136 -20 36 0
136 20 -36 0
-137 13 51 0
-137 -13 -51 0
137 -13 51 0
137 13 -51 0
-138 12 66 0
-138 -12 -66 0
138 -12 66 0
138 12 -66 0
-139 11 81 0
-139 -11 -81 0
139 -11 81 0
139 11 -81 0
-140 213 1066 0
-140 141 1066 0
-140 303 1066 0
140 -1066 0
140 -141 -213 -303 0
141 -142 -177 0
-141 142 0
-141 177 0
-142 143 176 0
-142 -143 -176 0
142 -143 176 0
142 143 -176 0
143 -144 -175 0
-143 144 0
-143 175 0
144 -145 -173 0
-144 145 0
-144 173 0
-145 146 156 0
-145 156 171 0
-145 146 171 0
145 -146 -171 0
145 -156 -171 0
145 -146 -156 0
-146 147 151 0
-146 151 152 0
-146 147 152 0
146 -147 -152 0
146 -151 -152 0
146 -147 -151 0
-147 148 150 0
-147 149 150 0
-147 148 149 0
147 -148 -149 0
147 -149 -150 0
147 -148 -150 0
148 -8298 -39 0
-148 8298 0
-148 39 0
149 -8299 -16 0
-149 8299 0
-149 16 0
150 -8300 -18 0
-150 8300 0
-150 18 0
-151 -113 -114 0
-151 113 114 0
151 113 -114 0
151 -113 114 0
-152 153 155 0
-152 154 155 0
-152 153 154 0
152 -153 -154 0
152 -154 -155 0
152 -153 -155 0
153 -8286 -8302 0
-153 8286 0
-153 8302 0
154 -8301 -47 0
-154 8301 0
-154 47 0
155 -8303 -25 0
-155 8303 0
-155 25 0
-156 157 159 0
-156 159 169 0
-156 157 169 0
156 -157 -169 0
156 -159 -169 0
156 -157 -159 0
-157 147 158 0
-157 -147 -158 0
157 -147 158 0
157 147 -158 0
-158 151 152 0
-158 -151 -152 0
158 -151 152 0
158 151 -152 0
-159 160 162 0
-159 162 167 0
-159 160 167 0
159 -160 -167 0
159 -162 -167 0
159 -160 -162 0
-160 154 161 0
-160 -154 -161 0
160 -154 161 0
160 154 -161 0
-161 -153 -155 0
-161 153 155 0
161 153 -155 0
161 -153 155 0
-162 163 165 0
-162 164 165 0
-162 163 164 0
162 -163 -164 0
162 -164 -165 0
162 -163 -165 0
163 -8304 -29 0
-163 8304 0
-163 29 0
164 -8305 -130 0
-164 8305 0
-164 130 0
165 -8306 -166 0
-165 8306 0
-165 166 0
-166 8281 0
-166 8297 -8307 -8308 0
166 -8281 -8297 0
166 -8281 8308 0
166 -8281 8307 0
-167 127 168 0
-167 -127 -168 0
167 -127 168 0
167 127 -168 0
-168 -128 -129 0
-168 128 129 0
168 128 -129 0
168 -128 129 0
-169 124 170 0
-169 -124 -170 0
169 -124 170 0
169 124 -170 0
-170 126 131 0
-170 -126 -131 0
170 -126 131 0
170 126 -131 0
-171 121 172 0
-171 -121 -172 0
171 -121 172 0
171 121 -172 0
-172 123 133 0
-172 -123 -133 0
172 -123 133 0
172 123 -133 0
-173 111 174 0
-173 -111 -174 0
173 -111 174 0
173 111 -174 0
-174 120 135 0
-174 -120 -135 0
174 -120 135 0
174 120 -135 0
-175 110 137 0
-175 -110 -137 0
175 -110 137 0
175 110 -137 0
-176 109 138 0
-176 -109 -138 0
176 -109 138 0
176 109 -138 0
-177 178 212 0
-177 -178 -212 0
177 -178 212 0
177 178 -212 0
178 -179 -211 0
-178 179 0
-178 211 0
179 -180 -209 0
-179 180 0
-179 209 0
-180 181 192 0
-180 192 207 0
-180 181 207 0
180 -181 -207 0
180 -192 -207 0
180 -181 -192 0
-181 182 186 0
-181 186 188 0
-181 182 188 0
181 -182 -188 0
181 -186 -188 0
181 -182 -186 0
-182 183 185 0
-182 184 185 0
-182 183 184 0
182 -183 -184 0
182 -184 -185 0
182 -183 -185 0
183 -8298 -16 0
-183 8298 0
-183 16 0
184 -8299 -18 0
-184 8299 0
-184 18 0
185 -8300 -47 0
-185 8300 0
-185 47 0
-186 148 187 0
-186 -148 -187 0
186 -148 187 0
186 148 -187 0
-187 -149 -150 0
-187 149 150 0
187 149 -150 0
187 -149 150 0
-188 189 191 0
-188 190 191 0
-188 189 190 0
188 -189 -190 0
188 -190 -191 0
188 -189 -191 0
189 -8301 -32 0
-189 8301 0
-189 32 0
190 -8302 -25 0
-190 8302 0
-190 25 0
191 -8303 -27 0
-191 8303 0
-191 27 0
-192 193 195 0
-192 195 205 0
-192 193 205 0
192 -193 -205 0
192 -195 -205 0
192 -193 -195 0
-193 182 194 0
-193 -182 -194 0
193 -182 194 0
193 182 -194 0
-194 186 188 0
-194 -186 -188 0
194 -186 188 0
194 186 -188 0
-195 196 198 0
-195 198 203 0
-195 196 203 0
195 -196 -203 0
195 -198 -203 0
195 -196 -198 0
-196 189 197 0
-196 -189 -197 0
196 -189 197 0
196 189 -197 0
-197 -190 -191 0
-197 190 191 0
197 190 -191 0
197 -190 191 0
-198 199 201 0
-198 200 201 0
-198 199 200 0
198 -199 -200 0
198 -200 -201 0
198 -199 -201 0
199 -8304 -130 0
-199 8304 0
-199 130 0
200 -8305 -166 0
-200 8305 0
-200 166 0
201 -8306 -202 0
-201 8306 0
-201 202 0
-202 8280 0
-202 8296 -8307 -8308 0
202 -8280 -8296 0
202 -8280 8308 0
202 -8280 8307 0
-203 163 204 0
-203 -163 -204 0
203 -163 204 0
203 163 -204 0
-204 -164 -165 0
-204 164 165 0
204 164 -165 0
204 -164 165 0
-205 160 206 0
-205 -160 -206 0
205 -160 206 0
205 160 -206 0
-206 162 167 0
-206 -162 -167 0
206 -162 167 0
206 162 -167 0
-207 157 208 0
-207 -157 -208 0
207 -157 208 0
207 157 -208 0
-208 159 169 0
-208 -159 -169 0
208 -159 169 0
208 159 -169 0
-209 146 210 0
-209 -146 -210 0
209 -146 210 0
209 146 -210 0
-210 156 171 0
-210 -156 -171 0
210 -156 171 0
210 156 -171 0
-211 145 173 0
-211 -145 -173 0
211 -145 173 0
211 145 -173 0
-212 144 175 0
-212 -144 -175 0
212 -144 175 0
212 144 -175 0
213 -214 -254 0
-213 214 0
-213 254 0
-214 215 253 0
-214 -215 -253 0
214 -215 253 0
214 215 -253 0
215 -216 -252 0
-215 216 0
-215 252 0
-216 217 230 0
-216 230 250 0
-216 217 250 0
216 -230 -250 0
216 -217 -230 0
216 -217 -250 0
217 -218 -219 0
-217 218 0
-217 219 0
218 -8296 -8297 -16 -39 0
-218 8297 0
-218 39 0
-218 8296 0
-218 16 0
-219 220 224 0
-219 224 226 0
-219 220 226 0
219 -220 -226 0
219 -224 -226 0
219 -220 -224 0
-220 221 223 0
-220 222 223 0
-220 221 222 0
220 -221 -222 0
220 -222 -223 0
220 -221 -223 0
221 -8298 -18 0
-221 8298 0
-221 18 0
222 -8299 -47 0
-222 8299 0
-222 47 0
223 -8300 -32 0
-223 8300 0
-223 32 0
-224 183 225 0
-224 -183 -225 0
224 -183 225 0
224 183 -225 0
-225 -184 -185 0
-225 184 185 0
225 184 -185 0
225 -184 185 0
-226 227 229 0
-226 228 229 0
-226 227 228 0
226 -227 -228 0
226 -228 -229 0
226 -227 -229 0
227 -8285 -8301 0
-227 8285 0
-227 8301 0
228 -8302 -27 0
-228 8302 0
-228 27 0
229 -8303 -29 0
-229 8303 0
-229 29 0
-230 231 232 0
-230 232 248 0
-230 231 248 0
230 -231 -248 0
230 -232 -248 0
230 -231 -232 0
-231 218 219 0
-231 -218 -219 0
231 -218 219 0
231 218 -219 0
-232 233 235 0
-232 235 246 0
-232 233 246 0
232 -233 -246 0
232 -235 -246 0
232 -233 -235 0
-233 220 234 0
-233 -220 -234 0
233 -220 234 0
233 220 -234 0
-234 224 226 0
-234 -224 -226 0
234 -224 226 0
234 224 -226 0
-235 236 243 0
-235 238 245 0
-235 236 238 0
-235 243 245 0
235 -238 -243 0
235 -236 -245 0
-236 227 237 0
-236 -227 -237 0
236 -227 237 0
236 227 -237 0
-237 -228 -229 0
-237 228 229 0
237 228 -229 0
237 -228 229 0
-238 239 241 0
-238 240 241 0
-238 239 240 0
238 -239 -240 0
238 -240 -241 0
238 -239 -241 0
239 -8304 -166 0
-239 8304 0
-239 166 0
240 -8305 -202 0
-240 8305 0
-240 202 0
241 -8306 -242 0
-241 8306 0
-241 242 0
-242 8279 0
-242 8295 -8307 -8308 0
242 -8279 -8295 0
242 -8279 8308 0
242 -8279 8307 0
-243 199 244 0
-243 -199 -244 0
243 -199 244 0
243 199 -244 0
-244 -200 -201 0
-244 200 201 0
244 200 -201 0
244 -200 201 0
-245 238 243 0
-245 -238 -243 0
245 -238 243 0
245 238 -243 0
-246 196 247 0
-246 -196 -247 0
246 -196 247 0
246 196 -247 0
-247 198 203 0
-247 -198 -203 0
247 -198 203 0
247 198 -203 0
-248 193 249 0
-248 -193 -249 0
248 -193 249 0
248 193 -249 0
-249 195 205 0
-249 -195 -205 0
249 -195 205 0
249 195 -205 0
-250 181 251 0
-250 -181 -251 0
250 -181 251 0
250 181 -251 0
-251 192 207 0
-251 -192 -207 0
251 -192 207 0
251 192 -207 0
-252 180 209 0
-252 -180 -209 0
252 -180 209 0
252 180 -209 0
-253 179 211 0
-253 -179 -211 0
253 -179 211 0
253 179 -211 0
-254 255 302 0
-254 -255 -302 0
254 -255 302 0
254 255 -302 0
255 -256 -300 0
-255 256 0
-255 300 0
-256 257 279 0
-256 279 298 0
-256 257 298 0
256 -257 -298 0
256 -279 -298 0
256 -257 -279 0
-257 258 266 0
-257 266 268 0
-257 258 268 0
257 -266 -268 0
257 -258 -266 0
257 -258 -268 0
258 -259 -263 0
-258 259 0
-258 263 0
-259 260 262 0
-259 261 262 0
-259 260 261 0
259 -260 -261 0
259 -261 -262 0
259 -260 -262 0
260 -8295 -39 0
-260 8295 0
-260 39 0
261 -8296 -16 0
-261 8296 0
-261 16 0
262 -8297 -18 0
-262 8297 0
-262 18 0
-263 -264 -265 0
-263 264 265 0
263 264 -265 0
263 -264 265 0
264 -8296 -39 0
-264 8296 0
-264 39 0
265 -8297 -16 0
-265 8297 0
-265 16 0
-266 267 0
266 -267 0
267 8296 -8297 -39 0
267 -8297 16 -39 0
-267 8297 0
-267 39 0
-267 -8296 -16 0
-268 269 273 0
-268 273 275 0
-268 269 275 0
268 -269 -275 0
268 -273 -275 0
268 -269 -273 0
-269 270 272 0
-269 271 272 0
-269 270 271 0
269 -270 -271 0
269 -271 -272 0
269 -270 -272 0
270 -8298 -47 0
-270 8298 0
-270 47 0
271 -8299 -32 0
-271 8299 0
-271 32 0
272 -8300 -25 0
-272 8300 0
-272 25 0
-273 221 274 0
-273 -221 -274 0
273 -221 274 0
273 221 -274 0
-274 -222 -223 0
-274 222 223 0
274 222 -223 0
274 -222 223 0
-275 276 278 0
-275 277 278 0
-275 276 277 0
275 -276 -277 0
275 -277 -278 0
275 -276 -278 0
276 -8301 -27 0
-276 8301 0
-276 27 0
277 -8302 -29 0
-277 8302 0
-277 29 0
278 -8303 -130 0
-278 8303 0
-278 130 0
-279 280 282 0
-279 282 296 0
-279 280 296 0
279 -280 -296 0
279 -282 -296 0
279 -280 -282 0
-280 258 281 0
-280 -258 -281 0
280 -258 281 0
280 258 -281 0
-281 266 268 0
-281 -266 -268 0
281 -266 268 0
281 266 -268 0
-282 283 285 0
-282 285 295 0
-282 283 295 0
282 -283 -295 0
282 -285 -295 0
282 -283 -285 0
-283 269 284 0
-283 -269 -284 0
283 -269 284 0
283 269 -284 0
-284 273 275 0
-284 -273 -275 0
284 -273 275 0
284 273 -275 0
-285 286 288 0
-285 288 293 0
-285 286 293 0
285 -286 -293 0
285 -288 -293 0
285 -286 -288 0
-286 276 287 0
-286 -276 -287 0
286 -276 287 0
286 276 -287 0
-287 -277 -278 0
-287 277 278 0
287 277 -278 0
287 -277 278 0
-288 289 291 0
-288 290 291 0
-288 289 290 0
288 -289 -290 0
288 -290 -291 0
288 -289 -291 0
289 -8304 -202 0
-289 8304 0
-289 202 0
290 -8305 -242 0
-290 8305 0
-290 242 0
291 -8306 -292 0
-291 8306 0
-291 292 0
-292 8278 0
-292 8294 -8307 -8308 0
292 -8278 -8294 0
292 -8278 8308 0
292 -8278 8307 0
-293 239 294 0
-293 -239 -294 0
293 -239 294 0
293 239 -294 0
-294 -240 -241 0
-294 240 241 0
294 240 -241 0
294 -240 241 0
-295 236 245 0
-295 -236 -245 0
295 -236 245 0
295 236 -245 0
-296 233 297 0
-296 -233 -297 0
296 -233 297 0
296 233 -297 0
-297 235 246 0
-297 -235 -246 0
297 -235 246 0
297 235 -246 0
-298 231 299 0
-298 -231 -299 0
298 -231 299 0
298 231 -299 0
-299 232 248 0
-299 -232 -248 0
299 -232 248 0
299 232 -248 0
-300 217 301 0
-300 -217 -301 0
300 -217 301 0
300 217 -301 0
-301 230 250 0
-301 -230 -250 0
301 -230 250 0
301 230 -250 0
-302 216 252 0
-302 -216 -252 0
302 -216 252 0
302 216 -252 0
-303 511 1055 0
-303 304 1055 0
-303 714 1055 0
303 -1055 0
303 -304 -511 -714 0
304 -305 -403 0
-304 305 0
-304 403 0
305 -306 -354 0
-305 306 0
-305 354 0
-306 307 353 0
-306 -307 -353 0
306 -307 353 0
306 307 -353 0
307 -308 -351 0
-307 308 0
-307 351 0
-308 309 329 0
-308 329 349 0
-308 309 349 0
308 -309 -349 0
308 -329 -349 0
308 -309 -329 0
-309 310 317 0
-309 317 318 0
-309 310 318 0
309 -317 -318 0
309 -310 -317 0
309 -310 -318 0
310 -311 -315 0
-310 311 0
-310 315 0
-311 312 314 0
-311 313 314 0
-311 312 313 0
311 -312 -313 0
311 -313 -314 0
311 -312 -314 0
312 -8295 -16 0
-312 8295 0
-312 16 0
313 -8296 -18 0
-313 8296 0
-313 18 0
314 -8297 -47 0
-314 8297 0
-314 47 0
-315 260 316 0
-315 -260 -316 0
315 -260 316 0
315 260 -316 0
-316 -261 -262 0
-316 261 262 0
316 261 -262 0
316 -261 262 0
-317 259 263 0
-317 -259 -263 0
317 -259 263 0
317 259 -263 0
-318 319 323 0
-318 323 325 0
-318 319 325 0
318 -319 -325 0
318 -323 -325 0
318 -319 -323 0
-319 320 322 0
-319 321 322 0
-319 320 321 0
319 -320 -321 0
319 -321 -322 0
319 -320 -322 0
320 -8284 -8300 0
-320 8284 0
-320 8300 0
321 -8298 -32 0
-321 8298 0
-321 32 0
322 -8299 -25 0
-322 8299 0
-322 25 0
-323 270 324 0
-323 -270 -324 0
323 -270 324 0
323 270 -324 0
-324 -271 -272 0
-324 271 272 0
324 271 -272 0
324 -271 272 0
-325 326 328 0
-325 327 328 0
-325 326 327 0
325 -326 -327 0
325 -327 -328 0
325 -326 -328 0
326 -8301 -29 0
-326 8301 0
-326 29 0
327 -8302 -130 0
-327 8302 0
-327 130 0
328 -8303 -166 0
-328 8303 0
-328 166 0
-329 330 332 0
-329 332 347 0
-329 330 347 0
329 -330 -347 0
329 -332 -347 0
329 -330 -332 0
-330 310 331 0
-330 -310 -331 0
330 -310 331 0
330 310 -331 0
-331 317 318 0
-331 -317 -318 0
331 -317 318 0
331 317 -318 0
-332 333 335 0
-332 335 345 0
-332 333 345 0
332 -333 -345 0
332 -335 -345 0
332 -333 -335 0
-333 319 334 0
-333 -319 -334 0
333 -319 334 0
333 319 -334 0
-334 323 325 0
-334 -323 -325 0
334 -323 325 0
334 323 -325 0
-335 336 338 0
-335 338 343 0
-335 336 343 0
335 -336 -343 0
335 -338 -343 0
335 -336 -338 0
-336 326 337 0
-336 -326 -337 0
336 -326 337 0
336 326 -337 0
-337 -327 -328 0
-337 327 328 0
337 327 -328 0
337 -327 328 0
-338 339 341 0
-338 340 341 0
-338 339 340 0
338 -339 -340 0
338 -340 -341 0
338 -339 -341 0
339 -8304 -242 0
-339 8304 0
-339 242 0
340 -8305 -292 0
-340 8305 0
-340 292 0
341 -8306 -342 0
-341 8306 0
-341 342 0
-342 8277 0
-342 8293 -8307 -8308 0
342 -8277 -8293 0
342 -8277 8308 0
342 -8277 8307 0
-343 289 344 0
-343 -289 -344 0
343 -289 344 0
343 289 -344 0
-344 -290 -291 0
-344 290 291 0
344 290 -291 0
344 -290 291 0
-345 286 346 0
-345 -286 -346 0
345 -286 346 0
345 286 -346 0
-346 288 293 0
-346 -288 -293 0
346 -288 293 0
346 288 -293 0
-347 283 348 0
-347 -283 -348 0
347 -283 348 0
347 283 -348 0
-348 285 295 0
-348 -285 -295 0
348 -285 295 0
348 285 -295 0
-349 280 350 0
-349 -280 -350 0
349 -280 350 0
349 280 -350 0
-350 282 296 0
-350 -282 -296 0
350 -282 296 0
350 282 -296 0
-351 257 352 0
-351 -257 -352 0
351 -257 352 0
351 257 -352 0
-352 279 298 0
-352 -279 -298 0
352 -279 298 0
352 279 -298 0
-353 256 300 0
-353 -256 -300 0
353 -256 300 0
353 256 -300 0
-354 355 402 0
-354 -355 -402 0
354 -355 402 0
354 355 -402 0
355 -356 -400 0
-355 356 0
-355 400 0
-356 357 378 0
-356 378 398 0
-356 357 398 0
356 -357 -398 0
356 -378 -398 0
356 -357 -378 0
-357 358 366 0
-357 366 367 0
-357 358 367 0
357 -358 -367 0
357 -366 -367 0
357 -358 -366 0
-358 359 360 0
-358 360 364 0
-358 359 364 0
358 -360 -364 0
358 -359 -360 0
358 -359 -364 0
359 -8294 -39 0
-359 8294 0
-359 39 0
-360 361 363 0
-360 362 363 0
-360 361 362 0
360 -361 -362 0
360 -362 -363 0
360 -361 -363 0
361 -8295 -18 0
-361 8295 0
-361 18 0
362 -8296 -47 0
-362 8296 0
-362 47 0
363 -8297 -32 0
-363 8297 0
-363 32 0
-364 312 365 0
-364 -312 -365 0
364 -312 365 0
364 312 -365 0
-365 -313 -314 0
-365 313 314 0
365 313 -314 0
365 -313 314 0
-366 311 315 0
-366 -311 -315 0
366 -311 315 0
366 311 -315 0
-367 368 372 0
-367 372 374 0
-367 368 374 0
367 -368 -374 0
367 -372 -374 0
367 -368 -372 0
-368 369 371 0
-368 370 371 0
-368 369 370 0
368 -369 -370 0
368 -370 -371 0
368 -369 -371 0
369 -8298 -25 0
-369 8298 0
-369 25 0
370 -8299 -27 0
-370 8299 0
-370 27 0
371 -8300 -29 0
-371 8300 0
-371 29 0
-372 321 373 0
-372 -321 -373 0
372 -321 373 0
372 321 -373 0
-373 -320 -322 0
-373 320 322 0
373 320 -322 0
373 -320 322 0
-374 375 377 0
-374 376 377 0
-374 375 376 0
374 -375 -376 0
374 -376 -377 0
374 -375 -377 0
375 -8301 -130 0
-375 8301 0
-375 130 0
376 -8302 -166 0
-376 8302 0
-376 166 0
377 -8303 -202 0
-377 8303 0
-377 202 0
-378 379 381 0
-378 381 396 0
-378 379 396 0
378 -379 -396 0
378 -381 -396 0
378 -379 -381 0
-379 358 380 0
-379 -358 -380 0
379 -358 380 0
379 358 -380 0
-380 366 367 0
-380 -366 -367 0
380 -366 367 0
380 366 -367 0
-381 382 384 0
-381 384 394 0
-381 382 394 0
381 -382 -394 0
381 -384 -394 0
381 -382 -384 0
-382 368 383 0
-382 -368 -383 0
382 -368 383 0
382 368 -383 0
-383 372 374 0
-383 -372 -374 0
383 -372 374 0
383 372 -374 0
-384 385 387 0
-384 387 392 0
-384 385 392 0
384 -385 -392 0
384 -387 -392 0
384 -385 -387 0
-385 375 386 0
-385 -375 -386 0
385 -375 386 0
385 375 -386 0
-386 -376 -377 0
-386 376 377 0
386 376 -377 0
386 -376 377 0
-387 388 390 0
-387 389 390 0
-387 388 389 0
387 -388 -389 0
387 -389 -390 0
387 -388 -390 0
388 -8304 -292 0
-388 8304 0
-388 292 0
389 -8305 -342 0
-389 8305 0
-389 342 0
390 -8306 -391 0
-390 8306 0
-390 391 0
-391 8276 0
-391 8292 -8307 -8308 0
391 -8276 -8292 0
391 -8276 8308 0
391 -8276 8307 0
-392 339 393 0
-392 -339 -393 0
392 -339 393 0
392 339 -393 0
-393 -340 -341 0
-393 340 341 0
393 340 -341 0
393 -340 341 0
-394 336 395 0
-394 -336 -395 0
394 -336 395 0
394 336 -395 0
-395 338 343 0
-395 -338 -343 0
395 -338 343 0
395 338 -343 0
-396 333 397 0
-396 -333 -397 0
396 -333 397 0
396 333 -397 0
-397 335 345 0
-397 -335 -345 0
397 -335 345 0
397 335 -345 0
-398 330 399 0
-398 -330 -399 0
398 -330 399 0
398 330 -399 0
-399 332 347 0
-399 -332 -347 0
399 -332 347 0
399 332 -347 0
-400 309 401 0
-400 -309 -401 0
400 -309 401 0
400 309 -401 0
-401 329 349 0
-401 -329 -349 0
401 -329 349 0
401 329 -349 0
-402 308 351 0
-402 -308 -351 0
402 -308 351 0
402 308 -351 0
403 -404 -456 0
-403 404 0
-403 456 0
-404 405 455 0
-404 -405 -455 0
404 -405 455 0
404 405 -455 0
405 -406 -453 0
-405 406 0
-405 453 0
-406 407 431 0
-406 431 451 0
-406 407 451 0
406 -407 -451 0
406 -431 -451 0
406 -407 -431 0
-407 408 418 0
-407 418 420 0
-407 408 420 0
407 -408 -420 0
407 -418 -420 0
407 -408 -418 0
-408 409 412 0
-408 412 416 0
-408 409 416 0
408 -409 -416 0
408 -412 -416 0
408 -409 -412 0
-409 -410 -411 0
-409 410 411 0
409 410 -411 0
409 -410 411 0
410 -8293 -39 0
-410 8293 0
-410 39 0
411 -8294 -16 0
-411 8294 0
-411 16 0
-412 413 415 0
-412 414 415 0
-412 413 414 0
412 -413 -414 0
412 -414 -415 0
412 -413 -415 0
413 -8295 -47 0
-413 8295 0
-413 47 0
414 -8296 -32 0
-414 8296 0
-414 32 0
415 -8297 -25 0
-415 8297 0
-415 25 0
-416 361 417 0
-416 -361 -417 0
416 -361 417 0
416 361 -417 0
-417 -362 -363 0
-417 362 363 0
417 362 -363 0
417 -362 363 0
-418 359 419 0
-418 -359 -419 0
418 -359 419 0
418 359 -419 0
-419 360 364 0
-419 -360 -364 0
419 -360 364 0
419 360 -364 0
-420 421 425 0
-420 425 427 0
-420 421 427 0
420 -421 -427 0
420 -425 -427 0
420 -421 -425 0
-421 422 424 0
-421 423 424 0
-421 422 423 0
421 -422 -423 0
421 -423 -424 0
421 -422 -424 0
422 -8283 -8299 0
-422 8283 0
-422 8299 0
423 -8298 -27 0
-423 8298 0
-423 27 0
424 -8300 -130 0
-424 8300 0
-424 130 0
-425 369 426 0
-425 -369 -426 0
425 -369 426 0
425 369 -426 0
-426 -370 -371 0
-426 370 371 0
426 370 -371 0
426 -370 371 0
-427 428 430 0
-427 429 430 0
-427 428 429 0
427 -428 -429 0
427 -429 -430 0
427 -428 -430 0
428 -8301 -166 0
-428 8301 0
-428 166 0
429 -8302 -202 0
-429 8302 0
-429 202 0
430 -8303 -242 0
-430 8303 0
-430 242 0
-431 432 434 0
-431 434 449 0
-431 432 449 0
431 -432 -449 0
431 -434 -449 0
431 -432 -434 0
-432 408 433 0
-432 -408 -433 0
432 -408 433 0
432 408 -433 0
-433 418 420 0
-433 -418 -420 0
433 -418 420 0
433 418 -420 0
-434 435 437 0
-434 437 447 0
-434 435 447 0
434 -435 -447 0
434 -437 -447 0
434 -435 -437 0
-435 421 436 0
-435 -421 -436 0
435 -421 436 0
435 421 -436 0
-436 425 427 0
-436 -425 -427 0
436 -425 427 0
436 425 -427 0
-437 438 440 0
-437 440 445 0
-437 438 445 0
437 -438 -445 0
437 -440 -445 0
437 -438 -440 0
-438 428 439 0
-438 -428 -439 0
438 -428 439 0
438 428 -439 0
-439 -429 -430 0
-439 429 430 0
439 429 -430 0
439 -429 430 0
-440 441 443 0
-440 442 443 0
-440 441 442 0
440 -441 -442 0
440 -442 -443 0
440 -441 -443 0
441 -8304 -342 0
-441 8304 0
-441 342 0
442 -8305 -391 0
-442 8305 0
-442 391 0
443 -8306 -444 0
-443 8306 0
-443 444 0
-444 8275 0
-444 8291 -8308 0
-444 8307 -8308 0
444 -8275 8308 0
444 -8275 -8291 -8307 0
-445 388 446 0
-445 -388 -446 0
445 -388 446 0
445 388 -446 0
-446 -389 -390 0
-446 389 390 0
446 389 -390 0
446 -389 390 0
-447 385 448 0
-447 -385 -448 0
447 -385 448 0
447 385 -448 0
-448 387 392 0
-448 -387 -392 0
448 -387 392 0
448 387 -392 0
-449 382 450 0
-449 -382 -450 0
449 -382 450 0
449 382 -450 0
-450 384 394 0
-450 -384 -394 0
450 -384 394 0
450 384 -394 0
-451 379 452 0
-451 -379 -452 0
451 -379 452 0
451 379 -452 0
-452 381 396 0
-452 -381 -396 0
452 -381 396 0
452 381 -396 0
-453 357 454 0
-453 -357 -454 0
453 -357 454 0
453 357 -454 0
-454 378 398 0
-454 -378 -398 0
454 -378 398 0
454 378 -398 0
-455 356 400 0
-455 -356 -400 0
455 -356 400 0
455 356 -400 0
-456 457 510 0
-456 -457 -510 0
456 -457 510 0
456 457 -510 0
-457 458 486 0
-457 486 508 0
-457 458 508 0
457 -486 -508 0
457 -458 -486 0
457 -458 -508 0
458 -459 -460 0
-458 459 0
-458 460 0
459 -410 -411 0
-459 410 0
-459 411 0
-460 461 473 0
-460 473 475 0
-460 461 475 0
460 -461 -475 0
460 -473 -475 0
460 -461 -473 0
-461 462 467 0
-461 467 471 0
-461 462 471 0
461 -462 -471 0
461 -467 -471 0
461 -462 -467 0
-462 463 464 0
-462 -463 -464 0
462 -463 464 0
462 463 -464 0
463 -8292 -39 0
-463 8292 0
-463 39 0
-464 -465 -466 0
-464 465 466 0
464 465 -466 0
464 -465 466 0
465 -8293 -16 0
-465 8293 0
-465 16 0
466 -8294 -18 0
-466 8294 0
-466 18 0
-467 468 470 0
-467 469 470 0
-467 468 469 0
467 -468 -469 0
467 -469 -470 0
467 -468 -470 0
468 -8295 -32 0
-468 8295 0
-468 32 0
469 -8296 -25 0
-469 8296 0
-469 25 0
470 -8297 -27 0
-470 8297 0
-470 27 0
-471 413 472 0
-471 -413 -472 0
471 -413 472 0
471 413 -472 0
-472 -414 -415 0
-472 414 415 0
472 414 -415 0
472 -414 415 0
-473 409 474 0
-473 -409 -474 0
473 -409 474 0
473 409 -474 0
-474 412 416 0
-474 -412 -416 0
474 -412 416 0
474 412 -416 0
-475 476 480 0
-475 480 482 0
-475 476 482 0
475 -476 -482 0
475 -480 -482 0
475 -476 -480 0
-476 477 479 0
-476 478 479 0
-476 477 478 0
476 -477 -478 0
476 -478 -479 0
476 -477 -479 0
477 -8298 -29 0
-477 8298 0
-477 29 0
478 -8299 -130 0
-478 8299 0
-478 130 0
479 -8300 -166 0
-479 8300 0
-479 166 0
-480 423 481 0
-480 -423 -481 0
480 -423 481 0
480 423 -481 0
-481 -422 -424 0
-481 422 424 0
481 422 -424 0
481 -422 424 0
-482 483 485 0
-482 484 485 0
-482 483 484 0
482 -483 -484 0
482 -484 -485 0
482 -483 -485 0
483 -8301 -202 0
-483 8301 0
-483 202 0
484 -8302 -242 0
-484 8302 0
-484 242 0
485 -8303 -292 0
-485 8303 0
-485 292 0
-486 487 488 0
-486 488 506 0
-486 487 506 0
486 -487 -506 0
486 -488 -506 0
486 -487 -488 0
-487 459 460 0
-487 -459 -460 0
487 -459 460 0
487 459 -460 0
-488 489 491 0
-488 491 504 0
-488 489 504 0
488 -489 -504 0
488 -491 -504 0
488 -489 -491 0
-489 461 490 0
-489 -461 -490 0
489 -461 490 0
489 461 -490 0
-490 473 475 0
-490 -473 -475 0
490 -473 475 0
490 473 -475 0
-491 492 494 0
-491 494 502 0
-491 492 502 0
491 -492 -502 0
491 -494 -502 0
491 -492 -494 0
-492 476 493 0
-492 -476 -493 0
492 -476 493 0
492 476 -493 0
-493 480 482 0
-493 -480 -482 0
493 -480 482 0
493 480 -482 0
-494 495 500 0
-494 495 497 0
-494 497 500 0
494 -497 -500 0
494 -495 -500 0
494 -495 -497 0
-495 483 496 0
-495 -483 -496 0
495 -483 496 0
495 483 -496 0
-496 -484 -485 0
-496 484 485 0
496 484 -485 0
496 -484 485 0
497 -498 -499 0
-497 498 0
-497 499 0
498 -8304 -391 0
-498 8304 0
-498 391 0
499 -8305 -444 0
-499 8305 0
-499 444 0
-500 441 501 0
-500 -441 -501 0
500 -441 501 0
500 441 -501 0
-501 -442 -443 0
-501 442 443 0
501 442 -443 0
501 -442 443 0
-502 438 503 0
-502 -438 -503 0
502 -438 503 0
502 438 -503 0
-503 440 445 0
-503 -440 -445 0
503 -440 445 0
503 440 -445 0
-504 435 505 0
-504 -435 -505 0
504 -435 505 0
504 435 -505 0
-505 437 447 0
-505 -437 -447 0
505 -437 447 0
505 437 -447 0
-506 432 507 0
-506 -432 -507 0
506 -432 507 0
506 432 -507 0
-507 434 449 0
-507 -434 -449 0
507 -434 449 0
507 434 -449 0
-508 407 509 0
-508 -407 -509 0
508 -407 509 0
508 407 -509 0
-509 431 451 0
-509 -431 -451 0
509 -431 451 0
509 431 -451 0
-510 406 453 0
-510 -406 -453 0
510 -406 453 0
510 406 -453 0
511 -512 -616 0
-511 512 0
-511 616 0
512 -513 -565 0
-512 513 0
-512 565 0
-513 514 563 0
-513 -514 -563 0
513 -514 563 0
513 514 -563 0
-514 515 543 0
-514 543 561 0
-514 515 561 0
514 -543 -561 0
514 -515 -543 0
514 -515 -561 0
515 -516 -517 0
-515 516 0
-515 517 0
-516 463 466 0
-516 465 466 0
-516 463 465 0
516 -463 -465 0
516 -465 -466 0
516 -463 -466 0
-517 518 530 0
-517 530 532 0
-517 518 532 0
517 -518 -532 0
517 -530 -532 0
517 -518 -530 0
-518 519 524 0
-518 524 528 0
-518 519 528 0
518 -519 -528 0
518 -524 -528 0
518 -519 -524 0
-519 520 521 0
-519 -520 -521 0
519 -520 521 0
519 520 -521 0
520 -8292 -16 0
-520 8292 0
-520 16 0
-521 -522 -523 0
-521 522 523 0
521 522 -523 0
521 -522 523 0
522 -8293 -18 0
-522 8293 0
-522 18 0
523 -8294 -47 0
-523 8294 0
-523 47 0
-524 525 527 0
-524 526 527 0
-524 525 526 0
524 -525 -526 0
524 -526 -527 0
524 -525 -527 0
525 -8295 -25 0
-525 8295 0
-525 25 0
526 -8296 -27 0
-526 8296 0
-526 27 0
527 -8297 -29 0
-527 8297 0
-527 29 0
-528 468 529 0
-528 -468 -529 0
528 -468 529 0
528 468 -529 0
-529 -469 -470 0
-529 469 470 0
529 469 -470 0
529 -469 470 0
-530 462 531 0
-530 -462 -531 0
530 -462 531 0
530 462 -531 0
-531 467 471 0
-531 -467 -471 0
531 -467 471 0
531 467 -471 0
-532 533 537 0
-532 537 539 0
-532 533 539 0
532 -533 -539 0
532 -537 -539 0
532 -533 -537 0
-533 534 536 0
-533 535 536 0
-533 534 535 0
533 -534 -535 0
533 -535 -536 0
533 -534 -536 0
534 -8282 -8298 0
-534 8282 0
-534 8298 0
535 -8299 -166 0
-535 8299 0
-535 166 0
536 -8300 -202 0
-536 8300 0
-536 202 0
-537 477 538 0
-537 -477 -538 0
537 -477 538 0
537 477 -538 0
-538 -478 -479 0
-538 478 479 0
538 478 -479 0
538 -478 479 0
-539 540 542 0
-539 541 542 0
-539 540 541 0
539 -540 -541 0
539 -541 -542 0
539 -540 -542 0
540 -8301 -242 0
-540 8301 0
-540 242 0
541 -8302 -292 0
-541 8302 0
-541 292 0
542 -8303 -342 0
-542 8303 0
-542 342 0
-543 544 545 0
-543 545 559 0
-543 544 559 0
543 -544 -559 0
543 -545 -559 0
543 -544 -545 0
-544 516 517 0
-544 -516 -517 0
544 -516 517 0
544 516 -517 0
-545 546 548 0
-545 548 557 0
-545 546 557 0
545 -546 -557 0
545 -548 -557 0
545 -546 -548 0
-546 518 547 0
-546 -518 -547 0
546 -518 547 0
546 518 -547 0
-547 530 532 0
-547 -530 -532 0
547 -530 532 0
547 530 -532 0
-548 549 555 0
-548 549 551 0
-548 551 555 0
548 -551 -555 0
548 -549 -555 0
548 -549 -551 0
-549 533 550 0
-549 -533 -550 0
549 -533 550 0
549 533 -550 0
-550 537 539 0
-550 -537 -539 0
550 -537 539 0
550 537 -539 0
551 -552 -554 0
-551 552 0
-551 554 0
-552 540 553 0
-552 -540 -553 0
552 -540 553 0
552 540 -553 0
-553 -541 -542 0
-553 541 542 0
553 541 -542 0
553 -541 542 0
-554 -498 -499 0
-554 498 499 0
554 498 -499 0
554 -498 499 0
-555 495 556 0
-555 -495 -556 0
555 -495 556 0
555 495 -556 0
-556 497 500 0
-556 -497 -500 0
556 -497 500 0
556 497 -500 0
-557 492 558 0
-557 -492 -558 0
557 -492 558 0
557 492 -558 0
-558 494 502 0
-558 -494 -502 0
558 -494 502 0
558 494 -502 0
-559 489 560 0
-559 -489 -560 0
559 -489 560 0
559 489 -560 0
-560 491 504 0
-560 -491 -504 0
560 -491 504 0
560 491 -504 0
-561 487 562 0
-561 -487 -562 0
561 -487 562 0
561 487 -562 0
-562 488 506 0
-562 -488 -506 0
562 -488 506 0
562 488 -506 0
-563 458 564 0
-563 -458 -564 0
563 -458 564 0
563 458 -564 0
-564 486 508 0
-564 -486 -508 0
564 -486 508 0
564 486 -508 0
-565 566 614 0
-565 -566 -614 0
565 -566 614 0
565 566 -614 0
-566 567 595 0
-566 595 612 0
-566 567 612 0
566 -595 -612 0
566 -567 -595 0
566 -567 -612 0
567 -568 -569 0
-567 568 0
-567 569 0
-568 520 523 0
-568 522 523 0
-568 520 522 0
568 -520 -522 0
568 -522 -523 0
568 -520 -523 0
-569 570 582 0
-569 582 584 0
-569 570 584 0
569 -570 -584 0
569 -582 -584 0
569 -570 -582 0
-570 571 576 0
-570 576 580 0
-570 571 580 0
570 -571 -580 0
570 -576 -580 0
570 -571 -576 0
-571 572 573 0
-571 -572 -573 0
571 -572 573 0
571 572 -573 0
572 -8292 -18 0
-572 8292 0
-572 18 0
-573 -574 -575 0
-573 574 575 0
573 574 -575 0
573 -574 575 0
574 -8293 -47 0
-574 8293 0
-574 47 0
575 -8294 -32 0
-575 8294 0
-575 32 0
-576 577 579 0
-576 578 579 0
-576 577 578 0
576 -577 -578 0
576 -578 -579 0
576 -577 -579 0
577 -8295 -27 0
-577 8295 0
-577 27 0
578 -8296 -29 0
-578 8296 0
-578 29 0
579 -8297 -130 0
-579 8297 0
-579 130 0
-580 525 581 0
-580 -525 -581 0
580 -525 581 0
580 525 -581 0
-581 -526 -527 0
-581 526 527 0
581 526 -527 0
581 -526 527 0
-582 519 583 0
-582 -519 -583 0
582 -519 583 0
582 519 -583 0
-583 524 528 0
-583 -524 -528 0
583 -524 528 0
583 524 -528 0
-584 585 589 0
-584 589 591 0
-584 585 591 0
584 -585 -591 0
584 -589 -591 0
584 -585 -589 0
-585 586 588 0
-585 587 588 0
-585 586 587 0
585 -586 -587 0
585 -587 -588 0
585 -586 -588 0
586 -8298 -166 0
-586 8298 0
-586 166 0
587 -8299 -202 0
-587 8299 0
-587 202 0
588 -8300 -242 0
-588 8300 0
-588 242 0
-589 534 590 0
-589 -534 -590 0
589 -534 590 0
589 534 -590 0
-590 -535 -536 0
-590 535 536 0
590 535 -536 0
590 -535 536 0
-591 592 594 0
-591 593 594 0
-591 592 593 0
591 -592 -593 0
591 -593 -594 0
591 -592 -594 0
592 -8301 -292 0
-592 8301 0
-592 292 0
593 -8302 -342 0
-593 8302 0
-593 342 0
594 -8303 -391 0
-594 8303 0
-594 391 0
-595 596 597 0
-595 597 610 0
-595 596 610 0
595 -596 -610 0
595 -597 -610 0
595 -596 -597 0
-596 568 569 0
-596 -568 -569 0
596 -568 569 0
596 568 -569 0
-597 598 600 0
-597 600 608 0
-597 598 608 0
597 -598 -608 0
597 -600 -608 0
597 -598 -600 0
-598 570 599 0
-598 -570 -599 0
598 -570 599 0
598 570 -599 0
-599 582 584 0
-599 -582 -584 0
599 -582 584 0
599 582 -584 0
-600 601 607 0
-600 601 603 0
-600 603 607 0
600 -603 -607 0
600 -601 -607 0
600 -601 -603 0
-601 585 602 0
-601 -585 -602 0
601 -585 602 0
601 585 -602 0
-602 589 591 0
-602 -589 -591 0
602 -589 591 0
602 589 -591 0
603 -604 -606 0
-603 604 0
-603 606 0
-604 592 605 0
-604 -592 -605 0
604 -592 605 0
604 592 -605 0
-605 -593 -594 0
-605 593 594 0
605 593 -594 0
605 -593 594 0
606 -8304 -444 0
-606 8304 0
-606 444 0
-607 552 554 0
-607 -552 -554 0
607 -552 554 0
607 552 -554 0
-608 549 609 0
-608 -549 -609 0
608 -549 609 0
608 549 -609 0
-609 551 555 0
-609 -551 -555 0
609 -551 555 0
609 551 -555 0
-610 546 611 0
-610 -546 -611 0
610 -546 611 0
610 546 -611 0
-611 548 557 0
-611 -548 -557 0
611 -548 557 0
611 548 -557 0
-612 544 613 0
-612 -544 -613 0
612 -544 613 0
612 544 -613 0
-613 545 559 0
-613 -545 -559 0
613 -545 559 0
613 545 -559 0
-614 515 615 0
-614 -515 -615 0
614 -515 615 0
614 515 -615 0
-615 543 561 0
-615 -543 -561 0
615 -543 561 0
615 543 -561 0
616 -617 -666 0
-616 617 0
-616 666 0
-617 618 664 0
-617 -618 -664 0
617 -618 664 0
617 618 -664 0
-618 619 648 0
-618 648 662 0
-618 619 662 0
618 -619 -662 0
618 -648 -662 0
618 -619 -648 0
-619 620 621 0
-619 621 622 0
-619 620 622 0
619 -621 -622 0
619 -620 -621 0
619 -620 -622 0
620 -8291 -39 0
-620 8291 0
-620 39 0
-621 572 575 0
-621 574 575 0
-621 572 574 0
621 -572 -574 0
621 -574 -575 0
621 -572 -575 0
-622 623 635 0
-622 635 637 0
-622 623 637 0
622 -623 -637 0
622 -635 -637 0
622 -623 -635 0
-623 624 629 0
-623 629 633 0
-623 624 633 0
623 -624 -633 0
623 -629 -633 0
623 -624 -629 0
-624 625 626 0
-624 -625 -626 0
624 -625 626 0
624 625 -626 0
625 -8292 -47 0
-625 8292 0
-625 47 0
-626 -627 -628 0
-626 627 628 0
626 627 -628 0
626 -627 628 0
627 -8293 -32 0
-627 8293 0
-627 32 0
628 -8294 -25 0
-628 8294 0
-628 25 0
-629 630 632 0
-629 631 632 0
-629 630 631 0
629 -630 -631 0
629 -631 -632 0
629 -630 -632 0
630 -8281 -8297 0
-630 8281 0
-630 8297 0
631 -8295 -29 0
-631 8295 0
-631 29 0
632 -8296 -130 0
-632 8296 0
-632 130 0
-633 577 634 0
-633 -577 -634 0
633 -577 634 0
633 577 -634 0
-634 -578 -579 0
-634 578 579 0
634 578 -579 0
634 -578 579 0
-635 571 636 0
-635 -571 -636 0
635 -571 636 0
635 571 -636 0
-636 576 580 0
-636 -576 -580 0
636 -576 580 0
636 576 -580 0
-637 638 642 0
-637 642 644 0
-637 638 644 0
637 -638 -644 0
637 -642 -644 0
637 -638 -642 0
-638 639 641 0
-638 640 641 0
-638 639 640 0
638 -639 -640 0
638 -640 -641 0
638 -639 -641 0
639 -8298 -202 0
-639 8298 0
-639 202 0
640 -8299 -242 0
-640 8299 0
-640 242 0
641 -8300 -292 0
-641 8300 0
-641 292 0
-642 586 643 0
-642 -586 -643 0
642 -586 643 0
642 586 -643 0
-643 -587 -588 0
-643 587 588 0
643 587 -588 0
643 -587 588 0
-644 645 647 0
-644 646 647 0
-644 645 646 0
644 -645 -646 0
644 -646 -647 0
644 -645 -647 0
645 -8301 -342 0
-645 8301 0
-645 342 0
646 -8302 -391 0
-646 8302 0
-646 391 0
647 -8303 -444 0
-647 8303 0
-647 444 0
-648 649 651 0
-648 651 660 0
-648 649 660 0
648 -649 -660 0
648 -651 -660 0
648 -649 -651 0
-649 620 650 0
-649 -620 -650 0
649 -620 650 0
649 620 -650 0
-650 621 622 0
-650 -621 -622 0
650 -621 622 0
650 621 -622 0
-651 652 658 0
-651 652 654 0
-651 654 658 0
651 -654 -658 0
651 -652 -658 0
651 -652 -654 0
-652 623 653 0
-652 -623 -653 0
652 -623 653 0
652 623 -653 0
-653 635 637 0
-653 -635 -637 0
653 -635 637 0
653 635 -637 0
654 -655 -657 0
-654 655 0
-654 657 0
-655 638 656 0
-655 -638 -656 0
655 -638 656 0
655 638 -656 0
-656 642 644 0
-656 -642 -644 0
656 -642 644 0
656 642 -644 0
-657 -604 -606 0
-657 604 606 0
657 604 -606 0
657 -604 606 0
-658 601 659 0
-658 -601 -659 0
658 -601 659 0
658 601 -659 0
-659 603 607 0
-659 -603 -607 0
659 -603 607 0
659 603 -607 0
-660 598 661 0
-660 -598 -661 0
660 -598 661 0
660 598 -661 0
-661 600 608 0
-661 -600 -608 0
661 -600 608 0
661 600 -608 0
-662 596 663 0
-662 -596 -663 0
662 -596 663 0
662 596 -663 0
-663 597 610 0
-663 -597 -610 0
663 -597 610 0
663 597 -610 0
-664 567 665 0
-664 -567 -665 0
664 -567 665 0
664 567 -665 0
-665 595 612 0
-665 -595 -612 0
665 -595 612 0
665 595 -612 0
-666 667 712 0
-666 -667 -712 0
666 -667 712 0
666 667 -712 0
-667 668 696 0
-667 696 710 0
-667 668 710 0
667 -668 -710 0
667 -696 -710 0
667 -668 -696 0
-668 669 670 0
-668 670 671 0
-668 669 671 0
668 -670 -671 0
668 -669 -670 0
668 -669 -671 0
669 -8291 -16 0
-669 8291 0
-669 16 0
-670 625 628 0
-670 627 628 0
-670 625 627 0
670 -625 -627 0
670 -627 -628 0
670 -625 -628 0
-671 672 684 0
-671 684 686 0
-671 672 686 0
671 -672 -686 0
671 -684 -686 0
671 -672 -684 0
-672 673 678 0
-672 678 682 0
-672 673 682 0
672 -673 -682 0
672 -678 -682 0
672 -673 -678 0
-673 674 675 0
-673 -674 -675 0
673 -674 675 0
673 674 -675 0
674 -8292 -32 0
-674 8292 0
-674 32 0
-675 -676 -677 0
-675 676 677 0
675 676 -677 0
675 -676 677 0
676 -8293 -25 0
-676 8293 0
-676 25 0
677 -8294 -27 0
-677 8294 0
-677 27 0
-678 679 681 0
-678 680 681 0
-678 679 680 0
678 -679 -680 0
678 -680 -681 0
678 -679 -681 0
679 -8295 -130 0
-679 8295 0
-679 130 0
680 -8296 -166 0
-680 8296 0
-680 166 0
681 -8297 -202 0
-681 8297 0
-681 202 0
-682 631 683 0
-682 -631 -683 0
682 -631 683 0
682 631 -683 0
-683 -630 -632 0
-683 630 632 0
683 630 -632 0
683 -630 632 0
-684 624 685 0
-684 -624 -685 0
684 -624 685 0
684 624 -685 0
-685 629 633 0
-685 -629 -633 0
685 -629 633 0
685 629 -633 0
-686 687 691 0
-686 691 693 0
-686 687 693 0
686 -691 -693 0
686 -687 -691 0
686 -687 -693 0
-687 688 690 0
-687 689 690 0
-687 688 689 0
687 -688 -689 0
687 -689 -690 0
687 -688 -690 0
688 -8298 -242 0
-688 8298 0
-688 242 0
689 -8299 -292 0
-689 8299 0
-689 292 0
690 -8300 -342 0
-690 8300 0
-690 342 0
-691 639 692 0
-691 -639 -692 0
691 -639 692 0
691 639 -692 0
-692 -640 -641 0
-692 640 641 0
692 640 -641 0
692 -640 641 0
693 -694 -695 0
-693 694 0
-693 695 0
694 -8301 -391 0
-694 8301 0
-694 391 0
695 -8302 -444 0
-695 8302 0
-695 444 0
-696 697 699 0
-696 699 708 0
-696 697 708 0
696 -697 -708 0
696 -699 -708 0
696 -697 -699 0
-697 669 698 0
-697 -669 -698 0
697 -669 698 0
697 669 -698 0
-698 670 671 0
-698 -670 -671 0
698 -670 671 0
698 670 -671 0
-699 700 707 0
-699 700 702 0
-699 702 707 0
699 -702 -707 0
699 -700 -707 0
699 -700 -702 0
-700 672 701 0
-700 -672 -701 0
700 -672 701 0
700 672 -701 0
-701 684 686 0
-701 -684 -686 0
701 -684 686 0
701 684 -686 0
702 -703 -705 0
-702 703 0
-702 705 0
-703 687 704 0
-703 -687 -704 0
703 -687 704 0
703 687 -704 0
-704 -691 -693 0
-704 691 693 0
704 691 -693 0
704 -691 693 0
-705 645 706 0
-705 -645 -706 0
705 -645 706 0
705 645 -706 0
-706 -646 -647 0
-706 646 647 0
706 646 -647 0
706 -646 647 0
-707 655 657 0
-707 -655 -657 0
707 -655 657 0
707 655 -657 0
-708 652 709 0
-708 -652 -709 0
708 -652 709 0
708 652 -709 0
-709 654 658 0
-709 -654 -658 0
709 -654 658 0
709 654 -658 0
-710 649 711 0
-710 -649 -711 0
710 -649 711 0
710 649 -711 0
-711 651 660 0
-711 -651 -660 0
711 -651 660 0
711 651 -660 0
-712 619 713 0
-712 -619 -713 0
712 -619 713 0
712 619 -713 0
-713 648 662 0
-713 -648 -662 0
713 -648 662 0
713 648 -662 0
-714 874 1044 0
-714 715 1044 0
-714 982 1044 0
714 -1044 0
714 -715 -874 -982 0
715 -716 -803 0
-715 716 0
-715 803 0
716 -717 -760 0
-716 717 0
-716 760 0
-717 718 758 0
-717 -718 -758 0
717 -718 758 0
717 718 -758 0
-718 719 744 0
-718 744 756 0
-718 719 756 0
718 -719 -756 0
718 -744 -756 0
718 -719 -744 0
-719 720 721 0
-719 721 722 0
-719 720 722 0
719 -721 -722 0
719 -720 -721 0
719 -720 -722 0
720 -8291 -18 0
-720 8291 0
-720 18 0
-721 674 677 0
-721 676 677 0
-721 674 676 0
721 -674 -676 0
721 -676 -677 0
721 -674 -677 0
-722 723 735 0
-722 735 737 0
-722 723 737 0
722 -735 -737 0
722 -723 -735 0
722 -723 -737 0
-723 724 729 0
-723 729 733 0
-723 724 733 0
723 -724 -733 0
723 -729 -733 0
723 -724 -729 0
-724 725 726 0
-724 -725 -726 0
724 -725 726 0
724 725 -726 0
725 -8292 -25 0
-725 8292 0
-725 25 0
-726 -727 -728 0
-726 727 728 0
726 727 -728 0
726 -727 728 0
727 -8293 -27 0
-727 8293 0
-727 27 0
728 -8294 -29 0
-728 8294 0
-728 29 0
-729 730 732 0
-729 731 732 0
-729 730 731 0
729 -730 -731 0
729 -731 -732 0
729 -730 -732 0
730 -8280 -8296 0
-730 8280 0
-730 8296 0
731 -8295 -166 0
-731 8295 0
-731 166 0
732 -8297 -242 0
-732 8297 0
-732 242 0
-733 679 734 0
-733 -679 -734 0
733 -679 734 0
733 679 -734 0
-734 -680 -681 0
-734 680 681 0
734 680 -681 0
734 -680 681 0
-735 673 736 0
-735 -673 -736 0
735 -673 736 0
735 673 -736 0
-736 678 682 0
-736 -678 -682 0
736 -678 682 0
736 678 -682 0
737 -738 -742 0
-737 738 0
-737 742 0
-738 739 741 0
-738 740 741 0
-738 739 740 0
738 -739 -740 0
738 -740 -741 0
738 -739 -741 0
739 -8298 -292 0
-739 8298 0
-739 292 0
740 -8299 -342 0
-740 8299 0
-740 342 0
741 -8300 -391 0
-741 8300 0
-741 391 0
-742 688 743 0
-742 -688 -743 0
742 -688 743 0
742 688 -743 0
-743 -689 -690 0
-743 689 690 0
743 689 -690 0
743 -689 690 0
-744 745 747 0
-744 747 754 0
-744 745 754 0
744 -745 -754 0
744 -747 -754 0
744 -745 -747 0
-745 720 746 0
-745 -720 -746 0
745 -720 746 0
745 720 -746 0
-746 721 722 0
-746 -721 -722 0
746 -721 722 0
746 721 -722 0
-747 748 753 0
-747 748 750 0
-747 750 753 0
747 -750 -753 0
747 -748 -753 0
747 -748 -750 0
-748 723 749 0
-748 -723 -749 0
748 -723 749 0
748 723 -749 0
-749 -735 -737 0
-749 735 737 0
749 735 -737 0
749 -735 737 0
750 -751 -752 0
-750 751 0
-750 752 0
-751 738 742 0
-751 -738 -742 0
751 -738 742 0
751 738 -742 0
-752 -694 -695 0
-752 694 695 0
752 694 -695 0
752 -694 695 0
-753 703 705 0
-753 -703 -705 0
753 -703 705 0
753 703 -705 0
-754 700 755 0
-754 -700 -755 0
754 -700 755 0
754 700 -755 0
-755 702 707 0
-755 -702 -707 0
755 -702 707 0
755 702 -707 0
-756 697 757 0
-756 -697 -757 0
756 -697 757 0
756 697 -757 0
-757 699 708 0
-757 -699 -708 0
757 -699 708 0
757 699 -708 0
-758 668 759 0
-758 -668 -759 0
758 -668 759 0
758 668 -759 0
-759 696 710 0
-759 -696 -710 0
759 -696 710 0
759 696 -710 0
-760 761 801 0
-760 -761 -801 0
760 -761 801 0
760 761 -801 0
-761 762 787 0
-761 787 799 0
-761 762 799 0
761 -762 -799 0
761 -787 -799 0
761 -762 -787 0
-762 763 764 0
-762 764 765 0
-762 763 765 0
762 -764 -765 0
762 -763 -764 0
762 -763 -765 0
763 -8291 -47 0
-763 8291 0
-763 47 0
-764 725 728 0
-764 727 728 0
-764 725 727 0
764 -725 -727 0
764 -727 -728 0
764 -725 -728 0
-765 766 778 0
-765 778 780 0
-765 766 780 0
765 -778 -780 0
765 -766 -778 0
765 -766 -780 0
-766 767 772 0
-766 772 776 0
-766 767 776 0
766 -767 -776 0
766 -772 -776 0
766 -767 -772 0
-767 768 769 0
-767 -768 -769 0
767 -768 769 0
767 768 -769 0
768 -8292 -27 0
-768 8292 0
-768 27 0
-769 -770 -771 0
-769 770 771 0
769 770 -771 0
769 -770 771 0
770 -8293 -29 0
-770 8293 0
-770 29 0
771 -8294 -130 0
-771 8294 0
-771 130 0
-772 773 775 0
-772 774 775 0
-772 773 774 0
772 -773 -774 0
772 -774 -775 0
772 -773 -775 0
773 -8295 -202 0
-773 8295 0
-773 202 0
774 -8296 -242 0
-774 8296 0
-774 242 0
775 -8297 -292 0
-775 8297 0
-775 292 0
-776 731 777 0
-776 -731 -777 0
776 -731 777 0
776 731 -777 0
-777 -730 -732 0
-777 730 732 0
777 730 -732 0
777 -730 732 0
-778 724 779 0
-778 -724 -779 0
778 -724 779 0
778 724 -779 0
-779 729 733 0
-779 -729 -733 0
779 -729 733 0
779 729 -733 0
780 -781 -785 0
-780 781 0
-780 785 0
-781 782 784 0
-781 783 784 0
-781 782 783 0
781 -782 -783 0
781 -783 -784 0
781 -782 -784 0
782 -8298 -342 0
-782 8298 0
-782 342 0
783 -8299 -391 0
-783 8299 0
-783 391 0
784 -8300 -444 0
-784 8300 0
-784 444 0
-785 739 786 0
-785 -739 -786 0
785 -739 786 0
785 739 -786 0
-786 -740 -741 0
-786 740 741 0
786 740 -741 0
786 -740 741 0
-787 788 790 0
-787 790 797 0
-787 788 797 0
787 -788 -797 0
787 -790 -797 0
787 -788 -790 0
-788 763 789 0
-788 -763 -789 0
788 -763 789 0
788 763 -789 0
-789 764 765 0
-789 -764 -765 0
789 -764 765 0
789 764 -765 0
-790 791 796 0
-790 791 793 0
-790 793 796 0
790 -793 -796 0
790 -791 -796 0
790 -791 -793 0
-791 766 792 0
-791 -766 -792 0
791 -766 792 0
791 766 -792 0
-792 -778 -780 0
-792 778 780 0
792 778 -780 0
792 -778 780 0
793 -794 -795 0
-793 794 0
-793 795 0
-794 781 785 0
-794 -781 -785 0
794 -781 785 0
794 781 -785 0
795 -8301 -444 0
-795 8301 0
-795 444 0
-796 751 752 0
-796 -751 -752 0
796 -751 752 0
796 751 -752 0
-797 748 798 0
-797 -748 -798 0
797 -748 798 0
797 748 -798 0
-798 750 753 0
-798 -750 -753 0
798 -750 753 0
798 750 -753 0
-799 745 800 0
-799 -745 -800 0
799 -745 800 0
799 745 -800 0
-800 747 754 0
-800 -747 -754 0
800 -747 754 0
800 747 -754 0
-801 719 802 0
-801 -719 -802 0
801 -719 802 0
801 719 -802 0
-802 744 756 0
-802 -744 -756 0
802 -744 756 0
802 744 -756 0
803 -804 -843 0
-803 804 0
-803 843 0
-804 805 841 0
-804 -805 -841 0
804 -805 841 0
804 805 -841 0
-805 806 830 0
-805 830 839 0
-805 806 839 0
805 -806 -839 0
805 -830 -839 0
805 -806 -830 0
-806 807 808 0
-806 808 809 0
-806 807 809 0
806 -808 -809 0
806 -807 -808 0
806 -807 -809 0
807 -8291 -32 0
-807 8291 0
-807 32 0
-808 768 771 0
-808 770 771 0
-808 768 770 0
808 -768 -770 0
808 -770 -771 0
808 -768 -771 0
-809 810 822 0
-809 822 824 0
-809 810 824 0
809 -822 -824 0
809 -810 -822 0
809 -810 -824 0
-810 811 816 0
-810 816 820 0
-810 811 820 0
810 -811 -820 0
810 -816 -820 0
810 -811 -816 0
-811 812 813 0
-811 -812 -813 0
811 -812 813 0
811 812 -813 0
812 -8292 -29 0
-812 8292 0
-812 29 0
-813 -814 -815 0
-813 814 815 0
813 814 -815 0
813 -814 815 0
814 -8293 -130 0
-814 8293 0
-814 130 0
815 -8294 -166 0
-815 8294 0
-815 166 0
-816 817 819 0
-816 818 819 0
-816 817 818 0
816 -817 -818 0
816 -818 -819 0
816 -817 -819 0
817 -8279 -8295 0
-817 8279 0
-817 8295 0
818 -8296 -292 0
-818 8296 0
-818 292 0
819 -8297 -342 0
-819 8297 0
-819 342 0
-820 773 821 0
-820 -773 -821 0
820 -773 821 0
820 773 -821 0
-821 -774 -775 0
-821 774 775 0
821 774 -775 0
821 -774 775 0
-822 767 823 0
-822 -767 -823 0
822 -767 823 0
822 767 -823 0
-823 772 776 0
-823 -772 -776 0
823 -772 776 0
823 772 -776 0
824 -825 -828 0
-824 825 0
-824 828 0
825 -826 -827 0
-825 826 0
-825 827 0
826 -8298 -391 0
-826 8298 0
-826 391 0
827 -8299 -444 0
-827 8299 0
-827 444 0
-828 782 829 0
-828 -782 -829 0
828 -782 829 0
828 782 -829 0
-829 -783 -784 0
-829 783 784 0
829 783 -784 0
829 -783 784 0
-830 831 837 0
-830 831 833 0
-830 833 837 0
830 -833 -837 0
830 -831 -837 0
830 -831 -833 0
-831 807 832 0
-831 -807 -832 0
831 -807 832 0
831 807 -832 0
-832 808 809 0
-832 -808 -809 0
832 -808 809 0
832 808 -809 0
833 -834 -836 0
-833 834 0
-833 836 0
-834 810 835 0
-834 -810 -835 0
834 -810 835 0
834 810 -835 0
-835 -822 -824 0
-835 822 824 0
835 822 -824 0
835 -822 824 0
-836 -794 -795 0
-836 794 795 0
836 794 -795 0
836 -794 795 0
-837 791 838 0
-837 -791 -838 0
837 -791 838 0
837 791 -838 0
-838 793 796 0
-838 -793 -796 0
838 -793 796 0
838 793 -796 0
-839 788 840 0
-839 -788 -840 0
839 -788 840 0
839 788 -840 0
-840 790 797 0
-840 -790 -797 0
840 -790 797 0
840 790 -797 0
-841 762 842 0
-841 -762 -842 0
841 -762 842 0
841 762 -842 0
-842 787 799 0
-842 -787 -799 0
842 -787 799 0
842 787 -799 0
-843 844 872 0
-843 -844 -872 0
843 -844 872 0
843 844 -872 0
-844 845 863 0
-844 863 870 0
-844 845 870 0
844 -845 -870 0
844 -863 -870 0
844 -845 -863 0
-845 847 848 0
-845 846 848 0
-845 846 847 0
845 -846 -848 0
845 -846 -847 0
845 -847 -848 0
846 -8291 -25 0
-846 8291 0
-846 25 0
-847 812 815 0
-847 814 815 0
-847 812 814 0
847 -812 -814 0
847 -814 -815 0
847 -812 -815 0
848 -849 -861 0
-848 849 0
-848 861 0
-849 850 855 0
-849 855 859 0
-849 850 859 0
849 -850 -859 0
849 -855 -859 0
849 -850 -855 0
-850 851 852 0
-850 -851 -852 0
850 -851 852 0
850 851 -852 0
851 -8292 -130 0
-851 8292 0
-851 130 0
-852 -853 -854 0
-852 853 854 0
852 853 -854 0
852 -853 854 0
853 -8293 -166 0
-853 8293 0
-853 166 0
854 -8294 -202 0
-854 8294 0
-854 202 0
-855 856 858 0
-855 857 858 0
-855 856 857 0
855 -856 -857 0
855 -857 -858 0
855 -856 -858 0
856 -8295 -292 0
-856 8295 0
-856 292 0
857 -8296 -342 0
-857 8296 0
-857 342 0
858 -8297 -391 0
-858 8297 0
-858 391 0
-859 817 860 0
-859 -817 -860 0
859 -817 860 0
859 817 -860 0
-860 -818 -819 0
-860 818 819 0
860 818 -819 0
860 -818 819 0
-861 811 862 0
-861 -811 -862 0
861 -811 862 0
861 811 -862 0
-862 816 820 0
-862 -816 -820 0
862 -816 820 0
862 816 -820 0
-863 864 869 0
-863 864 866 0
-863 866 869 0
863 -866 -869 0
863 -864 -869 0
863 -864 -866 0
-864 846 865 0
-864 -846 -865 0
864 -846 865 0
864 846 -865 0
-865 -847 -848 0
-865 847 848 0
865 847 -848 0
865 -847 848 0
866 -867 -868 0
-866 867 0
-866 868 0
-867 849 861 0
-867 -849 -861 0
867 -849 861 0
867 849 -861 0
-868 825 828 0
-868 -825 -828 0
868 -825 828 0
868 825 -828 0
-869 834 836 0
-869 -834 -836 0
869 -834 836 0
869 834 -836 0
-870 831 871 0
-870 -831 -871 0
870 -831 871 0
870 831 -871 0
-871 833 837 0
-871 -833 -837 0
871 -833 837 0
871 833 -837 0
-872 806 873 0
-872 -806 -873 0
872 -806 873 0
872 806 -873 0
-873 830 839 0
-873 -830 -839 0
873 -830 839 0
873 830 -839 0
874 -875 -937 0
-874 875 0
-874 937 0
875 -876 -907 0
-875 876 0
-875 907 0
-876 877 905 0
-876 -877 -905 0
876 -877 905 0
876 877 -905 0
-877 878 896 0
-877 896 903 0
-877 878 903 0
877 -878 -903 0
877 -896 -903 0
877 -878 -896 0
-878 880 881 0
-878 879 881 0
-878 879 880 0
878 -879 -881 0
878 -879 -880 0
878 -880 -881 0
879 -8291 -27 0
-879 8291 0
-879 27 0
-880 851 854 0
-880 853 854 0
-880 851 853 0
880 -851 -853 0
880 -853 -854 0
880 -851 -854 0
881 -882 -894 0
-881 882 0
-881 894 0
-882 883 888 0
-882 888 892 0
-882 883 892 0
882 -883 -892 0
882 -888 -892 0
882 -883 -888 0
-883 884 885 0
-883 -884 -885 0
883 -884 885 0
883 884 -885 0
884 -8292 -166 0
-884 8292 0
-884 166 0
-885 -886 -887 0
-885 886 887 0
885 886 -887 0
885 -886 887 0
886 -8293 -202 0
-886 8293 0
-886 202 0
887 -8294 -242 0
-887 8294 0
-887 242 0
-888 889 891 0
-888 890 891 0
-888 889 890 0
888 -889 -890 0
888 -890 -891 0
888 -889 -891 0
889 -8295 -342 0
-889 8295 0
-889 342 0
890 -8296 -391 0
-890 8296 0
-890 391 0
891 -8297 -444 0
-891 8297 0
-891 444 0
-892 856 893 0
-892 -856 -893 0
892 -856 893 0
892 856 -893 0
-893 -857 -858 0
-893 857 858 0
893 857 -858 0
893 -857 858 0
-894 850 895 0
-894 -850 -895 0
894 -850 895 0
894 850 -895 0
-895 855 859 0
-895 -855 -859 0
895 -855 859 0
895 855 -859 0
-896 897 902 0
-896 897 899 0
-896 899 902 0
896 -899 -902 0
896 -897 -902 0
896 -897 -899 0
-897 879 898 0
-897 -879 -898 0
897 -879 898 0
897 879 -898 0
-898 -880 -881 0
-898 880 881 0
898 880 -881 0
898 -880 881 0
899 -900 -901 0
-899 900 0
-899 901 0
-900 882 894 0
-900 -882 -894 0
900 -882 894 0
900 882 -894 0
-901 -826 -827 0
-901 826 827 0
901 826 -827 0
901 -826 827 0
-902 867 868 0
-902 -867 -868 0
902 -867 868 0
902 867 -868 0
-903 864 904 0
-903 -864 -904 0
903 -864 904 0
903 864 -904 0
-904 866 869 0
-904 -866 -869 0
904 -866 869 0
904 866 -869 0
-905 845 906 0
-905 -845 -906 0
905 -845 906 0
905 845 -906 0
-906 863 870 0
-906 -863 -870 0
906 -863 870 0
906 863 -870 0
-907 908 935 0
-907 -908 -935 0
907 -908 935 0
907 908 -935 0
-908 909 926 0
-908 926 933 0
-908 909 933 0
908 -909 -933 0
908 -926 -933 0
908 -909 -926 0
-909 911 912 0
-909 910 912 0
-909 910 911 0
909 -910 -912 0
909 -910 -911 0
909 -911 -912 0
910 -8291 -29 0
-910 8291 0
-910 29 0
-911 884 887 0
-911 886 887 0
-911 884 886 0
911 -884 -886 0
911 -886 -887 0
911 -884 -887 0
912 -913 -924 0
-912 913 0
-912 924 0
-913 914 922 0
-913 914 919 0
-913 919 922 0
913 -919 -922 0
913 -914 -922 0
913 -914 -919 0
-914 915 916 0
-914 -915 -916 0
914 -915 916 0
914 915 -916 0
915 -8292 -202 0
-915 8292 0
-915 202 0
-916 -917 -918 0
-916 917 918 0
916 917 -918 0
916 -917 918 0
917 -8278 -8294 0
-917 8278 0
-917 8294 0
918 -8293 -242 0
-918 8293 0
-918 242 0
919 -920 -921 0
-919 920 0
-919 921 0
920 -8295 -391 0
-920 8295 0
-920 391 0
921 -8296 -444 0
-921 8296 0
-921 444 0
-922 889 923 0
-922 -889 -923 0
922 -889 923 0
922 889 -923 0
-923 -890 -891 0
-923 890 891 0
923 890 -891 0
923 -890 891 0
-924 883 925 0
-924 -883 -925 0
924 -883 925 0
924 883 -925 0
-925 888 892 0
-925 -888 -892 0
925 -888 892 0
925 888 -892 0
-926 927 932 0
-926 927 929 0
-926 929 932 0
926 -929 -932 0
926 -927 -932 0
926 -927 -929 0
-927 910 928 0
-927 -910 -928 0
927 -910 928 0
927 910 -928 0
-928 -911 -912 0
-928 911 912 0
928 911 -912 0
928 -911 912 0
929 -930 -931 0
-929 930 0
-929 931 0
-930 913 924 0
-930 -913 -924 0
930 -913 924 0
930 913 -924 0
931 -8298 -444 0
-931 8298 0
-931 444 0
-932 900 901 0
-932 -900 -901 0
932 -900 901 0
932 900 -901 0
-933 897 934 0
-933 -897 -934 0
933 -897 934 0
933 897 -934 0
-934 899 902 0
-934 -899 -902 0
934 -899 902 0
934 899 -902 0
-935 878 936 0
-935 -878 -936 0
935 -878 936 0
935 878 -936 0
-936 896 903 0
-936 -896 -903 0
936 -896 903 0
936 896 -903 0
937 -938 -961 0
-937 938 0
-937 961 0
-938 939 959 0
-938 -939 -959 0
938 -939 959 0
938 939 -959 0
-939 940 957 0
-939 940 953 0
-939 953 957 0
939 -953 -957 0
939 -940 -957 0
939 -940 -953 0
-940 942 943 0
-940 941 943 0
-940 941 942 0
940 -941 -943 0
940 -941 -942 0
940 -942 -943 0
941 -8291 -130 0
-941 8291 0
-941 130 0
-942 917 918 0
-942 915 918 0
-942 917 915 0
942 -917 -915 0
942 -915 -918 0
942 -917 -918 0
943 -944 -951 0
-943 944 0
-943 951 0
944 -945 -950 0
-944 945 0
-944 950 0
-945 946 947 0
-945 -946 -947 0
945 -946 947 0
945 946 -947 0
946 -8292 -242 0
-946 8292 0
-946 242 0
-947 -948 -949 0
-947 948 949 0
947 948 -949 0
947 -948 949 0
948 -8293 -292 0
-948 8293 0
-948 292 0
949 -8294 -342 0
-949 8294 0
-949 342 0
-950 -920 -921 0
-950 920 921 0
950 920 -921 0
950 -920 921 0
-951 914 952 0
-951 -914 -952 0
951 -914 952 0
951 914 -952 0
-952 919 922 0
-952 -919 -922 0
952 -919 922 0
952 919 -922 0
953 -954 -956 0
-953 954 0
-953 956 0
-954 941 955 0
-954 -941 -955 0
954 -941 955 0
954 941 -955 0
-955 -942 -943 0
-955 942 943 0
955 942 -943 0
955 -942 943 0
-956 -930 -931 0
-956 930 931 0
956 930 -931 0
956 -930 931 0
-957 927 958 0
-957 -927 -958 0
957 -927 958 0
957 927 -958 0
-958 929 932 0
-958 -929 -932 0
958 -929 932 0
958 929 -932 0
-959 909 960 0
-959 -909 -960 0
959 -909 960 0
959 909 -960 0
-960 926 933 0
-960 -926 -933 0
960 -926 933 0
960 926 -933 0
-961 962 980 0
-961 -962 -980 0
961 -962 980 0
961 962 -980 0
-962 963 979 0
-962 963 975 0
-962 975 979 0
962 -975 -979 0
962 -963 -979 0
962 -963 -975 0
-963 965 966 0
-963 964 966 0
-963 964 965 0
963 -964 -966 0
963 -964 -965 0
963 -965 -966 0
964 -8291 -166 0
-964 8291 0
-964 166 0
-965 946 949 0
-965 948 949 0
-965 946 948 0
965 -946 -948 0
965 -948 -949 0
965 -946 -949 0
966 -967 -974 0
-966 967 0
-966 974 0
967 -968 -973 0
-967 968 0
-967 973 0
-968 969 970 0
-968 -969 -970 0
968 -969 970 0
968 969 -970 0
969 -8292 -292 0
-969 8292 0
-969 292 0
-970 -971 -972 0
-970 971 972 0
970 971 -972 0
970 -971 972 0
971 -8277 -8293 0
-971 8277 0
-971 8293 0
972 -8294 -391 0
-972 8294 0
-972 391 0
973 -8295 -444 0
-973 8295 0
-973 444 0
-974 945 950 0
-974 -945 -950 0
974 -945 950 0
974 945 -950 0
975 -976 -978 0
-975 976 0
-975 978 0
-976 964 977 0
-976 -964 -977 0
976 -964 977 0
976 964 -977 0
-977 -965 -966 0
-977 965 966 0
977 965 -966 0
977 -965 966 0
-978 944 951 0
-978 -944 -951 0
978 -944 951 0
978 944 -951 0
-979 954 956 0
-979 -954 -956 0
979 -954 956 0
979 954 -956 0
-980 940 981 0
-980 -940 -981 0
980 -940 981 0
980 940 -981 0
-981 953 957 0
-981 -953 -957 0
981 -953 957 0
981 953 -957 0
-982 1008 1039 0
-982 983 1039 0
-982 1032 1039 0
982 -1039 0
982 -983 -1008 -1032 0
983 -984 -994 0
-983 984 0
-983 994 0
-984 985 992 0
-984 -985 -992 0
984 -985 992 0
984 985 -992 0
-985 991 0
-985 987 988 0
-985 986 988 0
985 -988 -991 0
985 -986 -987 -991 0
986 -8291 -202 0
-986 8291 0
-986 202 0
-987 971 972 0
-987 969 972 0
-987 971 969 0
987 -971 -969 0
987 -969 -972 0
987 -971 -972 0
988 -989 -990 0
-988 989 0
-988 990 0
-989 986 987 0
-989 -986 -987 0
989 -986 987 0
989 986 -987 0
-990 967 974 0
-990 -967 -974 0
990 -967 974 0
990 967 -974 0
-991 976 978 0
-991 -976 -978 0
991 -976 978 0
991 976 -978 0
-992 963 993 0
-992 -963 -993 0
992 -963 993 0
992 963 -993 0
-993 975 979 0
-993 -975 -979 0
993 -975 979 0
993 975 -979 0
-994 995 1005 0
-994 -995 -1005 0
994 -995 1005 0
994 995 -1005 0
-995 1004 0
-995 997 1001 0
-995 996 1001 0
995 -1001 -1004 0
995 -996 -997 -1004 0
996 -8291 -242 0
-996 8291 0
-996 242 0
-997 998 1000 0
-997 999 1000 0
-997 998 999 0
997 -998 -999 0
997 -999 -1000 0
997 -998 -1000 0
998 -8292 -342 0
-998 8292 0
-998 342 0
999 -8293 -391 0
-999 8293 0
-999 391 0
1000 -8294 -444 0
-1000 8294 0
-1000 444 0
1001 -1002 -1003 0
-1001 1002 0
-1001 1003 0
-1002 996 997 0
-1002 -996 -997 0
1002 -996 997 0
1002 996 -997 0
-1003 -968 -973 0
-1003 968 973 0
1003 968 -973 0
1003 -968 973 0
-1004 989 990 0
-1004 -989 -990 0
1004 -989 990 0
1004 989 -990 0
-1005 1006 1007 0
-1005 -1006 -1007 0
1005 -1006 1007 0
1005 1006 -1007 0
1006 -986 -987 0
-1006 986 0
-1006 987 0
-1007 988 991 0
-1007 -988 -991 0
1007 -988 991 0
1007 988 -991 0
1008 -1009 -1023 0
-1008 1009 0
-1008 1023 0
-1009 1010 1020 0
-1009 -1010 -1020 0
1009 -1010 1020 0
1009 1010 -1020 0
-1010 1019 0
-1010 1011 1015 0
-1010 1012 1015 0
1010 -1015 -1019 0
1010 -1011 -1012 -1019 0
1011 -8291 -292 0
-1011 8291 0
-1011 292 0
1012 -1013 -1014 0
-1012 1013 0
-1012 1014 0
1013 -8276 -8292 0
-1013 8276 0
-1013 8292 0
1014 -8293 -444 0
-1014 8293 0
-1014 444 0
1015 -1016 -1017 0
-1015 1016 0
-1015 1017 0
-1016 -1011 -1012 0
-1016 1011 1012 0
1016 1011 -1012 0
1016 -1011 1012 0
-1017 998 1018 0
-1017 -998 -1018 0
1017 -998 1018 0
1017 998 -1018 0
-1018 -999 -1000 0
-1018 999 1000 0
1018 999 -1000 0
1018 -999 1000 0
-1019 1002 1003 0
-1019 -1002 -1003 0
1019 -1002 1003 0
1019 1002 -1003 0
-1020 1021 1022 0
-1020 -1021 -1022 0
1020 -1021 1022 0
1020 1021 -1022 0
1021 -996 -997 0
-1021 996 0
-1021 997 0
-1022 1001 1004 0
-1022 -1001 -1004 0
1022 -1001 1004 0
1022 1001 -1004 0
-1023 1024 1029 0
-1023 -1024 -1029 0
1023 -1024 1029 0
1023 1024 -1029 0
1024 -1025 -1028 0
-1024 1025 0
-1024 1028 0
1025 -1026 -1027 0
-1025 1026 0
-1025 1027 0
1026 -8291 -342 0
-1026 8291 0
-1026 342 0
-1027 -1013 -1014 0
-1027 1013 1014 0
1027 1013 -1014 0
1027 -1013 1014 0
-1028 1016 1017 0
-1028 -1016 -1017 0
1028 -1016 1017 0
1028 1016 -1017 0
-1029 1030 1031 0
-1029 -1030 -1031 0
1029 -1030 1031 0
1029 1030 -1031 0
1030 -1011 -1012 0
-1030 1011 0
-1030 1012 0
-1031 1015 1019 0
-1031 -1015 -1019 0
1031 -1015 1019 0
1031 1015 -1019 0
1032 -1033 -1038 0
-1032 1033 0
-1032 1038 0
1033 -1034 -1037 0
-1033 1034 0
-1033 1037 0
1034 -1035 -1036 0
-1034 1035 0
-1034 1036 0
1035 -8291 -391 0
-1035 8291 0
-1035 391 0
1036 -8292 -444 0
-1036 8292 0
-1036 444 0
-1037 1026 1027 0
-1037 -1026 -1027 0
1037 -1026 1027 0
1037 1026 -1027 0
-1038 1025 1028 0
-1038 -1025 -1028 0
1038 -1025 1028 0
1038 1025 -1028 0
-1039 1040 1042 0
-1039 983 1042 0
1039 -1042 0
1039 -983 -1040 0
-1040 1020 1009 0
-1040 1010 1041 0
-1040 1010 1009 0
-1040 1020 1041 0
1040 -1009 -1041 0
1040 -1010 -1020 0
1041 -1024 -1029 0
-1041 1024 0
-1041 1029 0
-1042 992 984 0
-1042 985 1043 0
-1042 985 984 0
-1042 992 1043 0
1042 -984 -1043 0
1042 -985 -992 0
1043 -995 -1005 0
-1043 995 0
-1043 1005 0
-1044 716 1045 1053 0
-1044 1045 1051 1053 0
1044 -1053 0
1044 -1045 0
1044 -716 -1051 0
1045 -715 -1046 0
-1045 715 0
-1045 1046 0
-1046 877 1047 1050 0
-1046 877 905 1047 0
-1046 905 1047 1050 0
1046 -905 -1050 0
1046 -877 -1050 0
1046 -1047 0
1046 -877 -905 0
1047 -875 -1048 0
-1047 875 0
-1047 1048 0
-1048 939 959 0
-1048 959 1049 0
-1048 939 1049 0
1048 -959 -1049 0
1048 -939 -959 0
1048 -939 -1049 0
1049 -962 -980 0
-1049 962 0
-1049 980 0
1050 -908 -935 0
-1050 908 0
-1050 935 0
-1051 805 841 0
-1051 841 1052 0
-1051 805 1052 0
1051 -841 -1052 0
1051 -805 -841 0
1051 -805 -1052 0
1052 -844 -872 0
-1052 844 0
-1052 872 0
-1053 718 758 0
-1053 758 1054 0
-1053 718 1054 0
1053 -758 -1054 0
1053 -718 -758 0
1053 -718 -1054 0
1054 -761 -801 0
-1054 761 0
-1054 801 0
-1055 305 1056 1064 0
-1055 1056 1062 1064 0
1055 -1064 0
1055 -1056 0
1055 -305 -1062 0
1056 -304 -1057 0
-1056 304 0
-1056 1057 0
-1057 514 1058 1061 0
-1057 514 563 1058 0
-1057 563 1058 1061 0
1057 -563 -1061 0
1057 -514 -1061 0
1057 -1058 0
1057 -514 -563 0
1058 -512 -1059 0
-1058 512 0
-1058 1059 0
-1059 618 664 0
-1059 664 1060 0
-1059 618 1060 0
1059 -664 -1060 0
1059 -618 -664 0
1059 -618 -1060 0
1060 -667 -712 0
-1060 667 0
-1060 712 0
1061 -566 -614 0
-1061 566 0
-1061 614 0
-1062 455 1063 0
-1062 405 1063 0
-1062 405 455 0
1062 -405 -1063 0
1062 -405 -455 0
1062 -455 -1063 0
1063 -457 -510 0
-1063 457 0
-1063 510 0
-1064 353 1065 0
-1064 307 306 0
-1064 353 306 0
-1064 307 1065 0
1064 -306 -1065 0
1064 -307 -353 0
1065 -355 -402 0
-1065 355 0
-1065 402 0
-1066 143 176 1067 0
-1066 143 1067 1070 0
-1066 176 1067 1070 0
1066 -176 -1070 0
1066 -143 -176 0
1066 -1067 0
1066 -143 -1070 0
1067 -141 -1068 0
-1067 141 0
-1067 1068 0
-1068 253 1069 0
-1068 215 214 0
-1068 253 214 0
-1068 215 1069 0
1068 -214 -1069 0
1068 -215 -253 0
1069 -255 -302 0
-1069 255 0
-1069 302 0
1070 -178 -212 0
-1070 178 0
-1070 212 0
-1071 94 1072 0
-1071 10 1072 0
-1071 10 94 0
1071 -10 -1072 0
1071 -10 -94 0
1071 -94 -1072 0
1072 -108 -139 0
-1072 108 0
-1072 139 0
1073 -95 -96 0
-1073 95 0
-1073 96 0
-1074 1075 1076 0
-1074 -1075 -1076 0
1074 -1075 1076 0
1074 1075 -1076 0
1075 -97 -98 0
-1075 97 0
-1075 98 0
-1076 1077 1078 0
-1076 -1077 -1078 0
1076 -1077 1078 0
1076 1077 -1078 0
1077 -99 -100 0
-1077 99 0
-1077 100 0
-1078 1079 1080 0
-1078 -1079 -1080 0
1078 -1079 1080 0
1078 1079 -1080 0
1079 -101 -102 0
-1079 101 0
-1079 102 0
-1080 1081 1082 0
-1080 -1081 -1082 0
1080 -1081 1082 0
1080 1081 -1082 0
1081 -103 -104 0
-1081 103 0
-1081 104 0
-1082 -1083 -1084 0
-1082 1083 1084 0
1082 1083 -1084 0
1082 -1083 1084 0
1083 -8290 -8306 0
-1083 8290 0
-1083 8306 0
1084 -105 -106 0
-1084 105 0
-1084 106 0
-1085 1086 1087 0
-1085 -1086 -1087 0
1085 -1086 1087 0
1085 1086 -1087 0
1086 -1075 -1076 0
-1086 1075 0
-1086 1076 0
-1087 1088 1089 0
-1087 -1088 -1089 0
1087 -1088 1089 0
1087 1088 -1089 0
1088 -1077 -1078 0
-1088 1077 0
-1088 1078 0
-1089 1090 1091 0
-1089 -1090 -1091 0
1089 -1090 1091 0
1089 1090 -1091 0
1090 -1079 -1080 0
-1090 1079 0
-1090 1080 0
-1091 8306 1084 0
-1091 8290 1081 0
-1091 1081 1084 0
-1091 8306 1081 0
-1091 8290 1084 0
1091 -1081 -1084 0
1091 -8290 -8306 -1084 0
1091 -8290 -8306 -1081 0
1092 8309 -8310 0
-1092 -8309 0
-1092 8310 0
1093 -8291 0
1093 -1104 0
1093 -1094 -1110 0
-1093 8291 1104 1110 0
-1093 8291 1094 1104 0
1094 -1095 1102 0
-1094 1095 0
-1094 -1102 0
-1095 1096 1099 0
1095 -1096 0
1095 -1099 0
-1096 1097 1098 0
1096 -1097 0
1096 -1098 0
-1097 27 29 0
1097 -27 0
1097 -29 0
-1098 25 32 0
1098 -25 0
1098 -32 0
-1099 1100 1101 0
1099 -1100 0
1099 -1101 0
-1100 18 47 0
1100 -18 0
1100 -47 0
-1101 16 39 0
1101 -16 0
1101 -39 0
-1102 16 39 1100 1103 0
1102 -1103 0
1102 -16 0
1102 -1100 0
1102 -39 0
-1103 1097 1098 0
1103 -1097 0
1103 -1098 0
-1104 1105 1106 1107 0
1104 -1105 0
1104 -1106 0
1104 -1107 0
-1105 8292 8293 8294 8295 0
1105 -8295 0
1105 -8294 0
1105 -8292 0
1105 -8293 0
-1106 8296 8297 8298 8299 0
1106 -8299 0
1106 -8298 0
1106 -8296 0
1106 -8297 0
-1107 1108 1109 0
1107 -1108 0
1107 -1109 0
-1108 8300 8301 8302 8303 0
1108 -8303 0
1108 -8302 0
1108 -8300 0
1108 -8301 0
-1109 8304 8305 8306 0
1109 -8304 0
1109 -8306 0
1109 -8305 0
-1110 1111 1095 1114 0
1110 -1111 0
1110 -1095 0
1110 -1114 0
-1111 1112 1113 0
1111 -1112 0
1111 -1113 0
-1112 202 242 0
1112 -202 0
1112 -242 0
-1113 130 166 0
1113 -130 0
1113 -166 0
-1114 292 342 391 444 0
1114 -444 0
1114 -292 0
1114 -391 0
1114 -342 0
1115 -8309 8310 0
-1115 8309 0
-1115 -8310 0
1116 -1115 -1117 1151 0
1116 -1115 -1132 1151 0
-1116 -1151 0
-1116 1115 0
-1116 1117 1132 0
-1117 1118 1125 0
1117 -1118 0
1117 -1125 0
-1118 1119 1122 0
1118 -1119 0
1118 -1122 0
-1119 1120 1121 0
1119 -1120 0
1119 -1121 0
1120 8290 -8306 0
1120 8306 -39 0
-1120 -8290 -8306 0
-1120 8306 39 0
1121 8289 -8305 0
1121 8305 -16 0
-1121 -8289 -8305 0
-1121 8305 16 0
-1122 1123 1124 0
1122 -1123 0
1122 -1124 0
1123 8288 -8304 0
1123 8304 -18 0
-1123 -8288 -8304 0
-1123 8304 18 0
1124 8287 -8303 0
1124 8303 -47 0
-1124 -8287 -8303 0
-1124 8303 47 0
-1125 1126 1129 0
1125 -1126 0
1125 -1129 0
-1126 1127 1128 0
1126 -1127 0
1126 -1128 0
1127 8286 -8302 0
1127 8302 -32 0
-1127 -8286 -8302 0
-1127 8302 32 0
1128 8285 -8301 0
1128 8301 -25 0
-1128 -8285 -8301 0
-1128 8301 25 0
-1129 1130 1131 0
1129 -1130 0
1129 -1131 0
1130 8284 -8300 0
1130 8300 -27 0
-1130 -8284 -8300 0
-1130 8300 27 0
1131 8283 -8299 0
1131 8299 -29 0
-1131 -8283 -8299 0
-1131 8299 29 0
1132 -1136 1146 0
1132 -1133 1146 0
1132 -1139 1146 0
-1132 -1146 0
-1132 1133 1136 1139 0
-1133 1134 1135 0
1133 -1134 0
1133 -1135 0
1134 8282 -8298 0
1134 8298 -130 0
-1134 -8282 -8298 0
-1134 8298 130 0
1135 8281 -8297 0
1135 8297 -166 0
-1135 -8281 -8297 0
-1135 8297 166 0
-1136 1137 1138 0
1136 -1137 0
1136 -1138 0
1137 8280 -8296 0
1137 8296 -202 0
-1137 -8280 -8296 0
-1137 8296 202 0
1138 8279 -8295 0
1138 8295 -242 0
-1138 -8279 -8295 0
-1138 8295 242 0
1139 -1140 1144 0
1139 -1141 1144 0
1139 -1142 1144 0
-1139 -1144 0
-1139 1140 1141 1142 0
1140 8278 -8294 0
1140 8294 -292 0
-1140 -8278 -8294 0
-1140 8294 292 0
1141 8277 -8293 0
1141 8293 -342 0
-1141 -8277 -8293 0
-1141 8293 342 0
1142 8276 -8292 0
1142 391 -1143 0
1142 -8292 -1143 0
-1142 -8276 1143 0
-1142 8292 -391 0
-1142 8292 1143 0
1143 -8291 444 0
-1143 8291 0
-1143 -444 0
-1144 8278 -8294 0
-1144 292 1145 0
-1144 -8294 1145 0
1144 -8278 -1145 0
1144 8294 -292 0
1144 8294 -1145 0
1145 8293 -342 0
-1145 -8293 0
-1145 342 0
-1146 1147 1149 0
-1146 -1133 1149 0
1146 -1149 0
1146 1133 -1147 0
-1147 8280 -8296 0
-1147 202 1148 0
-1147 -8296 1148 0
1147 -8280 -1148 0
1147 8296 -202 0
1147 8296 -1148 0
1148 8295 -242 0
-1148 -8295 0
-1148 242 0
-1149 8282 -8298 0
-1149 130 1150 0
-1149 -8298 1150 0
1149 -8282 -1150 0
1149 8298 -130 0
1149 8298 -1150 0
1150 8297 -166 0
-1150 -8297 0
-1150 166 0
-1151 -1119 1152 1160 0
-1151 1152 1158 1160 0
1151 -1160 0
1151 -1152 0
1151 1119 -1158 0
1152 1118 -1153 0
-1152 -1118 0
-1152 1153 0
-1153 1154 1156 0
-1153 -1126 1156 0
1153 -1156 0
1153 1126 -1154 0
-1154 8284 -8300 0
-1154 27 1155 0
-1154 -8300 1155 0
1154 -8284 -1155 0
1154 8300 -27 0
1154 8300 -1155 0
1155 8299 -29 0
-1155 -8299 0
-1155 29 0
-1156 8286 -8302 0
-1156 32 1157 0
-1156 -8302 1157 0
1156 -8286 -1157 0
1156 8302 -32 0
1156 8302 -1157 0
1157 8301 -25 0
-1157 -8301 0
-1157 25 0
-1158 8288 -8304 0
-1158 18 1159 0
-1158 -8304 1159 0
1158 -8288 -1159 0
1158 8304 -18 0
1158 8304 -1159 0
1159 8303 -47 0
-1159 -8303 0
-1159 47 0
-1160 8290 -8306 0
-1160 39 1161 0
-1160 -8306 1161 0
1160 -8290 -1161 0
1160 8306 -39 0
1160 8306 -1161 0
1161 8305 -16 0
-1161 -8305 0
-1161 16 0
-1162 8309 8310 0
1162 -8309 0
1162 -8310 0
1163 -8291 0
1163 -1104 0
1163 -1164 -1172 0
-1163 8291 1104 1172 0
-1163 8291 1104 1164 0
1164 1165 1166 -1167 1171 0
-1164 -1171 0
-1164 -1165 0
-1164 -1166 0
-1164 1167 0
-1165 8287 8288 0
1165 -8287 0
1165 -8288 0
-1166 8289 8290 0
1166 -8289 0
1166 -8290 0
-1167 1168 1170 0
1167 -1168 0
1167 -1170 0
-1168 8285 8286 1169 0
1168 -1169 0
1168 -8286 0
1168 -8285 0
-1169 8283 8284 0
1169 -8283 0
1169 -8284 0
-1170 8289 8290 1165 0
1170 -1165 0
1170 -8290 0
1170 -8289 0
-1171 8285 8286 1169 0
1171 -1169 0
1171 -8286 0
1171 -8285 0
-1172 1173 1167 1175 0
1172 -1173 0
1172 -1167 0
1172 -1175 0
-1173 8281 8282 1174 0
1173 -1174 0
1173 -8282 0
1173 -8281 0
-1174 8279 8280 0
1174 -8279 0
1174 -8280 0
-1175 8275 8276 8277 8278 0
1175 -8278 0
1175 -8277 0
1175 -8275 0
1175 -8276 0
1176 -1116 -1162 0
1176 1115 -1162 1177 0
-1176 1162 0
-1176 -1115 1116 0
-1176 1116 -1177 0
1177 1092 -1179 0
1177 8 1178 -1092 0
1177 -8 -1178 -1092 0
-1177 1092 1179 0
-1177 -8 1178 -1092 0
-1177 8 -1178 -1092 0
-1178 1073 1074 0
-1178 -1073 -1074 0
1178 -1073 1074 0
1178 1073 -1074 0
1179 -1216 0
1179 -1187 -1222 0
1179 -1180 -1187 0
-1179 1187 1216 0
-1179 1180 1216 1222 0
-1180 1181 1182 0
1180 -1181 0
1180 -1182 0
1181 -1094 1093 0
-1181 1094 0
-1181 -1093 0
-1182 1183 1185 0
1182 -1183 0
1182 -1185 0
1183 -1184 0
-1183 1184 0
-1184 8291 1181 0
1184 -8291 0
1184 -1181 0
1185 8292 -1186 0
1185 -8292 1186 0
-1185 -8292 -1186 0
-1185 8292 1186 0
1186 8291 -1094 1093 0
1186 -8291 1094 1093 0
-1186 -1093 0
-1186 8291 1094 0
-1186 -8291 -1094 0
1187 -1188 1213 0
1187 -1180 1213 0
-1187 -1213 0
-1187 1188 1180 0
1188 1189 1194 -1199 1212 0
-1188 -1212 0
-1188 -1189 0
-1188 -1194 0
-1188 1199 0
-1189 1190 1192 0
1189 -1190 0
1189 -1192 0
-1190 47 -1093 0
-1190 47 1191 0
-1190 -47 1093 -1191 0
1190 -47 -1093 0
1190 -47 1191 0
1190 47 1093 -1191 0
1191 -1096 1103 0
-1191 1096 0
-1191 -1103 0
-1192 18 -1093 0
-1192 18 1193 0
-1192 -18 1093 -1193 0
1192 -18 -1093 0
1192 -18 1193 0
1192 18 1093 -1193 0
1193 47 -1191 0
-1193 -47 0
-1193 1191 0
-1194 1195 1197 0
1194 -1195 0
1194 -1197 0
-1195 16 -1093 0
-1195 16 1196 0
-1195 -16 1093 -1196 0
1195 -16 -1093 0
1195 -16 1196 0
1195 16 1093 -1196 0
1196 1100 -1191 0
-1196 -1100 0
-1196 1191 0
-1197 39 -1093 0
-1197 39 1198 0
-1197 -39 1093 -1198 0
1197 -39 -1093 0
1197 -39 1198 0
1197 39 1093 -1198 0
1198 16 -1196 0
-1198 -16 0
-1198 1196 0
-1199 1200 1211 0
1199 -1200 0
1199 -1211 0
-1200 1201 1206 0
1200 -1201 0
1200 -1206 0
-1201 1202 1204 0
1201 -1202 0
1201 -1204 0
-1202 29 -1093 0
-1202 1093 1203 0
1202 -29 -1093 0
1202 1093 -1203 0
1203 -29 0
-1203 29 0
-1204 27 -1093 0
-1204 1093 1205 0
1204 -27 -1093 0
1204 1093 -1205 0
1205 -27 0
-1205 27 0
-1206 1207 1209 0
1206 -1207 0
1206 -1209 0
-1207 25 -1093 0
-1207 1093 1208 0
1207 -25 -1093 0
1207 1093 -1208 0
1208 -25 0
-1208 25 0
-1209 32 -1093 0
-1209 1093 1210 0
1209 -32 -1093 0
1209 1093 -1210 0
1210 -32 0
-1210 32 0
-1211 1189 1194 0
1211 -1189 0
1211 -1194 0
-1212 1201 1206 0
1212 -1201 0
1212 -1206 0
-1213 1214 0
1213 -1214 0
-1214 -1182 1215 0
-1214 1181 1215 0
1214 -1215 0
1214 -1181 1182 0
-1215 -8292 1094 0
-1215 -8291 -1094 0
-1215 -1093 0
-1215 8291 1094 0
1215 8291 -1094 1093 0
1215 -8291 8292 1094 1093 0
-1216 1217 1218 1219 0
1216 -1217 0
1216 -1218 0
1216 -1219 0
-1217 8293 8294 8295 8296 0
1217 -8296 0
1217 -8295 0
1217 -8293 0
1217 -8294 0
-1218 8297 8298 8299 8300 0
1218 -8300 0
1218 -8299 0
1218 -8297 0
1218 -8298 0
-1219 1220 1221 0
1219 -1220 0
1219 -1221 0
-1220 8301 8302 8303 8304 0
1220 -8304 0
1220 -8303 0
1220 -8301 0
1220 -8302 0
-1221 8305 8306 0
1221 -8305 0
1221 -8306 0
-1222 1114 1223 1199 0
1222 -1114 0
1222 -1223 0
1222 -1199 0
-1223 1112 1224 0
1223 -1112 0
1223 -1224 0
-1224 130 166 0
1224 -130 0
1224 -166 0
1225 -1216 0
1225 -1226 -1233 0
1225 -1233 -1262 0
-1225 1216 1233 0
-1225 1216 1226 1262 0
-1226 1227 1228 0
1226 -1227 0
1226 -1228 0
1227 -1164 1163 0
-1227 1164 0
-1227 -1163 0
-1228 1229 1231 0
1228 -1229 0
1228 -1231 0
1229 -1230 0
-1229 1230 0
-1230 8291 1227 0
1230 -8291 0
1230 -1227 0
1231 8292 -1232 0
1231 -8292 1232 0
-1231 -8292 -1232 0
-1231 8292 1232 0
1232 8291 -1164 1163 0
1232 -8291 1164 1163 0
-1232 -1163 0
-1232 8291 1164 0
-1232 -8291 -1164 0
1233 -1234 1259 0
1233 -1226 1259 0
-1233 -1259 0
-1233 1234 1226 0
1234 1235 1240 -1245 1258 0
-1234 -1258 0
-1234 -1235 0
-1234 -1240 0
-1234 1245 0
-1235 1236 1238 0
1235 -1236 0
1235 -1238 0
-1236 8287 -1163 0
-1236 8287 1237 0
-1236 -8287 1163 -1237 0
1236 -8287 -1163 0
1236 -8287 1237 0
1236 8287 1163 -1237 0
1237 -1168 1171 0
-1237 1168 0
-1237 -1171 0
-1238 8288 -1163 0
-1238 8288 1239 0
-1238 -8288 1163 -1239 0
1238 -8288 -1163 0
1238 -8288 1239 0
1238 8288 1163 -1239 0
1239 8287 -1237 0
-1239 -8287 0
-1239 1237 0
-1240 1241 1243 0
1240 -1241 0
1240 -1243 0
-1241 8289 -1163 0
-1241 8289 1242 0
-1241 -8289 1163 -1242 0
1241 -8289 -1163 0
1241 -8289 1242 0
1241 8289 1163 -1242 0
1242 1165 -1237 0
-1242 -1165 0
-1242 1237 0
-1243 8290 -1163 0
-1243 8290 1244 0
-1243 -8290 1163 -1244 0
1243 -8290 -1163 0
1243 -8290 1244 0
1243 8290 1163 -1244 0
1244 8289 -1242 0
-1244 -8289 0
-1244 1242 0
-1245 1246 1257 0
1245 -1246 0
1245 -1257 0
-1246 1247 1252 0
1246 -1247 0
1246 -1252 0
-1247 1248 1250 0
1247 -1248 0
1247 -1250 0
-1248 8283 -1163 0
-1248 1163 1249 0
1248 -8283 -1163 0
1248 1163 -1249 0
1249 -8283 0
-1249 8283 0
-1250 8284 -1163 0
-1250 1163 1251 0
1250 -8284 -1163 0
1250 1163 -1251 0
1251 -8284 0
-1251 8284 0
-1252 1253 1255 0
1252 -1253 0
1252 -1255 0
-1253 8285 -1163 0
-1253 1163 1254 0
1253 -8285 -1163 0
1253 1163 -1254 0
1254 -8285 0
-1254 8285 0
-1255 8286 -1163 0
-1255 1163 1256 0
1255 -8286 -1163 0
1255 1163 -1256 0
1256 -8286 0
-1256 8286 0
-1257 1235 1240 0
1257 -1235 0
1257 -1240 0
-1258 1247 1252 0
1258 -1247 0
1258 -1252 0
-1259 1260 0
1259 -1260 0
-1260 -1228 1261 0
-1260 1227 1261 0
1260 -1261 0
1260 -1227 1228 0
-1261 -8292 1164 0
-1261 -8291 -1164 0
-1261 -1163 0
-1261 8291 1164 0
1261 8291 -1164 1163 0
1261 -8291 8292 1164 1163 0
-1262 1175 1263 1245 0
1262 -1175 0
1262 -1263 0
1262 -1245 0
-1263 8281 8282 1174 0
1263 -1174 0
1263 -8282 0
1263 -8281 0
1264 -1265 1324 -1375 1473 0
1264 1265 -1324 1375 -1473 0
1264 -1265 1324 1375 -1473 0
1264 1265 -1324 -1375 1473 0
-1264 -1265 -1324 0
-1264 1265 1324 0
-1264 1375 1473 0
-1264 -1375 -1473 0
1265 -1116 -1162 0
1265 1115 -1162 1266 0
-1265 1162 0
-1265 -1115 1116 0
-1265 1116 -1266 0
1266 1092 -1268 0
1266 -9 -1092 -1267 0
1266 9 -1092 1267 0
-1266 1092 1268 0
-1266 -9 -1092 1267 0
-1266 9 -1092 -1267 0
-1267 107 1072 0
-1267 140 1072 0
1267 -1072 0
1267 -107 -140 0
1268 -1313 0
1268 -1283 -1319 0
1268 -1269 -1283 0
-1268 1283 1313 0
-1268 1269 1313 1319 0
-1269 1270 1280 0
1269 -1270 0
1269 -1280 0
-1270 1271 1272 0
1270 -1271 0
1270 -1272 0
-1271 1181 -1179 0
-1271 1188 1181 0
1271 -1181 0
1271 -1188 1179 0
-1272 8291 1271 1273 0
1272 -1273 0
1272 -1271 0
1272 -8291 0
-1273 1274 1277 0
1273 -1274 0
1273 -1277 0
1274 -8292 1275 0
1274 8292 -1275 0
-1274 8292 1275 0
-1274 -8292 -1275 0
-1275 1181 -1179 0
-1275 1183 1179 1276 0
-1275 -1183 1179 -1276 0
1275 -1181 -1179 0
1275 1183 1179 -1276 0
1275 -1183 1179 1276 0
1276 -1188 1181 0
-1276 1188 0
-1276 -1181 0
1277 -8293 1278 0
1277 8293 -1278 0
-1277 8293 1278 0
-1277 -8293 -1278 0
-1278 1186 -1179 0
-1278 1185 1179 1279 0
-1278 -1185 1179 -1279 0
1278 -1186 -1179 0
1278 1185 1179 -1279 0
1278 -1185 1179 1279 0
1279 -8291 -1276 0
1279 1181 -1183 0
1279 1181 -1276 0
1279 -8291 -1183 0
-1279 8291 -1181 0
-1279 1183 1276 0
-1280 1271 1281 0
1280 -1271 0
1280 -1281 0
-1281 1271 1282 0
1281 -1271 0
1281 -1282 0
-1282 1181 -1179 0
-1282 1188 1181 0
-1282 -1188 -1181 1179 0
1282 1188 -1181 0
1282 -1181 -1179 0
1282 -1188 1181 1179 0
1283 -1284 1309 0
1283 -1269 1309 0
-1283 -1309 0
-1283 1284 1269 0
1284 1285 1290 -1295 1308 0
-1284 -1308 0
-1284 -1285 0
-1284 -1290 0
-1284 1295 0
-1285 1286 1288 0
1285 -1286 0
1285 -1288 0
-1286 1190 -1179 0
-1286 1190 1287 0
-1286 -1190 1179 -1287 0
1286 -1190 -1179 0
1286 -1190 1287 0
1286 1190 1179 -1287 0
1287 -1200 1212 0
-1287 1200 0
-1287 -1212 0
-1288 1192 -1179 0
-1288 1192 1289 0
-1288 -1192 1179 -1289 0
1288 -1192 -1179 0
1288 -1192 1289 0
1288 1192 1179 -1289 0
1289 1190 -1287 0
-1289 -1190 0
-1289 1287 0
-1290 1291 1293 0
1290 -1291 0
1290 -1293 0
-1291 1195 -1179 0
-1291 1195 1292 0
-1291 -1195 1179 -1292 0
1291 -1195 -1179 0
1291 -1195 1292 0
1291 1195 1179 -1292 0
1292 1189 -1287 0
-1292 -1189 0
-1292 1287 0
-1293 1197 -1179 0
-1293 1197 1294 0
-1293 -1197 1179 -1294 0
1293 -1197 -1179 0
1293 -1197 1294 0
1293 1197 1179 -1294 0
1294 1195 -1292 0
-1294 -1195 0
-1294 1292 0
-1295 1296 1307 0
1295 -1296 0
1295 -1307 0
-1296 1297 1302 0
1296 -1297 0
1296 -1302 0
-1297 1298 1300 0
1297 -1298 0
1297 -1300 0
-1298 1202 -1179 0
-1298 1179 1299 0
1298 -1202 -1179 0
1298 1179 -1299 0
1299 -1202 0
-1299 1202 0
-1300 1204 -1179 0
-1300 1179 1301 0
1300 -1204 -1179 0
1300 1179 -1301 0
1301 -1204 0
-1301 1204 0
-1302 1303 1305 0
1302 -1303 0
1302 -1305 0
-1303 1207 -1179 0
-1303 1179 1304 0
1303 -1207 -1179 0
1303 1179 -1304 0
1304 -1207 0
-1304 1207 0
-1305 1209 -1179 0
-1305 1179 1306 0
1305 -1209 -1179 0
1305 1179 -1306 0
1306 -1209 0
-1306 1209 0
-1307 1285 1290 0
1307 -1285 0
1307 -1290 0
-1308 1297 1302 0
1308 -1297 0
1308 -1302 0
-1309 1310 0
1309 -1310 0
-1310 -8293 1311 1312 0
-1310 -8293 1278 1311 0
-1310 1278 1311 1312 0
1310 -1278 -1312 0
1310 8293 -1312 0
1310 -1311 0
1310 8293 -1278 0
1311 -1271 1273 0
-1311 1271 0
-1311 -1273 0
1312 8292 -1275 0
-1312 -8292 0
-1312 1275 0
-1313 1314 1315 1316 1317 0
1313 -1317 0
1313 -1314 0
1313 -1316 0
1313 -1315 0
-1314 8294 8295 0
1314 -8294 0
1314 -8295 0
-1315 8296 8297 0
1315 -8296 0
1315 -8297 0
-1316 8298 8299 8300 8301 0
1316 -8301 0
1316 -8300 0
1316 -8298 0
1316 -8299 0
-1317 8306 1318 0
1317 -8306 0
1317 -1318 0
-1318 8302 8303 8304 8305 0
1318 -8305 0
1318 -8304 0
1318 -8302 0
1318 -8303 0
-1319 1114 1320 1295 0
1319 -1114 0
1319 -1320 0
1319 -1295 0
-1320 202 242 1321 0
1320 -202 0
1320 -242 0
1320 -1321 0
-1321 1322 1323 0
1321 -1322 0
1321 -1323 0
-1322 166 0
1322 -166 0
-1323 130 0
1323 -130 0
1324 -1313 0
1324 -1325 -1339 0
1324 -1339 -1369 0
-1324 1313 1339 0
-1324 1313 1325 1369 0
-1325 1326 1336 0
1325 -1326 0
1325 -1336 0
-1326 1327 1328 0
1326 -1327 0
1326 -1328 0
-1327 1227 -1225 0
-1327 1234 1227 0
1327 -1227 0
1327 -1234 1225 0
-1328 8291 1327 1329 0
1328 -1329 0
1328 -1327 0
1328 -8291 0
-1329 1330 1333 0
1329 -1330 0
1329 -1333 0
1330 -8292 1331 0
1330 8292 -1331 0
-1330 8292 1331 0
-1330 -8292 -1331 0
-1331 1227 -1225 0
-1331 1229 1225 1332 0
-1331 -1229 1225 -1332 0
1331 -1227 -1225 0
1331 1229 1225 -1332 0
1331 -1229 1225 1332 0
1332 -1234 1227 0
-1332 1234 0
-1332 -1227 0
1333 -8293 1334 0
1333 8293 -1334 0
-1333 8293 1334 0
-1333 -8293 -1334 0
-1334 1232 -1225 0
-1334 1231 1225 1335 0
-1334 -1231 1225 -1335 0
1334 -1232 -1225 0
1334 1231 1225 -1335 0
1334 -1231 1225 1335 0
1335 -8291 -1332 0
1335 1227 -1229 0
1335 1227 -1332 0
1335 -8291 -1229 0
-1335 8291 -1227 0
-1335 1229 1332 0
-1336 1327 1337 0
1336 -1327 0
1336 -1337 0
-1337 1327 1338 0
1337 -1327 0
1337 -1338 0
-1338 1227 -1225 0
-1338 1234 1227 0
-1338 -1234 -1227 1225 0
1338 1234 -1227 0
1338 -1227 -1225 0
1338 -1234 1227 1225 0
1339 -1340 1365 0
1339 -1325 1365 0
-1339 -1365 0
-1339 1340 1325 0
1340 1341 1346 -1351 1364 0
-1340 -1364 0
-1340 -1341 0
-1340 -1346 0
-1340 1351 0
-1341 1342 1344 0
1341 -1342 0
1341 -1344 0
-1342 1236 -1225 0
-1342 1236 1343 0
-1342 -1236 1225 -1343 0
1342 -1236 -1225 0
1342 -1236 1343 0
1342 1236 1225 -1343 0
1343 -1246 1258 0
-1343 1246 0
-1343 -1258 0
-1344 1238 -1225 0
-1344 1238 1345 0
-1344 -1238 1225 -1345 0
1344 -1238 -1225 0
1344 -1238 1345 0
1344 1238 1225 -1345 0
1345 1236 -1343 0
-1345 -1236 0
-1345 1343 0
-1346 1347 1349 0
1346 -1347 0
1346 -1349 0
-1347 1241 -1225 0
-1347 1241 1348 0
-1347 -1241 1225 -1348 0
1347 -1241 -1225 0
1347 -1241 1348 0
1347 1241 1225 -1348 0
1348 1235 -1343 0
-1348 -1235 0
-1348 1343 0
-1349 1243 -1225 0
-1349 1243 1350 0
-1349 -1243 1225 -1350 0
1349 -1243 -1225 0
1349 -1243 1350 0
1349 1243 1225 -1350 0
1350 1241 -1348 0
-1350 -1241 0
-1350 1348 0
-1351 1352 1363 0
1351 -1352 0
1351 -1363 0
-1352 1353 1358 0
1352 -1353 0
1352 -1358 0
-1353 1354 1356 0
1353 -1354 0
1353 -1356 0
-1354 1248 -1225 0
-1354 1225 1355 0
1354 -1248 -1225 0
1354 1225 -1355 0
1355 -1248 0
-1355 1248 0
-1356 1250 -1225 0
-1356 1225 1357 0
1356 -1250 -1225 0
1356 1225 -1357 0
1357 -1250 0
-1357 1250 0
-1358 1359 1361 0
1358 -1359 0
1358 -1361 0
-1359 1253 -1225 0
-1359 1225 1360 0
1359 -1253 -1225 0
1359 1225 -1360 0
1360 -1253 0
-1360 1253 0
-1361 1255 -1225 0
-1361 1225 1362 0
1361 -1255 -1225 0
1361 1225 -1362 0
1362 -1255 0
-1362 1255 0
-1363 1341 1346 0
1363 -1341 0
1363 -1346 0
-1364 1353 1358 0
1364 -1353 0
1364 -1358 0
-1365 1366 0
1365 -1366 0
-1366 -8293 1367 1368 0
-1366 -8293 1334 1367 0
-1366 1334 1367 1368 0
1366 -1334 -1368 0
1366 8293 -1368 0
1366 -1367 0
1366 8293 -1334 0
1367 -1327 1329 0
-1367 1327 0
-1367 -1329 0
1368 8292 -1331 0
-1368 -8292 0
-1368 1331 0
-1369 1175 1370 1351 0
1369 -1175 0
1369 -1370 0
1369 -1351 0
-1370 1371 1372 0
1370 -1371 0
1370 -1372 0
-1371 8279 8280 0
1371 -8279 0
1371 -8280 0
-1372 1373 1374 0
1372 -1373 0
1372 -1374 0
-1373 8281 0
1373 -8281 0
-1374 8282 0
1374 -8282 0
1375 -1116 -1162 0
1375 1115 -1162 1376 0
-1375 1162 0
-1375 -1115 1116 0
-1375 1116 -1376 0
1376 1092 -1377 0
1376 107 140 -1092 0
1376 -107 -140 -1092 0
-1376 1092 1377 0
-1376 -107 140 -1092 0
-1376 107 -140 -1092 0
1377 -1459 0
1377 -1424 -1464 0
1377 -1378 -1424 0
-1377 1424 1459 0
-1377 1378 1459 1464 0
-1378 1379 1405 0
1378 -1379 0
1378 -1405 0
-1379 1380 1397 0
1379 -1380 0
1379 -1397 0
-1380 1381 1390 0
1380 -1381 0
1380 -1390 0
-1381 1382 1387 0
1381 -1382 0
1381 -1387 0
1382 -8293 1383 0
1382 8293 -1383 0
-1382 8293 1383 0
-1382 -8293 -1383 0
-1383 1275 -1268 0
-1383 1274 1268 1384 0
-1383 -1274 1268 -1384 0
1383 -1275 -1268 0
1383 1274 1268 -1384 0
1383 -1274 1268 1384 0
1384 -8291 1271 0
1384 1271 -1385 0
-1384 -1271 0
-1384 8291 1385 0
1385 1271 -1386 0
-1385 -1271 0
-1385 1386 0
1386 -1284 1271 0
1386 1271 -1281 0
-1386 -1271 0
-1386 1284 1281 0
1387 -8294 1388 0
1387 8294 -1388 0
-1387 8294 1388 0
-1387 -8294 -1388 0
-1388 1278 -1268 0
-1388 1277 1268 1389 0
-1388 -1277 1268 -1389 0
1388 -1278 -1268 0
1388 1277 1268 -1389 0
1388 -1277 1268 1389 0
1389 -1274 1312 0
1389 1312 -1384 0
-1389 -1312 0
-1389 1274 1384 0
-1390 1391 1394 0
1390 -1391 0
1390 -1394 0
1391 -8291 1392 0
1391 8291 -1392 0
-1391 8291 1392 0
-1391 -8291 -1392 0
-1392 1271 -1268 0
-1392 1271 1393 0
1392 -1271 0
1392 1268 -1393 0
1393 1271 -1385 0
-1393 -1271 0
-1393 1385 0
1394 -8292 1395 0
1394 8292 -1395 0
-1394 8292 1395 0
-1394 -8292 -1395 0
-1395 1271 -1268 0
-1395 1396 1268 1393 0
-1395 -1396 1268 -1393 0
1395 -1271 -1268 0
1395 1396 1268 -1393 0
1395 -1396 1268 1393 0
1396 -8291 1271 0
1396 8291 -1271 0
-1396 8291 1271 0
-1396 -8291 -1271 0
-1397 1398 1402 0
1397 -1398 0
1397 -1402 0
-1398 1399 1401 0
1398 -1399 0
1398 -1401 0
-1399 1271 -1268 0
-1399 1271 1400 0
1399 -1271 0
1399 1268 -1400 0
1400 1271 -1386 0
-1400 -1271 0
-1400 1386 0
-1401 1271 -1268 0
-1401 1271 1400 0
1401 -1271 0
1401 1268 -1400 0
-1402 1403 1404 0
1402 -1403 0
1402 -1404 0
-1403 1271 -1268 0
-1403 1271 1393 0
1403 -1271 0
1403 1268 -1393 0
-1404 1271 -1268 0
-1404 1271 1393 0
1404 -1271 0
1404 1268 -1393 0
-1405 1406 1415 0
1405 -1406 0
1405 -1415 0
-1406 1407 1411 0
1406 -1407 0
1406 -1411 0
-1407 1408 1409 0
1407 -1408 0
1407 -1409 0
-1408 1284 1282 0
-1408 1282 -1268 0
-1408 -1284 -1282 1268 0
1408 -1282 -1268 0
1408 1284 -1282 0
1408 -1284 1282 1268 0
-1409 1271 -1268 0
-1409 1271 1410 0
-1409 -1271 1268 -1410 0
1409 -1271 -1268 0
1409 -1271 1410 0
1409 1271 1268 -1410 0
1410 -1284 1282 0
-1410 1284 0
-1410 -1282 0
-1411 1412 1414 0
1411 -1412 0
1411 -1414 0
-1412 1271 -1268 0
-1412 1271 1413 0
1412 -1271 0
1412 1268 -1413 0
1413 -1284 1271 1281 0
-1413 1284 0
-1413 -1271 0
-1413 -1281 0
-1414 1271 -1268 0
-1414 1271 1413 0
1414 -1271 0
1414 1268 -1413 0
-1415 1416 1420 0
1415 -1416 0
1415 -1420 0
-1416 1417 1419 0
1416 -1417 0
1416 -1419 0
-1417 1271 -1268 0
-1417 1271 1418 0
1417 -1271 0
1417 1268 -1418 0
1418 -1284 1271 0
1418 1271 -1281 0
-1418 -1271 0
-1418 1284 1281 0
-1419 1271 -1268 0
-1419 1271 1418 0
1419 -1271 0
1419 1268 -1418 0
-1420 1421 1423 0
1420 -1421 0
1420 -1423 0
-1421 1271 -1268 0
-1421 1271 1422 0
1421 -1271 0
1421 1268 -1422 0
1422 1271 -1418 0
-1422 -1271 0
-1422 1418 0
-1423 1271 -1268 0
-1423 1271 1422 0
1423 -1271 0
1423 1268 -1422 0
1424 -1378 1450 1453 0
1424 -1425 1450 1453 0
-1424 -1453 0
-1424 -1450 0
-1424 1425 1378 0
1425 1426 1431 -1436 1449 0
-1425 -1449 0
-1425 -1426 0
-1425 -1431 0
-1425 1436 0
-1426 1427 1429 0
1426 -1427 0
1426 -1429 0
-1427 1286 -1268 0
-1427 1286 1428 0
-1427 -1286 1268 -1428 0
1427 -1286 -1268 0
1427 -1286 1428 0
1427 1286 1268 -1428 0
1428 -1296 1308 0
-1428 1296 0
-1428 -1308 0
-1429 1288 -1268 0
-1429 1288 1430 0
-1429 -1288 1268 -1430 0
1429 -1288 -1268 0
1429 -1288 1430 0
1429 1288 1268 -1430 0
1430 1286 -1428 0
-1430 -1286 0
-1430 1428 0
-1431 1432 1434 0
1431 -1432 0
1431 -1434 0
-1432 1291 -1268 0
-1432 1291 1433 0
-1432 -1291 1268 -1433 0
1432 -1291 -1268 0
1432 -1291 1433 0
1432 1291 1268 -1433 0
1433 1285 -1428 0
-1433 -1285 0
-1433 1428 0
-1434 1293 -1268 0
-1434 1293 1435 0
-1434 -1293 1268 -1435 0
1434 -1293 -1268 0
1434 -1293 1435 0
1434 1293 1268 -1435 0
1435 1291 -1433 0
-1435 -1291 0
-1435 1433 0
-1436 1437 1448 0
1436 -1437 0
1436 -1448 0
-1437 1438 1443 0
1437 -1438 0
1437 -1443 0
-1438 1439 1441 0
1438 -1439 0
1438 -1441 0
-1439 1298 -1268 0
-1439 1268 1440 0
1439 -1298 -1268 0
1439 1268 -1440 0
1440 -1298 0
-1440 1298 0
-1441 1300 -1268 0
-1441 1268 1442 0
1441 -1300 -1268 0
1441 1268 -1442 0
1442 -1300 0
-1442 1300 0
-1443 1444 1446 0
1443 -1444 0
1443 -1446 0
-1444 1303 -1268 0
-1444 1268 1445 0
1444 -1303 -1268 0
1444 1268 -1445 0
1445 -1303 0
-1445 1303 0
-1446 1305 -1268 0
-1446 1268 1447 0
1446 -1305 -1268 0
1446 1268 -1447 0
1447 -1305 0
-1447 1305 0
-1448 1426 1431 0
1448 -1426 0
1448 -1431 0
-1449 1438 1443 0
1449 -1438 0
1449 -1443 0
1450 1379 -1451 0
-1450 -1379 0
-1450 1451 0
-1451 -1416 1420 0
-1451 1420 1452 0
1451 -1420 0
1451 1416 -1452 0
-1452 1407 1411 0
1452 -1407 0
1452 -1411 0
-1453 -1380 1454 1457 0
-1453 1402 1454 1457 0
1453 -1457 0
1453 -1454 0
1453 1380 -1402 0
1454 1381 -1455 0
-1454 -1381 0
-1454 1455 0
-1455 -8292 1395 0
-1455 1395 1456 0
-1455 -8292 1456 0
1455 -1395 -1456 0
1455 8292 -1395 0
1455 8292 -1456 0
1456 8291 -1392 0
-1456 -8291 0
-1456 1392 0
-1457 -8294 1388 0
-1457 1388 1458 0
-1457 -8294 1458 0
1457 -1388 -1458 0
1457 8294 -1388 0
1457 8294 -1458 0
1458 8293 -1383 0
-1458 -8293 0
-1458 1383 0
-1459 1460 1461 1462 1463 0
1459 -1463 0
1459 -1460 0
1459 -1462 0
1459 -1461 0
-1460 8295 8296 0
1460 -8295 0
1460 -8296 0
-1461 8297 8298 0
1461 -8297 0
1461 -8298 0
-1462 8299 8300 8301 8302 0
1462 -8302 0
1462 -8301 0
1462 -8299 0
1462 -8300 0
-1463 8303 8304 1221 0
1463 -1221 0
1463 -8304 0
1463 -8303 0
-1464 1114 1465 1436 0
1464 -1114 0
1464 -1465 0
1464 -1436 0
-1465 1466 1468 0
1465 -1466 0
1465 -1468 0
-1466 242 1467 0
1466 -242 0
1466 -1467 0
-1467 202 0
1467 -202 0
-1468 1469 1471 0
1468 -1469 0
1468 -1471 0
-1469 1470 0
1469 -1470 0
-1470 1322 0
1470 -1322 0
-1471 1472 0
1471 -1472 0
-1472 1323 0
1472 -1323 0
1473 -1459 0
1473 -1474 -1520 0
1473 -1520 -1555 0
-1473 1459 1520 0
-1473 1459 1474 1555 0
-1474 1475 1501 0
1474 -1475 0
1474 -1501 0
-1475 1476 1493 0
1475 -1476 0
1475 -1493 0
-1476 1477 1486 0
1476 -1477 0
1476 -1486 0
-1477 1478 1483 0
1477 -1478 0
1477 -1483 0
1478 -8293 1479 0
1478 8293 -1479 0
-1478 8293 1479 0
-1478 -8293 -1479 0
-1479 1331 -1324 0
-1479 1330 1324 1480 0
-1479 -1330 1324 -1480 0
1479 -1331 -1324 0
1479 1330 1324 -1480 0
1479 -1330 1324 1480 0
1480 -8291 1327 0
1480 1327 -1481 0
-1480 -1327 0
-1480 8291 1481 0
1481 1327 -1482 0
-1481 -1327 0
-1481 1482 0
1482 -1340 1327 0
1482 1327 -1337 0
-1482 -1327 0
-1482 1340 1337 0
1483 -8294 1484 0
1483 8294 -1484 0
-1483 8294 1484 0
-1483 -8294 -1484 0
-1484 1334 -1324 0
-1484 1333 1324 1485 0
-1484 -1333 1324 -1485 0
1484 -1334 -1324 0
1484 1333 1324 -1485 0
1484 -1333 1324 1485 0
1485 -1330 1368 0
1485 1368 -1480 0
-1485 -1368 0
-1485 1330 1480 0
-1486 1487 1490 0
1486 -1487 0
1486 -1490 0
1487 -8291 1488 0
1487 8291 -1488 0
-1487 8291 1488 0
-1487 -8291 -1488 0
-1488 1327 -1324 0
-1488 1327 1489 0
1488 -1327 0
1488 1324 -1489 0
1489 1327 -1481 0
-1489 -1327 0
-1489 1481 0
1490 -8292 1491 0
1490 8292 -1491 0
-1490 8292 1491 0
-1490 -8292 -1491 0
-1491 1327 -1324 0
-1491 1492 1324 1489 0
-1491 -1492 1324 -1489 0
1491 -1327 -1324 0
1491 1492 1324 -1489 0
1491 -1492 1324 1489 0
1492 -8291 1327 0
1492 8291 -1327 0
-1492 8291 1327 0
-1492 -8291 -1327 0
-1493 1494 1498 0
1493 -1494 0
1493 -1498 0
-1494 1495 1497 0
1494 -1495 0
1494 -1497 0
-1495 1327 -1324 0
-1495 1327 1496 0
1495 -1327 0
1495 1324 -1496 0
1496 1327 -1482 0
-1496 -1327 0
-1496 1482 0
-1497 1327 -1324 0
-1497 1327 1496 0
1497 -1327 0
1497 1324 -1496 0
-1498 1499 1500 0
1498 -1499 0
1498 -1500 0
-1499 1327 -1324 0
-1499 1327 1489 0
1499 -1327 0
1499 1324 -1489 0
-1500 1327 -1324 0
-1500 1327 1489 0
1500 -1327 0
1500 1324 -1489 0
-1501 1502 1511 0
1501 -1502 0
1501 -1511 0
-1502 1503 1507 0
1502 -1503 0
1502 -1507 0
-1503 1504 1505 0
1503 -1504 0
1503 -1505 0
-1504 1340 1338 0
-1504 1338 -1324 0
-1504 -1340 -1338 1324 0
1504 -1338 -1324 0
1504 1340 -1338 0
1504 -1340 1338 1324 0
-1505 1327 -1324 0
-1505 1327 1506 0
-1505 -1327 1324 -1506 0
1505 -1327 -1324 0
1505 -1327 1506 0
1505 1327 1324 -1506 0
1506 -1340 1338 0
-1506 1340 0
-1506 -1338 0
-1507 1508 1510 0
1507 -1508 0
1507 -1510 0
-1508 1327 -1324 0
-1508 1327 1509 0
1508 -1327 0
1508 1324 -1509 0
1509 -1340 1327 1337 0
-1509 1340 0
-1509 -1327 0
-1509 -1337 0
-1510 1327 -1324 0
-1510 1327 1509 0
1510 -1327 0
1510 1324 -1509 0
-1511 1512 1516 0
1511 -1512 0
1511 -1516 0
-1512 1513 1515 0
1512 -1513 0
1512 -1515 0
-1513 1327 -1324 0
-1513 1327 1514 0
1513 -1327 0
1513 1324 -1514 0
1514 -1340 1327 0
1514 1327 -1337 0
-1514 -1327 0
-1514 1340 1337 0
-1515 1327 -1324 0
-1515 1327 1514 0
1515 -1327 0
1515 1324 -1514 0
-1516 1517 1519 0
1516 -1517 0
1516 -1519 0
-1517 1327 -1324 0
-1517 1327 1518 0
1517 -1327 0
1517 1324 -1518 0
1518 1327 -1514 0
-1518 -1327 0
-1518 1514 0
-1519 1327 -1324 0
-1519 1327 1518 0
1519 -1327 0
1519 1324 -1518 0
1520 -1474 1546 1549 0
1520 -1521 1546 1549 0
-1520 -1549 0
-1520 -1546 0
-1520 1521 1474 0
1521 1522 1527 -1532 1545 0
-1521 -1545 0
-1521 -1522 0
-1521 -1527 0
-1521 1532 0
-1522 1523 1525 0
1522 -1523 0
1522 -1525 0
-1523 1342 -1324 0
-1523 1342 1524 0
-1523 -1342 1324 -1524 0
1523 -1342 -1324 0
1523 -1342 1524 0
1523 1342 1324 -1524 0
1524 -1352 1364 0
-1524 1352 0
-1524 -1364 0
-1525 1344 -1324 0
-1525 1344 1526 0
-1525 -1344 1324 -1526 0
1525 -1344 -1324 0
1525 -1344 1526 0
1525 1344 1324 -1526 0
1526 1342 -1524 0
-1526 -1342 0
-1526 1524 0
-1527 1528 1530 0
1527 -1528 0
1527 -1530 0
-1528 1347 -1324 0
-1528 1347 1529 0
-1528 -1347 1324 -1529 0
1528 -1347 -1324 0
1528 -1347 1529 0
1528 1347 1324 -1529 0
1529 1341 -1524 0
-1529 -1341 0
-1529 1524 0
-1530 1349 -1324 0
-1530 1349 1531 0
-1530 -1349 1324 -1531 0
1530 -1349 -1324 0
1530 -1349 1531 0
1530 1349 1324 -1531 0
1531 1347 -1529 0
-1531 -1347 0
-1531 1529 0
-1532 1533 1544 0
1532 -1533 0
1532 -1544 0
-1533 1534 1539 0
1533 -1534 0
1533 -1539 0
-1534 1535 1537 0
1534 -1535 0
1534 -1537 0
-1535 1354 -1324 0
-1535 1324 1536 0
1535 -1354 -1324 0
1535 1324 -1536 0
1536 -1354 0
-1536 1354 0
-1537 1356 -1324 0
-1537 1324 1538 0
1537 -1356 -1324 0
1537 1324 -1538 0
1538 -1356 0
-1538 1356 0
-1539 1540 1542 0
1539 -1540 0
1539 -1542 0
-1540 1359 -1324 0
-1540 1324 1541 0
1540 -1359 -1324 0
1540 1324 -1541 0
1541 -1359 0
-1541 1359 0
-1542 1361 -1324 0
-1542 1324 1543 0
1542 -1361 -1324 0
1542 1324 -1543 0
1543 -1361 0
-1543 1361 0
-1544 1522 1527 0
1544 -1522 0
1544 -1527 0
-1545 1534 1539 0
1545 -1534 0
1545 -1539 0
1546 1475 -1547 0
-1546 -1475 0
-1546 1547 0
-1547 -1512 1516 0
-1547 1516 1548 0
1547 -1516 0
1547 1512 -1548 0
-1548 1503 1507 0
1548 -1503 0
1548 -1507 0
-1549 -1476 1550 1553 0
-1549 1498 1550 1553 0
1549 -1553 0
1549 -1550 0
1549 1476 -1498 0
1550 1477 -1551 0
-1550 -1477 0
-1550 1551 0
-1551 -8292 1491 0
-1551 1491 1552 0
-1551 -8292 1552 0
1551 -1491 -1552 0
1551 8292 -1491 0
1551 8292 -1552 0
1552 8291 -1488 0
-1552 -8291 0
-1552 1488 0
-1553 -8294 1484 0
-1553 1484 1554 0
-1553 -8294 1554 0
1553 -1484 -1554 0
1553 8294 -1484 0
1553 8294 -1554 0
1554 8293 -1479 0
-1554 -8293 0
-1554 1479 0
-1555 1175 1556 1532 0
1555 -1175 0
1555 -1556 0
1555 -1532 0
-1556 1557 1559 0
1556 -1557 0
1556 -1559 0
-1557 8279 1558 0
1557 -8279 0
1557 -1558 0
-1558 8280 0
1558 -8280 0
-1559 1560 1561 0
1559 -1560 0
1559 -1561 0
-1560 1373 0
1560 -1373 0
-1561 1374 0
1561 -1374 0
1562 -1563 1663 -1762 1864 0
1562 1563 -1663 1762 -1864 0
1562 -1563 1663 1762 -1864 0
1562 1563 -1663 -1762 1864 0
-1562 -1563 -1663 0
-1562 1563 1663 0
-1562 1762 1864 0
-1562 -1762 -1864 0
1563 -1116 -1162 0
1563 1115 -1162 1564 0
-1563 1162 0
-1563 -1115 1116 0
-1563 1116 -1564 0
1564 1092 -1567 0
1564 -142 -1092 -1565 0
1564 142 -1092 1565 0
-1564 1092 1567 0
-1564 -142 -1092 1565 0
-1564 142 -1092 -1565 0
-1565 177 1070 0
-1565 1070 1566 0
1565 -1070 0
1565 -177 -1566 0
-1566 303 1068 0
-1566 213 1068 0
1566 -1068 0
1566 -213 -303 0
1567 -1655 0
1567 -1619 -1656 0
1567 -1568 -1619 0
-1567 1619 1655 0
-1567 1568 1655 1656 0
-1568 1569 1597 0
1568 -1569 0
1568 -1597 0
-1569 1570 1586 0
1569 -1570 0
1569 -1586 0
-1570 1571 1580 0
1570 -1571 0
1570 -1580 0
-1571 1572 1577 0
1571 -1572 0
1571 -1577 0
1572 -8294 1573 0
1572 8294 -1573 0
-1572 8294 1573 0
-1572 -8294 -1573 0
-1573 1383 -1377 0
-1573 1382 1377 1574 0
-1573 -1382 1377 -1574 0
1573 -1383 -1377 0
1573 1382 1377 -1574 0
1573 -1382 1377 1574 0
1574 -1390 1455 0
1574 1455 -1575 0
-1574 -1455 0
-1574 1390 1575 0
1575 -1398 1402 0
1575 1402 -1576 0
-1575 -1402 0
-1575 1398 1576 0
1576 -1425 1451 0
1576 -1405 1451 0
-1576 -1451 0
-1576 1425 1405 0
1577 -8295 1578 0
1577 8295 -1578 0
-1577 8295 1578 0
-1577 -8295 -1578 0
-1578 1388 -1377 0
-1578 1387 1377 1579 0
-1578 -1387 1377 -1579 0
1578 -1388 -1377 0
1578 1387 1377 -1579 0
1578 -1387 1377 1579 0
1579 -1382 1458 0
1579 1458 -1574 0
-1579 -1458 0
-1579 1382 1574 0
-1580 1581 1583 0
1580 -1581 0
1580 -1583 0
1581 -8292 1582 0
1581 8292 -1582 0
-1581 8292 1582 0
-1581 -8292 -1582 0
-1582 1392 -1377 0
-1582 1391 1377 1575 0
-1582 -1391 1377 -1575 0
1582 -1392 -1377 0
1582 1391 1377 -1575 0
1582 -1391 1377 1575 0
1583 -8293 1584 0
1583 8293 -1584 0
-1583 8293 1584 0
-1583 -8293 -1584 0
-1584 1395 -1377 0
-1584 1394 1377 1585 0
-1584 -1394 1377 -1585 0
1584 -1395 -1377 0
1584 1394 1377 -1585 0
1584 -1394 1377 1585 0
1585 -8291 1392 0
1585 1392 -1575 0
1585 -8291 -1575 0
-1585 8291 1575 0
-1585 -1392 1575 0
-1585 8291 -1392 0
-1586 1587 1591 0
1586 -1587 0
1586 -1591 0
-1587 1588 1589 0
1587 -1588 0
1587 -1589 0
-1588 1399 -1377 0
-1588 1399 1576 0
-1588 -1399 1377 -1576 0
1588 -1399 -1377 0
1588 -1399 1576 0
1588 1399 1377 -1576 0
-1589 1401 -1377 0
-1589 1401 1590 0
-1589 -1401 1377 -1590 0
1589 -1401 -1377 0
1589 -1401 1590 0
1589 1401 1377 -1590 0
1590 1399 -1576 0
-1590 -1399 0
-1590 1576 0
-1591 1592 1594 0
1591 -1592 0
1591 -1594 0
-1592 1403 -1377 0
-1592 1403 1593 0
-1592 -1403 1377 -1593 0
1592 -1403 -1377 0
1592 -1403 1593 0
1592 1403 1377 -1593 0
1593 1398 -1576 0
-1593 -1398 0
-1593 1576 0
1594 -8291 1595 0
1594 8291 -1595 0
-1594 8291 1595 0
-1594 -8291 -1595 0
-1595 1404 -1377 0
-1595 1404 1596 0
-1595 -1404 1377 -1596 0
1595 -1404 -1377 0
1595 -1404 1596 0
1595 1404 1377 -1596 0
1596 1403 -1593 0
-1596 -1403 0
-1596 1593 0
-1597 1598 1608 0
1597 -1598 0
1597 -1608 0
-1598 1599 1603 0
1598 -1599 0
1598 -1603 0
-1599 1600 1601 0
1599 -1600 0
1599 -1601 0
-1600 1425 1408 0
-1600 1408 -1377 0
-1600 -1425 -1408 1377 0
1600 -1408 -1377 0
1600 1425 -1408 0
1600 -1425 1408 1377 0
-1601 1409 -1377 0
-1601 1409 1602 0
-1601 -1409 1377 -1602 0
1601 -1409 -1377 0
1601 -1409 1602 0
1601 1409 1377 -1602 0
1602 -1425 1408 0
-1602 1425 0
-1602 -1408 0
-1603 1604 1606 0
1603 -1604 0
1603 -1606 0
-1604 1412 -1377 0
-1604 1412 1605 0
-1604 -1412 1377 -1605 0
1604 -1412 -1377 0
1604 -1412 1605 0
1604 1412 1377 -1605 0
1605 -1425 1407 0
-1605 1425 0
-1605 -1407 0
-1606 1414 -1377 0
-1606 1414 1607 0
-1606 -1414 1377 -1607 0
1606 -1414 -1377 0
1606 -1414 1607 0
1606 1414 1377 -1607 0
1607 1412 -1605 0
-1607 -1412 0
-1607 1605 0
-1608 1609 1614 0
1608 -1609 0
1608 -1614 0
-1609 1610 1612 0
1609 -1610 0
1609 -1612 0
-1610 1417 -1377 0
-1610 1417 1611 0
-1610 -1417 1377 -1611 0
1610 -1417 -1377 0
1610 -1417 1611 0
1610 1417 1377 -1611 0
1611 -1425 1407 1411 0
-1611 1425 0
-1611 -1407 0
-1611 -1411 0
-1612 1419 -1377 0
-1612 1419 1613 0
-1612 -1419 1377 -1613 0
1612 -1419 -1377 0
1612 -1419 1613 0
1612 1419 1377 -1613 0
1613 1417 -1611 0
-1613 -1417 0
-1613 1611 0
-1614 1615 1617 0
1614 -1615 0
1614 -1617 0
-1615 1421 -1377 0
-1615 1421 1616 0
-1615 -1421 1377 -1616 0
1615 -1421 -1377 0
1615 -1421 1616 0
1615 1421 1377 -1616 0
1616 1416 -1611 0
-1616 -1416 0
-1616 1611 0
-1617 1423 -1377 0
-1617 1423 1618 0
-1617 -1423 1377 -1618 0
1617 -1423 -1377 0
1617 -1423 1618 0
1617 1423 1377 -1618 0
1618 1421 -1616 0
-1618 -1421 0
-1618 1616 0
1619 -1568 1645 1648 0
1619 -1620 1645 1648 0
-1619 -1648 0
-1619 -1645 0
-1619 1620 1568 0
1620 1621 1626 -1631 1644 0
-1620 -1644 0
-1620 -1621 0
-1620 -1626 0
-1620 1631 0
-1621 1622 1624 0
1621 -1622 0
1621 -1624 0
-1622 1427 -1377 0
-1622 1427 1623 0
-1622 -1427 1377 -1623 0
1622 -1427 -1377 0
1622 -1427 1623 0
1622 1427 1377 -1623 0
1623 -1437 1449 0
-1623 1437 0
-1623 -1449 0
-1624 1429 -1377 0
-1624 1429 1625 0
-1624 -1429 1377 -1625 0
1624 -1429 -1377 0
1624 -1429 1625 0
1624 1429 1377 -1625 0
1625 1427 -1623 0
-1625 -1427 0
-1625 1623 0
-1626 1627 1629 0
1626 -1627 0
1626 -1629 0
-1627 1432 -1377 0
-1627 1432 1628 0
-1627 -1432 1377 -1628 0
1627 -1432 -1377 0
1627 -1432 1628 0
1627 1432 1377 -1628 0
1628 1426 -1623 0
-1628 -1426 0
-1628 1623 0
-1629 1434 -1377 0
-1629 1434 1630 0
-1629 -1434 1377 -1630 0
1629 -1434 -1377 0
1629 -1434 1630 0
1629 1434 1377 -1630 0
1630 1432 -1628 0
-1630 -1432 0
-1630 1628 0
-1631 1632 1643 0
1631 -1632 0
1631 -1643 0
-1632 1633 1638 0
1632 -1633 0
1632 -1638 0
-1633 1634 1636 0
1633 -1634 0
1633 -1636 0
-1634 1439 -1377 0
-1634 1377 1635 0
1634 -1439 -1377 0
1634 1377 -1635 0
1635 -1439 0
-1635 1439 0
-1636 1441 -1377 0
-1636 1377 1637 0
1636 -1441 -1377 0
1636 1377 -1637 0
1637 -1441 0
-1637 1441 0
-1638 1639 1641 0
1638 -1639 0
1638 -1641 0
-1639 1444 -1377 0
-1639 1377 1640 0
1639 -1444 -1377 0
1639 1377 -1640 0
1640 -1444 0
-1640 1444 0
-1641 1446 -1377 0
-1641 1377 1642 0
1641 -1446 -1377 0
1641 1377 -1642 0
1642 -1446 0
-1642 1446 0
-1643 1621 1626 0
1643 -1621 0
1643 -1626 0
-1644 1633 1638 0
1644 -1633 0
1644 -1638 0
1645 1569 -1646 0
-1645 -1569 0
-1645 1646 0
-1646 1609 1614 1647 0
1646 -1609 0
1646 -1614 0
1646 -1647 0
-1647 1599 1603 0
1647 -1599 0
1647 -1603 0
-1648 -1571 1649 1653 0
-1648 1649 1651 1653 0
1648 -1653 0
1648 -1649 0
1648 1571 -1651 0
1649 1570 -1650 0
-1649 -1570 0
-1649 1650 0
-1650 -8291 1595 0
-1650 -8291 1587 1592 0
-1650 1587 1592 1595 0
1650 -1587 -1595 0
1650 8291 -1592 0
1650 -1592 -1595 0
1650 8291 -1587 0
1650 8291 -1595 0
-1651 -8293 1584 0
-1651 1584 1652 0
-1651 -8293 1652 0
1651 -1584 -1652 0
1651 8293 -1584 0
1651 8293 -1652 0
1652 8292 -1582 0
-1652 -8292 0
-1652 1582 0
-1653 -8295 1578 0
-1653 1578 1654 0
-1653 -8295 1654 0
1653 -1578 -1654 0
1653 8295 -1578 0
1653 8295 -1654 0
1654 8294 -1573 0
-1654 -8294 0
-1654 1573 0
-1655 1106 1108 1109 0
1655 -1106 0
1655 -1108 0
1655 -1109 0
-1656 1114 1657 1631 0
1656 -1114 0
1656 -1657 0
1656 -1631 0
-1657 1658 1660 0
1657 -1658 0
1657 -1660 0
-1658 242 1659 0
1658 -242 0
1658 -1659 0
-1659 1467 0
1659 -1467 0
-1660 1661 1662 0
1660 -1661 0
1660 -1662 0
-1661 1469 0
1661 -1469 0
-1662 1471 0
1662 -1471 0
1663 -1655 0
1663 -1664 -1715 0
1663 -1715 -1751 0
-1663 1655 1715 0
-1663 1655 1664 1751 0
-1664 1665 1693 0
1664 -1665 0
1664 -1693 0
-1665 1666 1682 0
1665 -1666 0
1665 -1682 0
-1666 1667 1676 0
1666 -1667 0
1666 -1676 0
-1667 1668 1673 0
1667 -1668 0
1667 -1673 0
1668 -8294 1669 0
1668 8294 -1669 0
-1668 8294 1669 0
-1668 -8294 -1669 0
-1669 1479 -1473 0
-1669 1478 1473 1670 0
-1669 -1478 1473 -1670 0
1669 -1479 -1473 0
1669 1478 1473 -1670 0
1669 -1478 1473 1670 0
1670 -1486 1551 0
1670 1551 -1671 0
-1670 -1551 0
-1670 1486 1671 0
1671 -1494 1498 0
1671 1498 -1672 0
-1671 -1498 0
-1671 1494 1672 0
1672 -1521 1547 0
1672 -1501 1547 0
-1672 -1547 0
-1672 1521 1501 0
1673 -8295 1674 0
1673 8295 -1674 0
-1673 8295 1674 0
-1673 -8295 -1674 0
-1674 1484 -1473 0
-1674 1483 1473 1675 0
-1674 -1483 1473 -1675 0
1674 -1484 -1473 0
1674 1483 1473 -1675 0
1674 -1483 1473 1675 0
1675 -1478 1554 0
1675 1554 -1670 0
-1675 -1554 0
-1675 1478 1670 0
-1676 1677 1679 0
1676 -1677 0
1676 -1679 0
1677 -8292 1678 0
1677 8292 -1678 0
-1677 8292 1678 0
-1677 -8292 -1678 0
-1678 1488 -1473 0
-1678 1487 1473 1671 0
-1678 -1487 1473 -1671 0
1678 -1488 -1473 0
1678 1487 1473 -1671 0
1678 -1487 1473 1671 0
1679 -8293 1680 0
1679 8293 -1680 0
-1679 8293 1680 0
-1679 -8293 -1680 0
-1680 1491 -1473 0
-1680 1490 1473 1681 0
-1680 -1490 1473 -1681 0
1680 -1491 -1473 0
1680 1490 1473 -1681 0
1680 -1490 1473 1681 0
1681 -8291 1488 0
1681 1488 -1671 0
1681 -8291 -1671 0
-1681 8291 1671 0
-1681 -1488 1671 0
-1681 8291 -1488 0
-1682 1683 1687 0
1682 -1683 0
1682 -1687 0
-1683 1684 1685 0
1683 -1684 0
1683 -1685 0
-1684 1495 -1473 0
-1684 1495 1672 0
-1684 -1495 1473 -1672 0
1684 -1495 -1473 0
1684 -1495 1672 0
1684 1495 1473 -1672 0
-1685 1497 -1473 0
-1685 1497 1686 0
-1685 -1497 1473 -1686 0
1685 -1497 -1473 0
1685 -1497 1686 0
1685 1497 1473 -1686 0
1686 1495 -1672 0
-1686 -1495 0
-1686 1672 0
-1687 1688 1690 0
1687 -1688 0
1687 -1690 0
-1688 1499 -1473 0
-1688 1499 1689 0
-1688 -1499 1473 -1689 0
1688 -1499 -1473 0
1688 -1499 1689 0
1688 1499 1473 -1689 0
1689 1494 -1672 0
-1689 -1494 0
-1689 1672 0
1690 -8291 1691 0
1690 8291 -1691 0
-1690 8291 1691 0
-1690 -8291 -1691 0
-1691 1500 -1473 0
-1691 1500 1692 0
-1691 -1500 1473 -1692 0
1691 -1500 -1473 0
1691 -1500 1692 0
1691 1500 1473 -1692 0
1692 1499 -1689 0
-1692 -1499 0
-1692 1689 0
-1693 1694 1704 0
1693 -1694 0
1693 -1704 0
-1694 1695 1699 0
1694 -1695 0
1694 -1699 0
-1695 1696 1697 0
1695 -1696 0
1695 -1697 0
-1696 1521 1504 0
-1696 1504 -1473 0
-1696 -1521 -1504 1473 0
1696 -1504 -1473 0
1696 1521 -1504 0
1696 -1521 1504 1473 0
-1697 1505 -1473 0
-1697 1505 1698 0
-1697 -1505 1473 -1698 0
1697 -1505 -1473 0
1697 -1505 1698 0
1697 1505 1473 -1698 0
1698 -1521 1504 0
-1698 1521 0
-1698 -1504 0
-1699 1700 1702 0
1699 -1700 0
1699 -1702 0
-1700 1508 -1473 0
-1700 1508 1701 0
-1700 -1508 1473 -1701 0
1700 -1508 -1473 0
1700 -1508 1701 0
1700 1508 1473 -1701 0
1701 -1521 1503 0
-1701 1521 0
-1701 -1503 0
-1702 1510 -1473 0
-1702 1510 1703 0
-1702 -1510 1473 -1703 0
1702 -1510 -1473 0
1702 -1510 1703 0
1702 1510 1473 -1703 0
1703 1508 -1701 0
-1703 -1508 0
-1703 1701 0
-1704 1705 1710 0
1704 -1705 0
1704 -1710 0
-1705 1706 1708 0
1705 -1706 0
1705 -1708 0
-1706 1513 -1473 0
-1706 1513 1707 0
-1706 -1513 1473 -1707 0
1706 -1513 -1473 0
1706 -1513 1707 0
1706 1513 1473 -1707 0
1707 -1521 1503 1507 0
-1707 1521 0
-1707 -1503 0
-1707 -1507 0
-1708 1515 -1473 0
-1708 1515 1709 0
-1708 -1515 1473 -1709 0
1708 -1515 -1473 0
1708 -1515 1709 0
1708 1515 1473 -1709 0
1709 1513 -1707 0
-1709 -1513 0
-1709 1707 0
-1710 1711 1713 0
1710 -1711 0
1710 -1713 0
-1711 1517 -1473 0
-1711 1517 1712 0
-1711 -1517 1473 -1712 0
1711 -1517 -1473 0
1711 -1517 1712 0
1711 1517 1473 -1712 0
1712 1512 -1707 0
-1712 -1512 0
-1712 1707 0
-1713 1519 -1473 0
-1713 1519 1714 0
-1713 -1519 1473 -1714 0
1713 -1519 -1473 0
1713 -1519 1714 0
1713 1519 1473 -1714 0
1714 1517 -1712 0
-1714 -1517 0
-1714 1712 0
1715 -1664 1741 1744 0
1715 -1716 1741 1744 0
-1715 -1744 0
-1715 -1741 0
-1715 1716 1664 0
1716 1717 1722 -1727 1740 0
-1716 -1740 0
-1716 -1717 0
-1716 -1722 0
-1716 1727 0
-1717 1718 1720 0
1717 -1718 0
1717 -1720 0
-1718 1523 -1473 0
-1718 1523 1719 0
-1718 -1523 1473 -1719 0
1718 -1523 -1473 0
1718 -1523 1719 0
1718 1523 1473 -1719 0
1719 -1533 1545 0
-1719 1533 0
-1719 -1545 0
-1720 1525 -1473 0
-1720 1525 1721 0
-1720 -1525 1473 -1721 0
1720 -1525 -1473 0
1720 -1525 1721 0
1720 1525 1473 -1721 0
1721 1523 -1719 0
-1721 -1523 0
-1721 1719 0
-1722 1723 1725 0
1722 -1723 0
1722 -1725 0
-1723 1528 -1473 0
-1723 1528 1724 0
-1723 -1528 1473 -1724 0
1723 -1528 -1473 0
1723 -1528 1724 0
1723 1528 1473 -1724 0
1724 1522 -1719 0
-1724 -1522 0
-1724 1719 0
-1725 1530 -1473 0
-1725 1530 1726 0
-1725 -1530 1473 -1726 0
1725 -1530 -1473 0
1725 -1530 1726 0
1725 1530 1473 -1726 0
1726 1528 -1724 0
-1726 -1528 0
-1726 1724 0
-1727 1728 1739 0
1727 -1728 0
1727 -1739 0
-1728 1729 1734 0
1728 -1729 0
1728 -1734 0
-1729 1730 1732 0
1729 -1730 0
1729 -1732 0
-1730 1535 -1473 0
-1730 1473 1731 0
1730 -1535 -1473 0
1730 1473 -1731 0
1731 -1535 0
-1731 1535 0
-1732 1537 -1473 0
-1732 1473 1733 0
1732 -1537 -1473 0
1732 1473 -1733 0
1733 -1537 0
-1733 1537 0
-1734 1735 1737 0
1734 -1735 0
1734 -1737 0
-1735 1540 -1473 0
-1735 1473 1736 0
1735 -1540 -1473 0
1735 1473 -1736 0
1736 -1540 0
-1736 1540 0
-1737 1542 -1473 0
-1737 1473 1738 0
1737 -1542 -1473 0
1737 1473 -1738 0
1738 -1542 0
-1738 1542 0
-1739 1717 1722 0
1739 -1717 0
1739 -1722 0
-1740 1729 1734 0
1740 -1729 0
1740 -1734 0
1741 1665 -1742 0
-1741 -1665 0
-1741 1742 0
-1742 1705 1710 1743 0
1742 -1705 0
1742 -1710 0
1742 -1743 0
-1743 1695 1699 0
1743 -1695 0
1743 -1699 0
-1744 -1667 1745 1749 0
-1744 1745 1747 1749 0
1744 -1749 0
1744 -1745 0
1744 1667 -1747 0
1745 1666 -1746 0
-1745 -1666 0
-1745 1746 0
-1746 -8291 1691 0
-1746 -8291 1683 1688 0
-1746 1683 1688 1691 0
1746 -1683 -1691 0
1746 8291 -1688 0
1746 -1688 -1691 0
1746 8291 -1683 0
1746 8291 -1691 0
-1747 -8293 1680 0
-1747 1680 1748 0
-1747 -8293 1748 0
1747 -1680 -1748 0
1747 8293 -1680 0
1747 8293 -1748 0
1748 8292 -1678 0
-1748 -8292 0
-1748 1678 0
-1749 -8295 1674 0
-1749 1674 1750 0
-1749 -8295 1750 0
1749 -1674 -1750 0
1749 8295 -1674 0
1749 8295 -1750 0
1750 8294 -1669 0
-1750 -8294 0
-1750 1669 0
-1751 1752 1727 1761 0
1751 -1752 0
1751 -1727 0
1751 -1761 0
-1752 1753 1756 0
1752 -1753 0
1752 -1756 0
-1753 1754 1755 0
1753 -1754 0
1753 -1755 0
-1754 8279 0
1754 -8279 0
-1755 1558 0
1755 -1558 0
-1756 1757 1759 0
1756 -1757 0
1756 -1759 0
-1757 1758 0
1757 -1758 0
-1758 1560 0
1758 -1560 0
-1759 1760 0
1759 -1760 0
-1760 1561 0
1760 -1561 0
-1761 8275 8276 8277 8278 0
1761 -8278 0
1761 -8277 0
1761 -8275 0
1761 -8276 0
1762 -1116 -1162 0
1762 1115 -1162 1763 0
-1762 1162 0
-1762 -1115 1116 0
-1762 1116 -1763 0
1763 1092 -1764 0
1763 -177 -1092 -1566 0
1763 177 -1092 1566 0
-1763 1092 1764 0
-1763 -177 -1092 1566 0
-1763 177 -1092 -1566 0
1764 -1855 0
1764 -1817 -1856 0
1764 -1765 -1817 0
-1764 1817 1855 0
-1764 1765 1855 1856 0
-1765 1766 1795 0
1765 -1766 0
1765 -1795 0
-1766 1767 1783 0
1766 -1767 0
1766 -1783 0
-1767 1768 1777 0
1767 -1768 0
1767 -1777 0
-1768 1769 1774 0
1768 -1769 0
1768 -1774 0
1769 -8295 1770 0
1769 8295 -1770 0
-1769 8295 1770 0
-1769 -8295 -1770 0
-1770 1573 -1567 0
-1770 1572 1567 1771 0
-1770 -1572 1567 -1771 0
1770 -1573 -1567 0
1770 1572 1567 -1771 0
1770 -1572 1567 1771 0
1771 -1580 1651 0
1771 1651 -1772 0
-1771 -1651 0
-1771 1580 1772 0
1772 -1586 1650 0
1772 1650 -1773 0
-1772 -1650 0
-1772 1586 1773 0
1773 -1620 1646 0
1773 -1597 1646 0
-1773 -1646 0
-1773 1620 1597 0
1774 -8296 1775 0
1774 8296 -1775 0
-1774 8296 1775 0
-1774 -8296 -1775 0
-1775 1578 -1567 0
-1775 1577 1567 1776 0
-1775 -1577 1567 -1776 0
1775 -1578 -1567 0
1775 1577 1567 -1776 0
1775 -1577 1567 1776 0
1776 -1572 1654 0
1776 1654 -1771 0
-1776 -1654 0
-1776 1572 1771 0
-1777 1778 1780 0
1777 -1778 0
1777 -1780 0
1778 -8293 1779 0
1778 8293 -1779 0
-1778 8293 1779 0
-1778 -8293 -1779 0
-1779 1582 -1567 0
-1779 1581 1567 1772 0
-1779 -1581 1567 -1772 0
1779 -1582 -1567 0
1779 1581 1567 -1772 0
1779 -1581 1567 1772 0
1780 -8294 1781 0
1780 8294 -1781 0
-1780 8294 1781 0
-1780 -8294 -1781 0
-1781 1584 -1567 0
-1781 1583 1567 1782 0
-1781 -1583 1567 -1782 0
1781 -1584 -1567 0
1781 1583 1567 -1782 0
1781 -1583 1567 1782 0
1782 -1581 1652 0
1782 1652 -1772 0
-1782 -1652 0
-1782 1581 1772 0
-1783 1784 1788 0
1783 -1784 0
1783 -1788 0
-1784 1785 1786 0
1784 -1785 0
1784 -1786 0
-1785 1588 -1567 0
-1785 1588 1773 0
-1785 -1588 1567 -1773 0
1785 -1588 -1567 0
1785 -1588 1773 0
1785 1588 1567 -1773 0
-1786 1589 -1567 0
-1786 1589 1787 0
-1786 -1589 1567 -1787 0
1786 -1589 -1567 0
1786 -1589 1787 0
1786 1589 1567 -1787 0
1787 1588 -1773 0
-1787 -1588 0
-1787 1773 0
-1788 1789 1792 0
1788 -1789 0
1788 -1792 0
1789 -8291 1790 0
1789 8291 -1790 0
-1789 8291 1790 0
-1789 -8291 -1790 0
-1790 1592 -1567 0
-1790 1592 1791 0
-1790 -1592 1567 -1791 0
1790 -1592 -1567 0
1790 -1592 1791 0
1790 1592 1567 -1791 0
1791 1587 -1773 0
-1791 -1587 0
-1791 1773 0
1792 -8292 1793 0
1792 8292 -1793 0
-1792 8292 1793 0
-1792 -8292 -1793 0
-1793 1595 -1567 0
-1793 1594 1567 1794 0
-1793 -1594 1567 -1794 0
1793 -1595 -1567 0
1793 1594 1567 -1794 0
1793 -1594 1567 1794 0
1794 1592 -1791 0
-1794 -1592 0
-1794 1791 0
-1795 1796 1806 0
1795 -1796 0
1795 -1806 0
-1796 1797 1801 0
1796 -1797 0
1796 -1801 0
-1797 1798 1799 0
1797 -1798 0
1797 -1799 0
-1798 1620 1600 0
-1798 1600 -1567 0
-1798 -1620 -1600 1567 0
1798 -1600 -1567 0
1798 1620 -1600 0
1798 -1620 1600 1567 0
-1799 1601 -1567 0
-1799 1601 1800 0
-1799 -1601 1567 -1800 0
1799 -1601 -1567 0
1799 -1601 1800 0
1799 1601 1567 -1800 0
1800 -1620 1600 0
-1800 1620 0
-1800 -1600 0
-1801 1802 1804 0
1801 -1802 0
1801 -1804 0
-1802 1604 -1567 0
-1802 1604 1803 0
-1802 -1604 1567 -1803 0
1802 -1604 -1567 0
1802 -1604 1803 0
1802 1604 1567 -1803 0
1803 -1620 1599 0
-1803 1620 0
-1803 -1599 0
-1804 1606 -1567 0
-1804 1606 1805 0
-1804 -1606 1567 -1805 0
1804 -1606 -1567 0
1804 -1606 1805 0
1804 1606 1567 -1805 0
1805 1604 -1803 0
-1805 -1604 0
-1805 1803 0
-1806 1807 1812 0
1806 -1807 0
1806 -1812 0
-1807 1808 1810 0
1807 -1808 0
1807 -1810 0
-1808 1610 -1567 0
-1808 1610 1809 0
-1808 -1610 1567 -1809 0
1808 -1610 -1567 0
1808 -1610 1809 0
1808 1610 1567 -1809 0
1809 -1620 1599 1603 0
-1809 1620 0
-1809 -1599 0
-1809 -1603 0
-1810 1612 -1567 0
-1810 1612 1811 0
-1810 -1612 1567 -1811 0
1810 -1612 -1567 0
1810 -1612 1811 0
1810 1612 1567 -1811 0
1811 1610 -1809 0
-1811 -1610 0
-1811 1809 0
-1812 1813 1815 0
1812 -1813 0
1812 -1815 0
-1813 1615 -1567 0
-1813 1615 1814 0
-1813 -1615 1567 -1814 0
1813 -1615 -1567 0
1813 -1615 1814 0
1813 1615 1567 -1814 0
1814 1609 -1809 0
-1814 -1609 0
-1814 1809 0
-1815 1617 -1567 0
-1815 1617 1816 0
-1815 -1617 1567 -1816 0
1815 -1617 -1567 0
1815 -1617 1816 0
1815 1617 1567 -1816 0
1816 1615 -1814 0
-1816 -1615 0
-1816 1814 0
1817 -1765 1843 1846 0
1817 -1818 1843 1846 0
-1817 -1846 0
-1817 -1843 0
-1817 1818 1765 0
1818 1819 1824 -1829 1842 0
-1818 -1842 0
-1818 -1819 0
-1818 -1824 0
-1818 1829 0
-1819 1820 1822 0
1819 -1820 0
1819 -1822 0
-1820 1622 -1567 0
-1820 1622 1821 0
-1820 -1622 1567 -1821 0
1820 -1622 -1567 0
1820 -1622 1821 0
1820 1622 1567 -1821 0
1821 -1632 1644 0
-1821 1632 0
-1821 -1644 0
-1822 1624 -1567 0
-1822 1624 1823 0
-1822 -1624 1567 -1823 0
1822 -1624 -1567 0
1822 -1624 1823 0
1822 1624 1567 -1823 0
1823 1622 -1821 0
-1823 -1622 0
-1823 1821 0
-1824 1825 1827 0
1824 -1825 0
1824 -1827 0
-1825 1627 -1567 0
-1825 1627 1826 0
-1825 -1627 1567 -1826 0
1825 -1627 -1567 0
1825 -1627 1826 0
1825 1627 1567 -1826 0
1826 1621 -1821 0
-1826 -1621 0
-1826 1821 0
-1827 1629 -1567 0
-1827 1629 1828 0
-1827 -1629 1567 -1828 0
1827 -1629 -1567 0
1827 -1629 1828 0
1827 1629 1567 -1828 0
1828 1627 -1826 0
-1828 -1627 0
-1828 1826 0
-1829 1830 1841 0
1829 -1830 0
1829 -1841 0
-1830 1831 1836 0
1830 -1831 0
1830 -1836 0
-1831 1832 1834 0
1831 -1832 0
1831 -1834 0
-1832 1634 -1567 0
-1832 1567 1833 0
1832 -1634 -1567 0
1832 1567 -1833 0
1833 -1634 0
-1833 1634 0
-1834 1636 -1567 0
-1834 1567 1835 0
1834 -1636 -1567 0
1834 1567 -1835 0
1835 -1636 0
-1835 1636 0
-1836 1837 1839 0
1836 -1837 0
1836 -1839 0
-1837 1639 -1567 0
-1837 1567 1838 0
1837 -1639 -1567 0
1837 1567 -1838 0
1838 -1639 0
-1838 1639 0
-1839 1641 -1567 0
-1839 1567 1840 0
1839 -1641 -1567 0
1839 1567 -1840 0
1840 -1641 0
-1840 1641 0
-1841 1819 1824 0
1841 -1819 0
1841 -1824 0
-1842 1831 1836 0
1842 -1831 0
1842 -1836 0
1843 1766 -1844 0
-1843 -1766 0
-1843 1844 0
-1844 1807 1812 1845 0
1844 -1807 0
1844 -1812 0
1844 -1845 0
-1845 1797 1801 0
1845 -1797 0
1845 -1801 0
-1846 -1768 1847 1853 0
-1846 1847 1851 1853 0
1846 -1853 0
1846 -1847 0
1846 1768 -1851 0
1847 1767 -1848 0
-1847 -1767 0
-1847 1848 0
-1848 -8292 1849 1850 0
-1848 -8292 1793 1849 0
-1848 1793 1849 1850 0
1848 -1793 -1850 0
1848 8292 -1850 0
1848 -1849 0
1848 8292 -1793 0
1849 -1784 1788 0
-1849 1784 0
-1849 -1788 0
1850 8291 -1790 0
-1850 -8291 0
-1850 1790 0
-1851 -8294 1781 0
-1851 1781 1852 0
-1851 -8294 1852 0
1851 -1781 -1852 0
1851 8294 -1781 0
1851 8294 -1852 0
1852 8293 -1779 0
-1852 -8293 0
-1852 1779 0
-1853 -8296 1775 0
-1853 1775 1854 0
-1853 -8296 1854 0
1853 -1775 -1854 0
1853 8296 -1775 0
1853 8296 -1854 0
1854 8295 -1770 0
-1854 -8295 0
-1854 1770 0
-1855 1218 1220 1221 0
1855 -1218 0
1855 -1220 0
1855 -1221 0
-1856 1114 1857 1829 0
1856 -1114 0
1856 -1857 0
1856 -1829 0
-1857 1858 1861 0
1857 -1858 0
1857 -1861 0
-1858 1859 1860 0
1858 -1859 0
1858 -1860 0
-1859 242 0
1859 -242 0
-1860 1659 0
1860 -1659 0
-1861 1862 1863 0
1861 -1862 0
1861 -1863 0
-1862 1661 0
1862 -1661 0
-1863 1662 0
1863 -1662 0
1864 -1855 0
1864 -1865 -1917 0
1864 -1917 -1955 0
-1864 1855 1917 0
-1864 1855 1865 1955 0
-1865 1866 1895 0
1865 -1866 0
1865 -1895 0
-1866 1867 1883 0
1866 -1867 0
1866 -1883 0
-1867 1868 1877 0
1867 -1868 0
1867 -1877 0
-1868 1869 1874 0
1868 -1869 0
1868 -1874 0
1869 -8295 1870 0
1869 8295 -1870 0
-1869 8295 1870 0
-1869 -8295 -1870 0
-1870 1669 -1663 0
-1870 1668 1663 1871 0
-1870 -1668 1663 -1871 0
1870 -1669 -1663 0
1870 1668 1663 -1871 0
1870 -1668 1663 1871 0
1871 -1676 1747 0
1871 1747 -1872 0
-1871 -1747 0
-1871 1676 1872 0
1872 -1682 1746 0
1872 1746 -1873 0
-1872 -1746 0
-1872 1682 1873 0
1873 -1716 1742 0
1873 -1693 1742 0
-1873 -1742 0
-1873 1716 1693 0
1874 -8296 1875 0
1874 8296 -1875 0
-1874 8296 1875 0
-1874 -8296 -1875 0
-1875 1674 -1663 0
-1875 1673 1663 1876 0
-1875 -1673 1663 -1876 0
1875 -1674 -1663 0
1875 1673 1663 -1876 0
1875 -1673 1663 1876 0
1876 -1668 1750 0
1876 1750 -1871 0
-1876 -1750 0
-1876 1668 1871 0
-1877 1878 1880 0
1877 -1878 0
1877 -1880 0
1878 -8293 1879 0
1878 8293 -1879 0
-1878 8293 1879 0
-1878 -8293 -1879 0
-1879 1678 -1663 0
-1879 1677 1663 1872 0
-1879 -1677 1663 -1872 0
1879 -1678 -1663 0
1879 1677 1663 -1872 0
1879 -1677 1663 1872 0
1880 -8294 1881 0
1880 8294 -1881 0
-1880 8294 1881 0
-1880 -8294 -1881 0
-1881 1680 -1663 0
-1881 1679 1663 1882 0
-1881 -1679 1663 -1882 0
1881 -1680 -1663 0
1881 1679 1663 -1882 0
1881 -1679 1663 1882 0
1882 -1677 1748 0
1882 1748 -1872 0
-1882 -1748 0
-1882 1677 1872 0
-1883 1884 1888 0
1883 -1884 0
1883 -1888 0
-1884 1885 1886 0
1884 -1885 0
1884 -1886 0
-1885 1684 -1663 0
-1885 1684 1873 0
-1885 -1684 1663 -1873 0
1885 -1684 -1663 0
1885 -1684 1873 0
1885 1684 1663 -1873 0
-1886 1685 -1663 0
-1886 1685 1887 0
-1886 -1685 1663 -1887 0
1886 -1685 -1663 0
1886 -1685 1887 0
1886 1685 1663 -1887 0
1887 1684 -1873 0
-1887 -1684 0
-1887 1873 0
-1888 1889 1892 0
1888 -1889 0
1888 -1892 0
1889 -8291 1890 0
1889 8291 -1890 0
-1889 8291 1890 0
-1889 -8291 -1890 0
-1890 1688 -1663 0
-1890 1688 1891 0
-1890 -1688 1663 -1891 0
1890 -1688 -1663 0
1890 -1688 1891 0
1890 1688 1663 -1891 0
1891 1683 -1873 0
-1891 -1683 0
-1891 1873 0
1892 -8292 1893 0
1892 8292 -1893 0
-1892 8292 1893 0
-1892 -8292 -1893 0
-1893 1691 -1663 0
-1893 1690 1663 1894 0
-1893 -1690 1663 -1894 0
1893 -1691 -1663 0
1893 1690 1663 -1894 0
1893 -1690 1663 1894 0
1894 1688 -1891 0
-1894 -1688 0
-1894 1891 0
-1895 1896 1906 0
1895 -1896 0
1895 -1906 0
-1896 1897 1901 0
1896 -1897 0
1896 -1901 0
-1897 1898 1899 0
1897 -1898 0
1897 -1899 0
-1898 1716 1696 0
-1898 1696 -1663 0
-1898 -1716 -1696 1663 0
1898 -1696 -1663 0
1898 1716 -1696 0
1898 -1716 1696 1663 0
-1899 1697 -1663 0
-1899 1697 1900 0
-1899 -1697 1663 -1900 0
1899 -1697 -1663 0
1899 -1697 1900 0
1899 1697 1663 -1900 0
1900 -1716 1696 0
-1900 1716 0
-1900 -1696 0
-1901 1902 1904 0
1901 -1902 0
1901 -1904 0
-1902 1700 -1663 0
-1902 1700 1903 0
-1902 -1700 1663 -1903 0
1902 -1700 -1663 0
1902 -1700 1903 0
1902 1700 1663 -1903 0
1903 -1716 1695 0
-1903 1716 0
-1903 -1695 0
-1904 1702 -1663 0
-1904 1702 1905 0
-1904 -1702 1663 -1905 0
1904 -1702 -1663 0
1904 -1702 1905 0
1904 1702 1663 -1905 0
1905 1700 -1903 0
-1905 -1700 0
-1905 1903 0
-1906 1907 1912 0
1906 -1907 0
1906 -1912 0
-1907 1908 1910 0
1907 -1908 0
1907 -1910 0
-1908 1706 -1663 0
-1908 1706 1909 0
-1908 -1706 1663 -1909 0
1908 -1706 -1663 0
1908 -1706 1909 0
1908 1706 1663 -1909 0
1909 -1716 1695 1699 0
-1909 1716 0
-1909 -1695 0
-1909 -1699 0
-1910 1708 -1663 0
-1910 1708 1911 0
-1910 -1708 1663 -1911 0
1910 -1708 -1663 0
1910 -1708 1911 0
1910 1708 1663 -1911 0
1911 1706 -1909 0
-1911 -1706 0
-1911 1909 0
-1912 1913 1915 0
1912 -1913 0
1912 -1915 0
-1913 1711 -1663 0
-1913 1711 1914 0
-1913 -1711 1663 -1914 0
1913 -1711 -1663 0
1913 -1711 1914 0
1913 1711 1663 -1914 0
1914 1705 -1909 0
-1914 -1705 0
-1914 1909 0
-1915 1713 -1663 0
-1915 1713 1916 0
-1915 -1713 1663 -1916 0
1915 -1713 -1663 0
1915 -1713 1916 0
1915 1713 1663 -1916 0
1916 1711 -1914 0
-1916 -1711 0
-1916 1914 0
1917 -1865 1943 1946 0
1917 -1918 1943 1946 0
-1917 -1946 0
-1917 -1943 0
-1917 1918 1865 0
1918 1919 1924 -1929 1942 0
-1918 -1942 0
-1918 -1919 0
-1918 -1924 0
-1918 1929 0
-1919 1920 1922 0
1919 -1920 0
1919 -1922 0
-1920 1718 -1663 0
-1920 1718 1921 0
-1920 -1718 1663 -1921 0
1920 -1718 -1663 0
1920 -1718 1921 0
1920 1718 1663 -1921 0
1921 -1728 1740 0
-1921 1728 0
-1921 -1740 0
-1922 1720 -1663 0
-1922 1720 1923 0
-1922 -1720 1663 -1923 0
1922 -1720 -1663 0
1922 -1720 1923 0
1922 1720 1663 -1923 0
1923 1718 -1921 0
-1923 -1718 0
-1923 1921 0
-1924 1925 1927 0
1924 -1925 0
1924 -1927 0
-1925 1723 -1663 0
-1925 1723 1926 0
-1925 -1723 1663 -1926 0
1925 -1723 -1663 0
1925 -1723 1926 0
1925 1723 1663 -1926 0
1926 1717 -1921 0
-1926 -1717 0
-1926 1921 0
-1927 1725 -1663 0
-1927 1725 1928 0
-1927 -1725 1663 -1928 0
1927 -1725 -1663 0
1927 -1725 1928 0
1927 1725 1663 -1928 0
1928 1723 -1926 0
-1928 -1723 0
-1928 1926 0
-1929 1930 1941 0
1929 -1930 0
1929 -1941 0
-1930 1931 1936 0
1930 -1931 0
1930 -1936 0
-1931 1932 1934 0
1931 -1932 0
1931 -1934 0
-1932 1730 -1663 0
-1932 1663 1933 0
1932 -1730 -1663 0
1932 1663 -1933 0
1933 -1730 0
-1933 1730 0
-1934 1732 -1663 0
-1934 1663 1935 0
1934 -1732 -1663 0
1934 1663 -1935 0
1935 -1732 0
-1935 1732 0
-1936 1937 1939 0
1936 -1937 0
1936 -1939 0
-1937 1735 -1663 0
-1937 1663 1938 0
1937 -1735 -1663 0
1937 1663 -1938 0
1938 -1735 0
-1938 1735 0
-1939 1737 -1663 0
-1939 1663 1940 0
1939 -1737 -1663 0
1939 1663 -1940 0
1940 -1737 0
-1940 1737 0
-1941 1919 1924 0
1941 -1919 0
1941 -1924 0
-1942 1931 1936 0
1942 -1931 0
1942 -1936 0
1943 1866 -1944 0
-1943 -1866 0
-1943 1944 0
-1944 1907 1912 1945 0
1944 -1907 0
1944 -1912 0
1944 -1945 0
-1945 1897 1901 0
1945 -1897 0
1945 -1901 0
-1946 -1868 1947 1953 0
-1946 1947 1951 1953 0
1946 -1953 0
1946 -1947 0
1946 1868 -1951 0
1947 1867 -1948 0
-1947 -1867 0
-1947 1948 0
-1948 -8292 1949 1950 0
-1948 -8292 1893 1949 0
-1948 1893 1949 1950 0
1948 -1893 -1950 0
1948 8292 -1950 0
1948 -1949 0
1948 8292 -1893 0
1949 -1884 1888 0
-1949 1884 0
-1949 -1888 0
1950 8291 -1890 0
-1950 -8291 0
-1950 1890 0
-1951 -8294 1881 0
-1951 1881 1952 0
-1951 -8294 1952 0
1951 -1881 -1952 0
1951 8294 -1881 0
1951 8294 -1952 0
1952 8293 -1879 0
-1952 -8293 0
-1952 1879 0
-1953 -8296 1875 0
-1953 1875 1954 0
-1953 -8296 1954 0
1953 -1875 -1954 0
1953 8296 -1875 0
1953 8296 -1954 0
1954 8295 -1870 0
-1954 -8295 0
-1954 1870 0
-1955 1761 1956 1929 0
1955 -1761 0
1955 -1956 0
1955 -1929 0
-1956 1957 1960 0
1956 -1957 0
1956 -1960 0
-1957 1754 1958 0
1957 -1754 0
1957 -1958 0
-1958 1959 0
1958 -1959 0
-1959 1755 0
1959 -1755 0
-1960 1961 1962 0
1960 -1961 0
1960 -1962 0
-1961 1757 0
1961 -1757 0
-1962 1759 0
1962 -1759 0
1963 -1964 2069 -2169 2278 0
1963 1964 -2069 2169 -2278 0
1963 -1964 2069 2169 -2278 0
1963 1964 -2069 -2169 2278 0
-1963 -1964 -2069 0
-1963 1964 2069 0
-1963 2169 2278 0
-1963 -2169 -2278 0
1964 -1116 -1162 0
1964 1115 -1162 1965 0
-1964 1162 0
-1964 -1115 1116 0
-1964 1116 -1965 0
1965 1092 -1967 0
1965 -214 -1092 -1966 0
1965 214 -1092 1966 0
-1965 1092 1967 0
-1965 -214 -1092 1966 0
-1965 214 -1092 -1966 0
-1966 254 1069 0
-1966 303 1069 0
1966 -1069 0
1966 -254 -303 0
1967 -2060 0
1967 -2021 -2061 0
1967 -1968 -2021 0
-1967 2021 2060 0
-1967 1968 2060 2061 0
-1968 1969 1999 0
1968 -1969 0
1968 -1999 0
-1969 1970 1986 0
1969 -1970 0
1969 -1986 0
-1970 1971 1980 0
1970 -1971 0
1970 -1980 0
-1971 1972 1977 0
1971 -1972 0
1971 -1977 0
1972 -8296 1973 0
1972 8296 -1973 0
-1972 8296 1973 0
-1972 -8296 -1973 0
-1973 1770 -1764 0
-1973 1769 1764 1974 0
-1973 -1769 1764 -1974 0
1973 -1770 -1764 0
1973 1769 1764 -1974 0
1973 -1769 1764 1974 0
1974 -1777 1851 0
1974 1851 -1975 0
-1974 -1851 0
-1974 1777 1975 0
1975 -1783 1848 0
1975 1848 -1976 0
-1975 -1848 0
-1975 1783 1976 0
1976 -1818 1844 0
1976 -1795 1844 0
-1976 -1844 0
-1976 1818 1795 0
1977 -8297 1978 0
1977 8297 -1978 0
-1977 8297 1978 0
-1977 -8297 -1978 0
-1978 1775 -1764 0
-1978 1774 1764 1979 0
-1978 -1774 1764 -1979 0
1978 -1775 -1764 0
1978 1774 1764 -1979 0
1978 -1774 1764 1979 0
1979 -1769 1854 0
1979 1854 -1974 0
-1979 -1854 0
-1979 1769 1974 0
-1980 1981 1983 0
1980 -1981 0
1980 -1983 0
1981 -8294 1982 0
1981 8294 -1982 0
-1981 8294 1982 0
-1981 -8294 -1982 0
-1982 1779 -1764 0
-1982 1778 1764 1975 0
-1982 -1778 1764 -1975 0
1982 -1779 -1764 0
1982 1778 1764 -1975 0
1982 -1778 1764 1975 0
1983 -8295 1984 0
1983 8295 -1984 0
-1983 8295 1984 0
-1983 -8295 -1984 0
-1984 1781 -1764 0
-1984 1780 1764 1985 0
-1984 -1780 1764 -1985 0
1984 -1781 -1764 0
1984 1780 1764 -1985 0
1984 -1780 1764 1985 0
1985 -1778 1852 0
1985 1852 -1975 0
-1985 -1852 0
-1985 1778 1975 0
-1986 1987 1992 0
1986 -1987 0
1986 -1992 0
-1987 1988 1989 0
1987 -1988 0
1987 -1989 0
-1988 1785 -1764 0
-1988 1785 1976 0
-1988 -1785 1764 -1976 0
1988 -1785 -1764 0
1988 -1785 1976 0
1988 1785 1764 -1976 0
1989 -8291 1990 0
1989 8291 -1990 0
-1989 8291 1990 0
-1989 -8291 -1990 0
-1990 1786 -1764 0
-1990 1786 1991 0
-1990 -1786 1764 -1991 0
1990 -1786 -1764 0
1990 -1786 1991 0
1990 1786 1764 -1991 0
1991 1785 -1976 0
-1991 -1785 0
-1991 1976 0
-1992 1993 1996 0
1992 -1993 0
1992 -1996 0
1993 -8292 1994 0
1993 8292 -1994 0
-1993 8292 1994 0
-1993 -8292 -1994 0
-1994 1790 -1764 0
-1994 1789 1764 1995 0
-1994 -1789 1764 -1995 0
1994 -1790 -1764 0
1994 1789 1764 -1995 0
1994 -1789 1764 1995 0
1995 1784 -1976 0
-1995 -1784 0
-1995 1976 0
1996 -8293 1997 0
1996 8293 -1997 0
-1996 8293 1997 0
-1996 -8293 -1997 0
-1997 1793 -1764 0
-1997 1792 1764 1998 0
-1997 -1792 1764 -1998 0
1997 -1793 -1764 0
1997 1792 1764 -1998 0
1997 -1792 1764 1998 0
1998 -1789 1850 0
1998 1850 -1995 0
-1998 -1850 0
-1998 1789 1995 0
-1999 2000 2010 0
1999 -2000 0
1999 -2010 0
-2000 2001 2005 0
2000 -2001 0
2000 -2005 0
-2001 2002 2003 0
2001 -2002 0
2001 -2003 0
-2002 1818 1798 0
-2002 1798 -1764 0
-2002 -1818 -1798 1764 0
2002 -1798 -1764 0
2002 1818 -1798 0
2002 -1818 1798 1764 0
-2003 1799 -1764 0
-2003 1799 2004 0
-2003 -1799 1764 -2004 0
2003 -1799 -1764 0
2003 -1799 2004 0
2003 1799 1764 -2004 0
2004 -1818 1798 0
-2004 1818 0
-2004 -1798 0
-2005 2006 2008 0
2005 -2006 0
2005 -2008 0
-2006 1802 -1764 0
-2006 1802 2007 0
-2006 -1802 1764 -2007 0
2006 -1802 -1764 0
2006 -1802 2007 0
2006 1802 1764 -2007 0
2007 -1818 1797 0
-2007 1818 0
-2007 -1797 0
-2008 1804 -1764 0
-2008 1804 2009 0
-2008 -1804 1764 -2009 0
2008 -1804 -1764 0
2008 -1804 2009 0
2008 1804 1764 -2009 0
2009 1802 -2007 0
-2009 -1802 0
-2009 2007 0
-2010 2011 2016 0
2010 -2011 0
2010 -2016 0
-2011 2012 2014 0
2011 -2012 0
2011 -2014 0
-2012 1808 -1764 0
-2012 1808 2013 0
-2012 -1808 1764 -2013 0
2012 -1808 -1764 0
2012 -1808 2013 0
2012 1808 1764 -2013 0
2013 -1818 1797 1801 0
-2013 1818 0
-2013 -1797 0
-2013 -1801 0
-2014 1810 -1764 0
-2014 1810 2015 0
-2014 -1810 1764 -2015 0
2014 -1810 -1764 0
2014 -1810 2015 0
2014 1810 1764 -2015 0
2015 1808 -2013 0
-2015 -1808 0
-2015 2013 0
-2016 2017 2019 0
2016 -2017 0
2016 -2019 0
-2017 1813 -1764 0
-2017 1813 2018 0
-2017 -1813 1764 -2018 0
2017 -1813 -1764 0
2017 -1813 2018 0
2017 1813 1764 -2018 0
2018 1807 -2013 0
-2018 -1807 0
-2018 2013 0
-2019 1815 -1764 0
-2019 1815 2020 0
-2019 -1815 1764 -2020 0
2019 -1815 -1764 0
2019 -1815 2020 0
2019 1815 1764 -2020 0
2020 1813 -2018 0
-2020 -1813 0
-2020 2018 0
2021 -1968 2047 2050 0
2021 -2022 2047 2050 0
-2021 -2050 0
-2021 -2047 0
-2021 2022 1968 0
2022 2023 2028 -2033 2046 0
-2022 -2046 0
-2022 -2023 0
-2022 -2028 0
-2022 2033 0
-2023 2024 2026 0
2023 -2024 0
2023 -2026 0
-2024 1820 -1764 0
-2024 1820 2025 0
-2024 -1820 1764 -2025 0
2024 -1820 -1764 0
2024 -1820 2025 0
2024 1820 1764 -2025 0
2025 -1830 1842 0
-2025 1830 0
-2025 -1842 0
-2026 1822 -1764 0
-2026 1822 2027 0
-2026 -1822 1764 -2027 0
2026 -1822 -1764 0
2026 -1822 2027 0
2026 1822 1764 -2027 0
2027 1820 -2025 0
-2027 -1820 0
-2027 2025 0
-2028 2029 2031 0
2028 -2029 0
2028 -2031 0
-2029 1825 -1764 0
-2029 1825 2030 0
-2029 -1825 1764 -2030 0
2029 -1825 -1764 0
2029 -1825 2030 0
2029 1825 1764 -2030 0
2030 1819 -2025 0
-2030 -1819 0
-2030 2025 0
-2031 1827 -1764 0
-2031 1827 2032 0
-2031 -1827 1764 -2032 0
2031 -1827 -1764 0
2031 -1827 2032 0
2031 1827 1764 -2032 0
2032 1825 -2030 0
-2032 -1825 0
-2032 2030 0
-2033 2034 2045 0
2033 -2034 0
2033 -2045 0
-2034 2035 2040 0
2034 -2035 0
2034 -2040 0
-2035 2036 2038 0
2035 -2036 0
2035 -2038 0
-2036 1832 -1764 0
-2036 1764 2037 0
2036 -1832 -1764 0
2036 1764 -2037 0
2037 -1832 0
-2037 1832 0
-2038 1834 -1764 0
-2038 1764 2039 0
2038 -1834 -1764 0
2038 1764 -2039 0
2039 -1834 0
-2039 1834 0
-2040 2041 2043 0
2040 -2041 0
2040 -2043 0
-2041 1837 -1764 0
-2041 1764 2042 0
2041 -1837 -1764 0
2041 1764 -2042 0
2042 -1837 0
-2042 1837 0
-2043 1839 -1764 0
-2043 1764 2044 0
2043 -1839 -1764 0
2043 1764 -2044 0
2044 -1839 0
-2044 1839 0
-2045 2023 2028 0
2045 -2023 0
2045 -2028 0
-2046 2035 2040 0
2046 -2035 0
2046 -2040 0
2047 1969 -2048 0
-2047 -1969 0
-2047 2048 0
-2048 2011 2016 2049 0
2048 -2011 0
2048 -2016 0
2048 -2049 0
-2049 2001 2005 0
2049 -2001 0
2049 -2005 0
-2050 -1971 2051 2058 0
-2050 2051 2056 2058 0
2050 -2058 0
2050 -2051 0
2050 1971 -2056 0
2051 1970 -2052 0
-2051 -1970 0
-2051 2052 0
-2052 -8293 2053 2055 0
-2052 -8293 1997 2053 0
-2052 1997 2053 2055 0
2052 -1997 -2055 0
2052 8293 -2055 0
2052 -2053 0
2052 8293 -1997 0
2053 1992 -2054 0
-2053 -1992 0
-2053 2054 0
-2054 -8291 1988 0
-2054 1988 1990 0
-2054 -8291 1990 0
2054 8291 -1990 0
2054 -1988 -1990 0
2054 8291 -1988 0
2055 8292 -1994 0
-2055 -8292 0
-2055 1994 0
-2056 -8295 1984 0
-2056 1984 2057 0
-2056 -8295 2057 0
2056 -1984 -2057 0
2056 8295 -1984 0
2056 8295 -2057 0
2057 8294 -1982 0
-2057 -8294 0
-2057 1982 0
-2058 -8297 1978 0
-2058 1978 2059 0
-2058 -8297 2059 0
2058 -1978 -2059 0
2058 8297 -1978 0
2058 8297 -2059 0
2059 8296 -1973 0
-2059 -8296 0
-2059 1973 0
-2060 8306 1316 1318 0
2060 -1318 0
2060 -1316 0
2060 -8306 0
-2061 1114 2062 2033 0
2061 -1114 0
2061 -2062 0
2061 -2033 0
-2062 2063 2066 0
2062 -2063 0
2062 -2066 0
-2063 2064 2065 0
2063 -2064 0
2063 -2065 0
-2064 242 0
2064 -242 0
-2065 1860 0
2065 -1860 0
-2066 2067 2068 0
2066 -2067 0
2066 -2068 0
-2067 1862 0
2067 -1862 0
-2068 1863 0
2068 -1863 0
2069 -2060 0
2069 -2070 -2123 0
2069 -2123 -2162 0
-2069 2060 2123 0
-2069 2060 2070 2162 0
-2070 2071 2101 0
2070 -2071 0
2070 -2101 0
-2071 2072 2088 0
2071 -2072 0
2071 -2088 0
-2072 2073 2082 0
2072 -2073 0
2072 -2082 0
-2073 2074 2079 0
2073 -2074 0
2073 -2079 0
2074 -8296 2075 0
2074 8296 -2075 0
-2074 8296 2075 0
-2074 -8296 -2075 0
-2075 1870 -1864 0
-2075 1869 1864 2076 0
-2075 -1869 1864 -2076 0
2075 -1870 -1864 0
2075 1869 1864 -2076 0
2075 -1869 1864 2076 0
2076 -1877 1951 0
2076 1951 -2077 0
-2076 -1951 0
-2076 1877 2077 0
2077 -1883 1948 0
2077 1948 -2078 0
-2077 -1948 0
-2077 1883 2078 0
2078 -1918 1944 0
2078 -1895 1944 0
-2078 -1944 0
-2078 1918 1895 0
2079 -8297 2080 0
2079 8297 -2080 0
-2079 8297 2080 0
-2079 -8297 -2080 0
-2080 1875 -1864 0
-2080 1874 1864 2081 0
-2080 -1874 1864 -2081 0
2080 -1875 -1864 0
2080 1874 1864 -2081 0
2080 -1874 1864 2081 0
2081 -1869 1954 0
2081 1954 -2076 0
-2081 -1954 0
-2081 1869 2076 0
-2082 2083 2085 0
2082 -2083 0
2082 -2085 0
2083 -8294 2084 0
2083 8294 -2084 0
-2083 8294 2084 0
-2083 -8294 -2084 0
-2084 1879 -1864 0
-2084 1878 1864 2077 0
-2084 -1878 1864 -2077 0
2084 -1879 -1864 0
2084 1878 1864 -2077 0
2084 -1878 1864 2077 0
2085 -8295 2086 0
2085 8295 -2086 0
-2085 8295 2086 0
-2085 -8295 -2086 0
-2086 1881 -1864 0
-2086 1880 1864 2087 0
-2086 -1880 1864 -2087 0
2086 -1881 -1864 0
2086 1880 1864 -2087 0
2086 -1880 1864 2087 0
2087 -1878 1952 0
2087 1952 -2077 0
-2087 -1952 0
-2087 1878 2077 0
-2088 2089 2094 0
2088 -2089 0
2088 -2094 0
-2089 2090 2091 0
2089 -2090 0
2089 -2091 0
-2090 1885 -1864 0
-2090 1885 2078 0
-2090 -1885 1864 -2078 0
2090 -1885 -1864 0
2090 -1885 2078 0
2090 1885 1864 -2078 0
2091 -8291 2092 0
2091 8291 -2092 0
-2091 8291 2092 0
-2091 -8291 -2092 0
-2092 1886 -1864 0
-2092 1886 2093 0
-2092 -1886 1864 -2093 0
2092 -1886 -1864 0
2092 -1886 2093 0
2092 1886 1864 -2093 0
2093 1885 -2078 0
-2093 -1885 0
-2093 2078 0
-2094 2095 2098 0
2094 -2095 0
2094 -2098 0
2095 -8292 2096 0
2095 8292 -2096 0
-2095 8292 2096 0
-2095 -8292 -2096 0
-2096 1890 -1864 0
-2096 1889 1864 2097 0
-2096 -1889 1864 -2097 0
2096 -1890 -1864 0
2096 1889 1864 -2097 0
2096 -1889 1864 2097 0
2097 1884 -2078 0
-2097 -1884 0
-2097 2078 0
2098 -8293 2099 0
2098 8293 -2099 0
-2098 8293 2099 0
-2098 -8293 -2099 0
-2099 1893 -1864 0
-2099 1892 1864 2100 0
-2099 -1892 1864 -2100 0
2099 -1893 -1864 0
2099 1892 1864 -2100 0
2099 -1892 1864 2100 0
2100 -1889 1950 0
2100 1950 -2097 0
-2100 -1950 0
-2100 1889 2097 0
-2101 2102 2112 0
2101 -2102 0
2101 -2112 0
-2102 2103 2107 0
2102 -2103 0
2102 -2107 0
-2103 2104 2105 0
2103 -2104 0
2103 -2105 0
-2104 1918 1898 0
-2104 1898 -1864 0
-2104 -1918 -1898 1864 0
2104 -1898 -1864 0
2104 1918 -1898 0
2104 -1918 1898 1864 0
-2105 1899 -1864 0
-2105 1899 2106 0
-2105 -1899 1864 -2106 0
2105 -1899 -1864 0
2105 -1899 2106 0
2105 1899 1864 -2106 0
2106 -1918 1898 0
-2106 1918 0
-2106 -1898 0
-2107 2108 2110 0
2107 -2108 0
2107 -2110 0
-2108 1902 -1864 0
-2108 1902 2109 0
-2108 -1902 1864 -2109 0
2108 -1902 -1864 0
2108 -1902 2109 0
2108 1902 1864 -2109 0
2109 -1918 1897 0
-2109 1918 0
-2109 -1897 0
-2110 1904 -1864 0
-2110 1904 2111 0
-2110 -1904 1864 -2111 0
2110 -1904 -1864 0
2110 -1904 2111 0
2110 1904 1864 -2111 0
2111 1902 -2109 0
-2111 -1902 0
-2111 2109 0
-2112 2113 2118 0
2112 -2113 0
2112 -2118 0
-2113 2114 2116 0
2113 -2114 0
2113 -2116 0
-2114 1908 -1864 0
-2114 1908 2115 0
-2114 -1908 1864 -2115 0
2114 -1908 -1864 0
2114 -1908 2115 0
2114 1908 1864 -2115 0
2115 -1918 1897 1901 0
-2115 1918 0
-2115 -1897 0
-2115 -1901 0
-2116 1910 -1864 0
-2116 1910 2117 0
-2116 -1910 1864 -2117 0
2116 -1910 -1864 0
2116 -1910 2117 0
2116 1910 1864 -2117 0
2117 1908 -2115 0
-2117 -1908 0
-2117 2115 0
-2118 2119 2121 0
2118 -2119 0
2118 -2121 0
-2119 1913 -1864 0
-2119 1913 2120 0
-2119 -1913 1864 -2120 0
2119 -1913 -1864 0
2119 -1913 2120 0
2119 1913 1864 -2120 0
2120 1907 -2115 0
-2120 -1907 0
-2120 2115 0
-2121 1915 -1864 0
-2121 1915 2122 0
-2121 -1915 1864 -2122 0
2121 -1915 -1864 0
2121 -1915 2122 0
2121 1915 1864 -2122 0
2122 1913 -2120 0
-2122 -1913 0
-2122 2120 0
2123 -2070 2149 2152 0
2123 -2124 2149 2152 0
-2123 -2152 0
-2123 -2149 0
-2123 2124 2070 0
2124 2125 2130 -2135 2148 0
-2124 -2148 0
-2124 -2125 0
-2124 -2130 0
-2124 2135 0
-2125 2126 2128 0
2125 -2126 0
2125 -2128 0
-2126 1920 -1864 0
-2126 1920 2127 0
-2126 -1920 1864 -2127 0
2126 -1920 -1864 0
2126 -1920 2127 0
2126 1920 1864 -2127 0
2127 -1930 1942 0
-2127 1930 0
-2127 -1942 0
-2128 1922 -1864 0
-2128 1922 2129 0
-2128 -1922 1864 -2129 0
2128 -1922 -1864 0
2128 -1922 2129 0
2128 1922 1864 -2129 0
2129 1920 -2127 0
-2129 -1920 0
-2129 2127 0
-2130 2131 2133 0
2130 -2131 0
2130 -2133 0
-2131 1925 -1864 0
-2131 1925 2132 0
-2131 -1925 1864 -2132 0
2131 -1925 -1864 0
2131 -1925 2132 0
2131 1925 1864 -2132 0
2132 1919 -2127 0
-2132 -1919 0
-2132 2127 0
-2133 1927 -1864 0
-2133 1927 2134 0
-2133 -1927 1864 -2134 0
2133 -1927 -1864 0
2133 -1927 2134 0
2133 1927 1864 -2134 0
2134 1925 -2132 0
-2134 -1925 0
-2134 2132 0
-2135 2136 2147 0
2135 -2136 0
2135 -2147 0
-2136 2137 2142 0
2136 -2137 0
2136 -2142 0
-2137 2138 2140 0
2137 -2138 0
2137 -2140 0
-2138 1932 -1864 0
-2138 1864 2139 0
2138 -1932 -1864 0
2138 1864 -2139 0
2139 -1932 0
-2139 1932 0
-2140 1934 -1864 0
-2140 1864 2141 0
2140 -1934 -1864 0
2140 1864 -2141 0
2141 -1934 0
-2141 1934 0
-2142 2143 2145 0
2142 -2143 0
2142 -2145 0
-2143 1937 -1864 0
-2143 1864 2144 0
2143 -1937 -1864 0
2143 1864 -2144 0
2144 -1937 0
-2144 1937 0
-2145 1939 -1864 0
-2145 1864 2146 0
2145 -1939 -1864 0
2145 1864 -2146 0
2146 -1939 0
-2146 1939 0
-2147 2125 2130 0
2147 -2125 0
2147 -2130 0
-2148 2137 2142 0
2148 -2137 0
2148 -2142 0
2149 2071 -2150 0
-2149 -2071 0
-2149 2150 0
-2150 2113 2118 2151 0
2150 -2113 0
2150 -2118 0
2150 -2151 0
-2151 2103 2107 0
2151 -2103 0
2151 -2107 0
-2152 -2073 2153 2160 0
-2152 2153 2158 2160 0
2152 -2160 0
2152 -2153 0
2152 2073 -2158 0
2153 2072 -2154 0
-2153 -2072 0
-2153 2154 0
-2154 -8293 2155 2157 0
-2154 -8293 2099 2155 0
-2154 2099 2155 2157 0
2154 -2099 -2157 0
2154 8293 -2157 0
2154 -2155 0
2154 8293 -2099 0
2155 2094 -2156 0
-2155 -2094 0
-2155 2156 0
-2156 -8291 2090 0
-2156 2090 2092 0
-2156 -8291 2092 0
2156 8291 -2092 0
2156 -2090 -2092 0
2156 8291 -2090 0
2157 8292 -2096 0
-2157 -8292 0
-2157 2096 0
-2158 -8295 2086 0
-2158 2086 2159 0
-2158 -8295 2159 0
2158 -2086 -2159 0
2158 8295 -2086 0
2158 8295 -2159 0
2159 8294 -2084 0
-2159 -8294 0
-2159 2084 0
-2160 -8297 2080 0
-2160 2080 2161 0
-2160 -8297 2161 0
2160 -2080 -2161 0
2160 8297 -2080 0
2160 8297 -2161 0
2161 8296 -2075 0
-2161 -8296 0
-2161 2075 0
-2162 1761 2163 2135 0
2162 -1761 0
2162 -2163 0
2162 -2135 0
-2163 2164 2166 0
2163 -2164 0
2163 -2166 0
-2164 2165 1958 0
2164 -2165 0
2164 -1958 0
-2165 1754 0
2165 -1754 0
-2166 2167 2168 0
2166 -2167 0
2166 -2168 0
-2167 1961 0
2167 -1961 0
-2168 1962 0
2168 -1962 0
2169 -1116 -1162 0
2169 1115 -1162 2170 0
-2169 1162 0
-2169 -1115 1116 0
-2169 1116 -2170 0
2170 1092 -2171 0
2170 254 303 -1092 0
2170 -254 -303 -1092 0
-2170 1092 2171 0
-2170 -254 303 -1092 0
-2170 254 -303 -1092 0
2171 -2266 0
2171 -2226 -2267 0
2171 -2172 -2226 0
-2171 2226 2266 0
-2171 2172 2266 2267 0
-2172 2173 2204 0
2172 -2173 0
2172 -2204 0
-2173 2174 2190 0
2173 -2174 0
2173 -2190 0
-2174 2175 2184 0
2174 -2175 0
2174 -2184 0
-2175 2176 2181 0
2175 -2176 0
2175 -2181 0
2176 -8297 2177 0
2176 8297 -2177 0
-2176 8297 2177 0
-2176 -8297 -2177 0
-2177 1973 -1967 0
-2177 1972 1967 2178 0
-2177 -1972 1967 -2178 0
2177 -1973 -1967 0
2177 1972 1967 -2178 0
2177 -1972 1967 2178 0
2178 -1980 2056 0
2178 2056 -2179 0
-2178 -2056 0
-2178 1980 2179 0
2179 -1986 2052 0
2179 2052 -2180 0
-2179 -2052 0
-2179 1986 2180 0
2180 -2022 2048 0
2180 -1999 2048 0
-2180 -2048 0
-2180 2022 1999 0
2181 -8298 2182 0
2181 8298 -2182 0
-2181 8298 2182 0
-2181 -8298 -2182 0
-2182 1978 -1967 0
-2182 1977 1967 2183 0
-2182 -1977 1967 -2183 0
2182 -1978 -1967 0
2182 1977 1967 -2183 0
2182 -1977 1967 2183 0
2183 -1972 2059 0
2183 2059 -2178 0
-2183 -2059 0
-2183 1972 2178 0
-2184 2185 2187 0
2184 -2185 0
2184 -2187 0
2185 -8295 2186 0
2185 8295 -2186 0
-2185 8295 2186 0
-2185 -8295 -2186 0
-2186 1982 -1967 0
-2186 1981 1967 2179 0
-2186 -1981 1967 -2179 0
2186 -1982 -1967 0
2186 1981 1967 -2179 0
2186 -1981 1967 2179 0
2187 -8296 2188 0
2187 8296 -2188 0
-2187 8296 2188 0
-2187 -8296 -2188 0
-2188 1984 -1967 0
-2188 1983 1967 2189 0
-2188 -1983 1967 -2189 0
2188 -1984 -1967 0
2188 1983 1967 -2189 0
2188 -1983 1967 2189 0
2189 -1981 2057 0
2189 2057 -2179 0
-2189 -2057 0
-2189 1981 2179 0
-2190 2191 2197 0
2190 -2191 0
2190 -2197 0
-2191 2192 2194 0
2191 -2192 0
2191 -2194 0
2192 -8291 2193 0
2192 8291 -2193 0
-2192 8291 2193 0
-2192 -8291 -2193 0
-2193 1988 -1967 0
-2193 1988 2180 0
-2193 -1988 1967 -2180 0
2193 -1988 -1967 0
2193 -1988 2180 0
2193 1988 1967 -2180 0
2194 -8292 2195 0
2194 8292 -2195 0
-2194 8292 2195 0
-2194 -8292 -2195 0
-2195 1990 -1967 0
-2195 1989 1967 2196 0
-2195 -1989 1967 -2196 0
2195 -1990 -1967 0
2195 1989 1967 -2196 0
2195 -1989 1967 2196 0
2196 1988 -2180 0
-2196 -1988 0
-2196 2180 0
-2197 2198 2201 0
2197 -2198 0
2197 -2201 0
2198 -8293 2199 0
2198 8293 -2199 0
-2198 8293 2199 0
-2198 -8293 -2199 0
-2199 1994 -1967 0
-2199 1993 1967 2200 0
-2199 -1993 1967 -2200 0
2199 -1994 -1967 0
2199 1993 1967 -2200 0
2199 -1993 1967 2200 0
2200 -1987 2054 0
2200 2054 -2180 0
-2200 -2054 0
-2200 1987 2180 0
2201 -8294 2202 0
2201 8294 -2202 0
-2201 8294 2202 0
-2201 -8294 -2202 0
-2202 1997 -1967 0
-2202 1996 1967 2203 0
-2202 -1996 1967 -2203 0
2202 -1997 -1967 0
2202 1996 1967 -2203 0
2202 -1996 1967 2203 0
2203 -1993 2055 0
2203 2055 -2200 0
-2203 -2055 0
-2203 1993 2200 0
-2204 2205 2215 0
2204 -2205 0
2204 -2215 0
-2205 2206 2210 0
2205 -2206 0
2205 -2210 0
-2206 2207 2208 0
2206 -2207 0
2206 -2208 0
-2207 2022 2002 0
-2207 2002 -1967 0
-2207 -2022 -2002 1967 0
2207 -2002 -1967 0
2207 2022 -2002 0
2207 -2022 2002 1967 0
-2208 2003 -1967 0
-2208 2003 2209 0
-2208 -2003 1967 -2209 0
2208 -2003 -1967 0
2208 -2003 2209 0
2208 2003 1967 -2209 0
2209 -2022 2002 0
-2209 2022 0
-2209 -2002 0
-2210 2211 2213 0
2210 -2211 0
2210 -2213 0
-2211 2006 -1967 0
-2211 2006 2212 0
-2211 -2006 1967 -2212 0
2211 -2006 -1967 0
2211 -2006 2212 0
2211 2006 1967 -2212 0
2212 -2022 2001 0
-2212 2022 0
-2212 -2001 0
-2213 2008 -1967 0
-2213 2008 2214 0
-2213 -2008 1967 -2214 0
2213 -2008 -1967 0
2213 -2008 2214 0
2213 2008 1967 -2214 0
2214 2006 -2212 0
-2214 -2006 0
-2214 2212 0
-2215 2216 2221 0
2215 -2216 0
2215 -2221 0
-2216 2217 2219 0
2216 -2217 0
2216 -2219 0
-2217 2012 -1967 0
-2217 2012 2218 0
-2217 -2012 1967 -2218 0
2217 -2012 -1967 0
2217 -2012 2218 0
2217 2012 1967 -2218 0
2218 -2022 2001 2005 0
-2218 2022 0
-2218 -2001 0
-2218 -2005 0
-2219 2014 -1967 0
-2219 2014 2220 0
-2219 -2014 1967 -2220 0
2219 -2014 -1967 0
2219 -2014 2220 0
2219 2014 1967 -2220 0
2220 2012 -2218 0
-2220 -2012 0
-2220 2218 0
-2221 2222 2224 0
2221 -2222 0
2221 -2224 0
-2222 2017 -1967 0
-2222 2017 2223 0
-2222 -2017 1967 -2223 0
2222 -2017 -1967 0
2222 -2017 2223 0
2222 2017 1967 -2223 0
2223 2011 -2218 0
-2223 -2011 0
-2223 2218 0
-2224 2019 -1967 0
-2224 2019 2225 0
-2224 -2019 1967 -2225 0
2224 -2019 -1967 0
2224 -2019 2225 0
2224 2019 1967 -2225 0
2225 2017 -2223 0
-2225 -2017 0
-2225 2223 0
2226 -2172 2252 2255 0
2226 -2227 2252 2255 0
-2226 -2255 0
-2226 -2252 0
-2226 2227 2172 0
2227 2228 2233 -2238 2251 0
-2227 -2251 0
-2227 -2228 0
-2227 -2233 0
-2227 2238 0
-2228 2229 2231 0
2228 -2229 0
2228 -2231 0
-2229 2024 -1967 0
-2229 2024 2230 0
-2229 -2024 1967 -2230 0
2229 -2024 -1967 0
2229 -2024 2230 0
2229 2024 1967 -2230 0
2230 -2034 2046 0
-2230 2034 0
-2230 -2046 0
-2231 2026 -1967 0
-2231 2026 2232 0
-2231 -2026 1967 -2232 0
2231 -2026 -1967 0
2231 -2026 2232 0
2231 2026 1967 -2232 0
2232 2024 -2230 0
-2232 -2024 0
-2232 2230 0
-2233 2234 2236 0
2233 -2234 0
2233 -2236 0
-2234 2029 -1967 0
-2234 2029 2235 0
-2234 -2029 1967 -2235 0
2234 -2029 -1967 0
2234 -2029 2235 0
2234 2029 1967 -2235 0
2235 2023 -2230 0
-2235 -2023 0
-2235 2230 0
-2236 2031 -1967 0
-2236 2031 2237 0
-2236 -2031 1967 -2237 0
2236 -2031 -1967 0
2236 -2031 2237 0
2236 2031 1967 -2237 0
2237 2029 -2235 0
-2237 -2029 0
-2237 2235 0
-2238 2239 2250 0
2238 -2239 0
2238 -2250 0
-2239 2240 2245 0
2239 -2240 0
2239 -2245 0
-2240 2241 2243 0
2240 -2241 0
2240 -2243 0
-2241 2036 -1967 0
-2241 1967 2242 0
2241 -2036 -1967 0
2241 1967 -2242 0
2242 -2036 0
-2242 2036 0
-2243 2038 -1967 0
-2243 1967 2244 0
2243 -2038 -1967 0
2243 1967 -2244 0
2244 -2038 0
-2244 2038 0
-2245 2246 2248 0
2245 -2246 0
2245 -2248 0
-2246 2041 -1967 0
-2246 1967 2247 0
2246 -2041 -1967 0
2246 1967 -2247 0
2247 -2041 0
-2247 2041 0
-2248 2043 -1967 0
-2248 1967 2249 0
2248 -2043 -1967 0
2248 1967 -2249 0
2249 -2043 0
-2249 2043 0
-2250 2228 2233 0
2250 -2228 0
2250 -2233 0
-2251 2240 2245 0
2251 -2240 0
2251 -2245 0
2252 2173 -2253 0
-2252 -2173 0
-2252 2253 0
-2253 2216 2221 2254 0
2253 -2216 0
2253 -2221 0
2253 -2254 0
-2254 2206 2210 0
2254 -2206 0
2254 -2210 0
-2255 -2175 2256 2264 0
-2255 2256 2262 2264 0
2255 -2264 0
2255 -2256 0
2255 2175 -2262 0
2256 2174 -2257 0
-2256 -2174 0
-2256 2257 0
-2257 -8294 2258 2261 0
-2257 -8294 2202 2258 0
-2257 2202 2258 2261 0
2257 -2202 -2261 0
2257 8294 -2261 0
2257 -2258 0
2257 8294 -2202 0
2258 2197 -2259 0
-2258 -2197 0
-2258 2259 0
-2259 -8292 2195 0
-2259 2195 2260 0
-2259 -8292 2260 0
2259 -2195 -2260 0
2259 8292 -2195 0
2259 8292 -2260 0
2260 8291 -2193 0
-2260 -8291 0
-2260 2193 0
2261 8293 -2199 0
-2261 -8293 0
-2261 2199 0
-2262 -8296 2188 0
-2262 2188 2263 0
-2262 -8296 2263 0
2262 -2188 -2263 0
2262 8296 -2188 0
2262 8296 -2263 0
2263 8295 -2186 0
-2263 -8295 0
-2263 2186 0
-2264 -8298 2182 0
-2264 2182 2265 0
-2264 -8298 2265 0
2264 -2182 -2265 0
2264 8298 -2182 0
2264 8298 -2265 0
2265 8297 -2177 0
-2265 -8297 0
-2265 2177 0
-2266 1462 1463 0
2266 -1462 0
2266 -1463 0
-2267 2268 2238 2277 0
2267 -2268 0
2267 -2238 0
2267 -2277 0
-2268 2269 2274 0
2268 -2269 0
2268 -2274 0
-2269 2270 2272 0
2269 -2270 0
2269 -2272 0
-2270 2271 0
2270 -2271 0
-2271 1859 0
2271 -1859 0
-2272 2273 0
2272 -2273 0
-2273 2065 0
2273 -2065 0
-2274 2275 2276 0
2274 -2275 0
2274 -2276 0
-2275 2067 0
2275 -2067 0
-2276 2068 0
2276 -2068 0
-2277 292 342 391 444 0
2277 -444 0
2277 -292 0
2277 -391 0
2277 -342 0
2278 -2266 0
2278 -2279 -2333 0
2278 -2333 -2373 0
-2278 2266 2333 0
-2278 2266 2279 2373 0
-2279 2280 2311 0
2279 -2280 0
2279 -2311 0
-2280 2281 2297 0
2280 -2281 0
2280 -2297 0
-2281 2282 2291 0
2281 -2282 0
2281 -2291 0
-2282 2283 2288 0
2282 -2283 0
2282 -2288 0
2283 -8297 2284 0
2283 8297 -2284 0
-2283 8297 2284 0
-2283 -8297 -2284 0
-2284 2075 -2069 0
-2284 2074 2069 2285 0
-2284 -2074 2069 -2285 0
2284 -2075 -2069 0
2284 2074 2069 -2285 0
2284 -2074 2069 2285 0
2285 -2082 2158 0
2285 2158 -2286 0
-2285 -2158 0
-2285 2082 2286 0
2286 -2088 2154 0
2286 2154 -2287 0
-2286 -2154 0
-2286 2088 2287 0
2287 -2124 2150 0
2287 -2101 2150 0
-2287 -2150 0
-2287 2124 2101 0
2288 -8298 2289 0
2288 8298 -2289 0
-2288 8298 2289 0
-2288 -8298 -2289 0
-2289 2080 -2069 0
-2289 2079 2069 2290 0
-2289 -2079 2069 -2290 0
2289 -2080 -2069 0
2289 2079 2069 -2290 0
2289 -2079 2069 2290 0
2290 -2074 2161 0
2290 2161 -2285 0
-2290 -2161 0
-2290 2074 2285 0
-2291 2292 2294 0
2291 -2292 0
2291 -2294 0
2292 -8295 2293 0
2292 8295 -2293 0
-2292 8295 2293 0
-2292 -8295 -2293 0
-2293 2084 -2069 0
-2293 2083 2069 2286 0
-2293 -2083 2069 -2286 0
2293 -2084 -2069 0
2293 2083 2069 -2286 0
2293 -2083 2069 2286 0
2294 -8296 2295 0
2294 8296 -2295 0
-2294 8296 2295 0
-2294 -8296 -2295 0
-2295 2086 -2069 0
-2295 2085 2069 2296 0
-2295 -2085 2069 -2296 0
2295 -2086 -2069 0
2295 2085 2069 -2296 0
2295 -2085 2069 2296 0
2296 -2083 2159 0
2296 2159 -2286 0
-2296 -2159 0
-2296 2083 2286 0
-2297 2298 2304 0
2297 -2298 0
2297 -2304 0
-2298 2299 2301 0
2298 -2299 0
2298 -2301 0
2299 -8291 2300 0
2299 8291 -2300 0
-2299 8291 2300 0
-2299 -8291 -2300 0
-2300 2090 -2069 0
-2300 2090 2287 0
-2300 -2090 2069 -2287 0
2300 -2090 -2069 0
2300 -2090 2287 0
2300 2090 2069 -2287 0
2301 -8292 2302 0
2301 8292 -2302 0
-2301 8292 2302 0
-2301 -8292 -2302 0
-2302 2092 -2069 0
-2302 2091 2069 2303 0
-2302 -2091 2069 -2303 0
2302 -2092 -2069 0
2302 2091 2069 -2303 0
2302 -2091 2069 2303 0
2303 2090 -2287 0
-2303 -2090 0
-2303 2287 0
-2304 2305 2308 0
2304 -2305 0
2304 -2308 0
2305 -8293 2306 0
2305 8293 -2306 0
-2305 8293 2306 0
-2305 -8293 -2306 0
-2306 2096 -2069 0
-2306 2095 2069 2307 0
-2306 -2095 2069 -2307 0
2306 -2096 -2069 0
2306 2095 2069 -2307 0
2306 -2095 2069 2307 0
2307 -2089 2156 0
2307 2156 -2287 0
-2307 -2156 0
-2307 2089 2287 0
2308 -8294 2309 0
2308 8294 -2309 0
-2308 8294 2309 0
-2308 -8294 -2309 0
-2309 2099 -2069 0
-2309 2098 2069 2310 0
-2309 -2098 2069 -2310 0
2309 -2099 -2069 0
2309 2098 2069 -2310 0
2309 -2098 2069 2310 0
2310 -2095 2157 0
2310 2157 -2307 0
-2310 -2157 0
-2310 2095 2307 0
-2311 2312 2322 0
2311 -2312 0
2311 -2322 0
-2312 2313 2317 0
2312 -2313 0
2312 -2317 0
-2313 2314 2315 0
2313 -2314 0
2313 -2315 0
-2314 2124 2104 0
-2314 2104 -2069 0
-2314 -2124 -2104 2069 0
2314 -2104 -2069 0
2314 2124 -2104 0
2314 -2124 2104 2069 0
-2315 2105 -2069 0
-2315 2105 2316 0
-2315 -2105 2069 -2316 0
2315 -2105 -2069 0
2315 -2105 2316 0
2315 2105 2069 -2316 0
2316 -2124 2104 0
-2316 2124 0
-2316 -2104 0
-2317 2318 2320 0
2317 -2318 0
2317 -2320 0
-2318 2108 -2069 0
-2318 2108 2319 0
-2318 -2108 2069 -2319 0
2318 -2108 -2069 0
2318 -2108 2319 0
2318 2108 2069 -2319 0
2319 -2124 2103 0
-2319 2124 0
-2319 -2103 0
-2320 2110 -2069 0
-2320 2110 2321 0
-2320 -2110 2069 -2321 0
2320 -2110 -2069 0
2320 -2110 2321 0
2320 2110 2069 -2321 0
2321 2108 -2319 0
-2321 -2108 0
-2321 2319 0
-2322 2323 2328 0
2322 -2323 0
2322 -2328 0
-2323 2324 2326 0
2323 -2324 0
2323 -2326 0
-2324 2114 -2069 0
-2324 2114 2325 0
-2324 -2114 2069 -2325 0
2324 -2114 -2069 0
2324 -2114 2325 0
2324 2114 2069 -2325 0
2325 -2124 2103 2107 0
-2325 2124 0
-2325 -2103 0
-2325 -2107 0
-2326 2116 -2069 0
-2326 2116 2327 0
-2326 -2116 2069 -2327 0
2326 -2116 -2069 0
2326 -2116 2327 0
2326 2116 2069 -2327 0
2327 2114 -2325 0
-2327 -2114 0
-2327 2325 0
-2328 2329 2331 0
2328 -2329 0
2328 -2331 0
-2329 2119 -2069 0
-2329 2119 2330 0
-2329 -2119 2069 -2330 0
2329 -2119 -2069 0
2329 -2119 2330 0
2329 2119 2069 -2330 0
2330 2113 -2325 0
-2330 -2113 0
-2330 2325 0
-2331 2121 -2069 0
-2331 2121 2332 0
-2331 -2121 2069 -2332 0
2331 -2121 -2069 0
2331 -2121 2332 0
2331 2121 2069 -2332 0
2332 2119 -2330 0
-2332 -2119 0
-2332 2330 0
2333 -2279 2359 2362 0
2333 -2334 2359 2362 0
-2333 -2362 0
-2333 -2359 0
-2333 2334 2279 0
2334 2335 2340 -2345 2358 0
-2334 -2358 0
-2334 -2335 0
-2334 -2340 0
-2334 2345 0
-2335 2336 2338 0
2335 -2336 0
2335 -2338 0
-2336 2126 -2069 0
-2336 2126 2337 0
-2336 -2126 2069 -2337 0
2336 -2126 -2069 0
2336 -2126 2337 0
2336 2126 2069 -2337 0
2337 -2136 2148 0
-2337 2136 0
-2337 -2148 0
-2338 2128 -2069 0
-2338 2128 2339 0
-2338 -2128 2069 -2339 0
2338 -2128 -2069 0
2338 -2128 2339 0
2338 2128 2069 -2339 0
2339 2126 -2337 0
-2339 -2126 0
-2339 2337 0
-2340 2341 2343 0
2340 -2341 0
2340 -2343 0
-2341 2131 -2069 0
-2341 2131 2342 0
-2341 -2131 2069 -2342 0
2341 -2131 -2069 0
2341 -2131 2342 0
2341 2131 2069 -2342 0
2342 2125 -2337 0
-2342 -2125 0
-2342 2337 0
-2343 2133 -2069 0
-2343 2133 2344 0
-2343 -2133 2069 -2344 0
2343 -2133 -2069 0
2343 -2133 2344 0
2343 2133 2069 -2344 0
2344 2131 -2342 0
-2344 -2131 0
-2344 2342 0
-2345 2346 2357 0
2345 -2346 0
2345 -2357 0
-2346 2347 2352 0
2346 -2347 0
2346 -2352 0
-2347 2348 2350 0
2347 -2348 0
2347 -2350 0
-2348 2138 -2069 0
-2348 2069 2349 0
2348 -2138 -2069 0
2348 2069 -2349 0
2349 -2138 0
-2349 2138 0
-2350 2140 -2069 0
-2350 2069 2351 0
2350 -2140 -2069 0
2350 2069 -2351 0
2351 -2140 0
-2351 2140 0
-2352 2353 2355 0
2352 -2353 0
2352 -2355 0
-2353 2143 -2069 0
-2353 2069 2354 0
2353 -2143 -2069 0
2353 2069 -2354 0
2354 -2143 0
-2354 2143 0
-2355 2145 -2069 0
-2355 2069 2356 0
2355 -2145 -2069 0
2355 2069 -2356 0
2356 -2145 0
-2356 2145 0
-2357 2335 2340 0
2357 -2335 0
2357 -2340 0
-2358 2347 2352 0
2358 -2347 0
2358 -2352 0
2359 2280 -2360 0
-2359 -2280 0
-2359 2360 0
-2360 2323 2328 2361 0
2360 -2323 0
2360 -2328 0
2360 -2361 0
-2361 2313 2317 0
2361 -2313 0
2361 -2317 0
-2362 -2282 2363 2371 0
-2362 2363 2369 2371 0
2362 -2371 0
2362 -2363 0
2362 2282 -2369 0
2363 2281 -2364 0
-2363 -2281 0
-2363 2364 0
-2364 -8294 2365 2368 0
-2364 -8294 2309 2365 0
-2364 2309 2365 2368 0
2364 -2309 -2368 0
2364 8294 -2368 0
2364 -2365 0
2364 8294 -2309 0
2365 2304 -2366 0
-2365 -2304 0
-2365 2366 0
-2366 -8292 2302 0
-2366 2302 2367 0
-2366 -8292 2367 0
2366 -2302 -2367 0
2366 8292 -2302 0
2366 8292 -2367 0
2367 8291 -2300 0
-2367 -8291 0
-2367 2300 0
2368 8293 -2306 0
-2368 -8293 0
-2368 2306 0
-2369 -8296 2295 0
-2369 2295 2370 0
-2369 -8296 2370 0
2369 -2295 -2370 0
2369 8296 -2295 0
2369 8296 -2370 0
2370 8295 -2293 0
-2370 -8295 0
-2370 2293 0
-2371 -8298 2289 0
-2371 2289 2372 0
-2371 -8298 2372 0
2371 -2289 -2372 0
2371 8298 -2289 0
2371 8298 -2372 0
2372 8297 -2284 0
-2372 -8297 0
-2372 2284 0
-2373 1761 2374 2345 0
2373 -1761 0
2373 -2374 0
2373 -2345 0
-2374 2375 2378 0
2374 -2375 0
2374 -2378 0
-2375 2376 2377 0
2375 -2376 0
2375 -2377 0
-2376 1754 0
2376 -1754 0
-2377 1958 0
2377 -1958 0
-2378 2379 2380 0
2378 -2379 0
2378 -2380 0
-2379 2167 0
2379 -2167 0
-2380 2168 0
2380 -2168 0
2381 -2382 -2830 -3288 -3762 0
-2381 3762 0
-2381 2382 0
-2381 3288 0
-2381 2830 0
2382 -2383 2495 -2611 2721 0
2382 2383 -2495 2611 -2721 0
2382 -2383 2495 2611 -2721 0
2382 2383 -2495 -2611 2721 0
-2382 -2383 -2495 0
-2382 2383 2495 0
-2382 2611 2721 0
-2382 -2611 -2721 0
2383 -1116 -1162 0
2383 1115 -1162 2384 0
-2383 1162 0
-2383 -1115 1116 0
-2383 1116 -2384 0
2384 1092 -2388 0
2384 -306 -1092 -2385 0
2384 306 -1092 2385 0
-2384 1092 2388 0
-2384 -306 -1092 2385 0
-2384 306 -1092 -2385 0
-2385 354 1065 0
-2385 1065 2386 0
2385 -1065 0
2385 -354 -2386 0
-2386 403 1062 0
-2386 1062 2387 0
2386 -1062 0
2386 -403 -2387 0
-2387 714 1057 0
-2387 511 1057 0
2387 -1057 0
2387 -511 -714 0
2388 -1107 0
2388 -2389 -2444 0
2388 -2444 -2485 0
-2388 1107 2444 0
-2388 1107 2389 2485 0
-2389 2390 2421 0
2389 -2390 0
2389 -2421 0
-2390 2391 2407 0
2390 -2391 0
2390 -2407 0
-2391 2392 2401 0
2391 -2392 0
2391 -2401 0
-2392 2393 2398 0
2392 -2393 0
2392 -2398 0
2393 -8298 2394 0
2393 8298 -2394 0
-2393 8298 2394 0
-2393 -8298 -2394 0
-2394 2177 -2171 0
-2394 2176 2171 2395 0
-2394 -2176 2171 -2395 0
2394 -2177 -2171 0
2394 2176 2171 -2395 0
2394 -2176 2171 2395 0
2395 -2184 2262 0
2395 2262 -2396 0
-2395 -2262 0
-2395 2184 2396 0
2396 -2190 2257 0
2396 2257 -2397 0
-2396 -2257 0
-2396 2190 2397 0
2397 -2227 2253 0
2397 -2204 2253 0
-2397 -2253 0
-2397 2227 2204 0
2398 -8299 2399 0
2398 8299 -2399 0
-2398 8299 2399 0
-2398 -8299 -2399 0
-2399 2182 -2171 0
-2399 2181 2171 2400 0
-2399 -2181 2171 -2400 0
2399 -2182 -2171 0
2399 2181 2171 -2400 0
2399 -2181 2171 2400 0
2400 -2176 2265 0
2400 2265 -2395 0
-2400 -2265 0
-2400 2176 2395 0
-2401 2402 2404 0
2401 -2402 0
2401 -2404 0
2402 -8296 2403 0
2402 8296 -2403 0
-2402 8296 2403 0
-2402 -8296 -2403 0
-2403 2186 -2171 0
-2403 2185 2171 2396 0
-2403 -2185 2171 -2396 0
2403 -2186 -2171 0
2403 2185 2171 -2396 0
2403 -2185 2171 2396 0
2404 -8297 2405 0
2404 8297 -2405 0
-2404 8297 2405 0
-2404 -8297 -2405 0
-2405 2188 -2171 0
-2405 2187 2171 2406 0
-2405 -2187 2171 -2406 0
2405 -2188 -2171 0
2405 2187 2171 -2406 0
2405 -2187 2171 2406 0
2406 -2185 2263 0
2406 2263 -2396 0
-2406 -2263 0
-2406 2185 2396 0
-2407 2408 2414 0
2407 -2408 0
2407 -2414 0
-2408 2409 2411 0
2408 -2409 0
2408 -2411 0
2409 -8292 2410 0
2409 8292 -2410 0
-2409 8292 2410 0
-2409 -8292 -2410 0
-2410 2193 -2171 0
-2410 2192 2171 2397 0
-2410 -2192 2171 -2397 0
2410 -2193 -2171 0
2410 2192 2171 -2397 0
2410 -2192 2171 2397 0
2411 -8293 2412 0
2411 8293 -2412 0
-2411 8293 2412 0
-2411 -8293 -2412 0
-2412 2195 -2171 0
-2412 2194 2171 2413 0
-2412 -2194 2171 -2413 0
2412 -2195 -2171 0
2412 2194 2171 -2413 0
2412 -2194 2171 2413 0
2413 -2192 2260 0
2413 2260 -2397 0
-2413 -2260 0
-2413 2192 2397 0
-2414 2415 2418 0
2414 -2415 0
2414 -2418 0
2415 -8294 2416 0
2415 8294 -2416 0
-2415 8294 2416 0
-2415 -8294 -2416 0
-2416 2199 -2171 0
-2416 2198 2171 2417 0
-2416 -2198 2171 -2417 0
2416 -2199 -2171 0
2416 2198 2171 -2417 0
2416 -2198 2171 2417 0
2417 -2191 2259 0
2417 2259 -2397 0
-2417 -2259 0
-2417 2191 2397 0
2418 -8295 2419 0
2418 8295 -2419 0
-2418 8295 2419 0
-2418 -8295 -2419 0
-2419 2202 -2171 0
-2419 2201 2171 2420 0
-2419 -2201 2171 -2420 0
2419 -2202 -2171 0
2419 2201 2171 -2420 0
2419 -2201 2171 2420 0
2420 -2198 2261 0
2420 2261 -2417 0
-2420 -2261 0
-2420 2198 2417 0
-2421 2422 2432 0
2421 -2422 0
2421 -2432 0
-2422 2423 2427 0
2422 -2423 0
2422 -2427 0
-2423 2424 2425 0
2423 -2424 0
2423 -2425 0
-2424 2227 2207 0
-2424 2207 -2171 0
-2424 -2227 -2207 2171 0
2424 -2207 -2171 0
2424 2227 -2207 0
2424 -2227 2207 2171 0
-2425 2208 -2171 0
-2425 2208 2426 0
-2425 -2208 2171 -2426 0
2425 -2208 -2171 0
2425 -2208 2426 0
2425 2208 2171 -2426 0
2426 -2227 2207 0
-2426 2227 0
-2426 -2207 0
-2427 2428 2430 0
2427 -2428 0
2427 -2430 0
-2428 2211 -2171 0
-2428 2211 2429 0
-2428 -2211 2171 -2429 0
2428 -2211 -2171 0
2428 -2211 2429 0
2428 2211 2171 -2429 0
2429 -2227 2206 0
-2429 2227 0
-2429 -2206 0
-2430 2213 -2171 0
-2430 2213 2431 0
-2430 -2213 2171 -2431 0
2430 -2213 -2171 0
2430 -2213 2431 0
2430 2213 2171 -2431 0
2431 2211 -2429 0
-2431 -2211 0
-2431 2429 0
-2432 2433 2438 0
2432 -2433 0
2432 -2438 0
-2433 2434 2436 0
2433 -2434 0
2433 -2436 0
-2434 2217 -2171 0
-2434 2217 2435 0
-2434 -2217 2171 -2435 0
2434 -2217 -2171 0
2434 -2217 2435 0
2434 2217 2171 -2435 0
2435 -2227 2206 2210 0
-2435 2227 0
-2435 -2206 0
-2435 -2210 0
-2436 2219 -2171 0
-2436 2219 2437 0
-2436 -2219 2171 -2437 0
2436 -2219 -2171 0
2436 -2219 2437 0
2436 2219 2171 -2437 0
2437 2217 -2435 0
-2437 -2217 0
-2437 2435 0
-2438 2439 2441 0
2438 -2439 0
2438 -2441 0
-2439 2222 -2171 0
-2439 2222 2440 0
-2439 -2222 2171 -2440 0
2439 -2222 -2171 0
2439 -2222 2440 0
2439 2222 2171 -2440 0
2440 2216 -2435 0
-2440 -2216 0
-2440 2435 0
2441 -8291 2442 0
2441 8291 -2442 0
-2441 8291 2442 0
-2441 -8291 -2442 0
-2442 2224 -2171 0
-2442 2224 2443 0
-2442 -2224 2171 -2443 0
2442 -2224 -2171 0
2442 -2224 2443 0
2442 2224 2171 -2443 0
2443 2222 -2440 0
-2443 -2222 0
-2443 2440 0
2444 -2389 2470 2474 0
2444 -2445 2470 2474 0
-2444 -2474 0
-2444 -2470 0
-2444 2445 2389 0
2445 2446 2451 -2456 2469 0
-2445 -2469 0
-2445 -2446 0
-2445 -2451 0
-2445 2456 0
-2446 2447 2449 0
2446 -2447 0
2446 -2449 0
-2447 2229 -2171 0
-2447 2229 2448 0
-2447 -2229 2171 -2448 0
2447 -2229 -2171 0
2447 -2229 2448 0
2447 2229 2171 -2448 0
2448 -2239 2251 0
-2448 2239 0
-2448 -2251 0
-2449 2231 -2171 0
-2449 2231 2450 0
-2449 -2231 2171 -2450 0
2449 -2231 -2171 0
2449 -2231 2450 0
2449 2231 2171 -2450 0
2450 2229 -2448 0
-2450 -2229 0
-2450 2448 0
-2451 2452 2454 0
2451 -2452 0
2451 -2454 0
-2452 2234 -2171 0
-2452 2234 2453 0
-2452 -2234 2171 -2453 0
2452 -2234 -2171 0
2452 -2234 2453 0
2452 2234 2171 -2453 0
2453 2228 -2448 0
-2453 -2228 0
-2453 2448 0
-2454 2236 -2171 0
-2454 2236 2455 0
-2454 -2236 2171 -2455 0
2454 -2236 -2171 0
2454 -2236 2455 0
2454 2236 2171 -2455 0
2455 2234 -2453 0
-2455 -2234 0
-2455 2453 0
-2456 2457 2468 0
2456 -2457 0
2456 -2468 0
-2457 2458 2463 0
2457 -2458 0
2457 -2463 0
-2458 2459 2461 0
2458 -2459 0
2458 -2461 0
-2459 2241 -2171 0
-2459 2171 2460 0
2459 -2241 -2171 0
2459 2171 -2460 0
2460 -2241 0
-2460 2241 0
-2461 2243 -2171 0
-2461 2171 2462 0
2461 -2243 -2171 0
2461 2171 -2462 0
2462 -2243 0
-2462 2243 0
-2463 2464 2466 0
2463 -2464 0
2463 -2466 0
-2464 2246 -2171 0
-2464 2171 2465 0
2464 -2246 -2171 0
2464 2171 -2465 0
2465 -2246 0
-2465 2246 0
-2466 2248 -2171 0
-2466 2171 2467 0
2466 -2248 -2171 0
2466 2171 -2467 0
2467 -2248 0
-2467 2248 0
-2468 2446 2451 0
2468 -2446 0
2468 -2451 0
-2469 2458 2463 0
2469 -2458 0
2469 -2463 0
2470 2390 -2471 0
-2470 -2390 0
-2470 2471 0
-2471 2472 2473 0
-2471 -2432 2473 0
2471 -2473 0
2471 2432 -2472 0
-2472 2423 2427 0
2472 -2423 0
2472 -2427 0
-2473 -8291 2442 0
-2473 -8291 2433 2439 0
-2473 2433 2439 2442 0
2473 -2433 -2442 0
2473 8291 -2439 0
2473 -2439 -2442 0
2473 8291 -2433 0
2473 8291 -2442 0
-2474 -2392 2475 2483 0
-2474 2475 2481 2483 0
2474 -2483 0
2474 -2475 0
2474 2392 -2481 0
2475 2391 -2476 0
-2475 -2391 0
-2475 2476 0
-2476 -8295 2477 2480 0
-2476 -8295 2419 2477 0
-2476 2419 2477 2480 0
2476 -2419 -2480 0
2476 8295 -2480 0
2476 -2477 0
2476 8295 -2419 0
2477 2414 -2478 0
-2477 -2414 0
-2477 2478 0
-2478 -8293 2412 0
-2478 2412 2479 0
-2478 -8293 2479 0
2478 -2412 -2479 0
2478 8293 -2412 0
2478 8293 -2479 0
2479 8292 -2410 0
-2479 -8292 0
-2479 2410 0
2480 8294 -2416 0
-2480 -8294 0
-2480 2416 0
-2481 -8297 2405 0
-2481 2405 2482 0
-2481 -8297 2482 0
2481 -2405 -2482 0
2481 8297 -2405 0
2481 8297 -2482 0
2482 8296 -2403 0
-2482 -8296 0
-2482 2403 0
-2483 -8299 2399 0
-2483 2399 2484 0
-2483 -8299 2484 0
2483 -2399 -2484 0
2483 8299 -2399 0
2483 8299 -2484 0
2484 8298 -2394 0
-2484 -8298 0
-2484 2394 0
-2485 2486 2456 2494 0
2485 -2486 0
2485 -2456 0
2485 -2494 0
-2486 2487 2491 0
2486 -2487 0
2486 -2491 0
-2487 2488 2490 0
2487 -2488 0
2487 -2490 0
-2488 2489 0
2488 -2489 0
-2489 2064 0
2489 -2064 0
-2490 2272 0
2490 -2272 0
-2491 2492 2493 0
2491 -2492 0
2491 -2493 0
-2492 2275 0
2492 -2275 0
-2493 2276 0
2493 -2276 0
-2494 292 342 391 444 0
2494 -444 0
2494 -292 0
2494 -391 0
2494 -342 0
2495 -1107 0
2495 -2496 -2551 0
2495 -2551 -2592 0
-2495 1107 2551 0
-2495 1107 2496 2592 0
-2496 2497 2528 0
2496 -2497 0
2496 -2528 0
-2497 2498 2514 0
2497 -2498 0
2497 -2514 0
-2498 2499 2508 0
2498 -2499 0
2498 -2508 0
-2499 2500 2505 0
2499 -2500 0
2499 -2505 0
2500 -8298 2501 0
2500 8298 -2501 0
-2500 8298 2501 0
-2500 -8298 -2501 0
-2501 2284 -2278 0
-2501 2283 2278 2502 0
-2501 -2283 2278 -2502 0
2501 -2284 -2278 0
2501 2283 2278 -2502 0
2501 -2283 2278 2502 0
2502 -2291 2369 0
2502 2369 -2503 0
-2502 -2369 0
-2502 2291 2503 0
2503 -2297 2364 0
2503 2364 -2504 0
-2503 -2364 0
-2503 2297 2504 0
2504 -2334 2360 0
2504 -2311 2360 0
-2504 -2360 0
-2504 2334 2311 0
2505 -8299 2506 0
2505 8299 -2506 0
-2505 8299 2506 0
-2505 -8299 -2506 0
-2506 2289 -2278 0
-2506 2288 2278 2507 0
-2506 -2288 2278 -2507 0
2506 -2289 -2278 0
2506 2288 2278 -2507 0
2506 -2288 2278 2507 0
2507 -2283 2372 0
2507 2372 -2502 0
-2507 -2372 0
-2507 2283 2502 0
-2508 2509 2511 0
2508 -2509 0
2508 -2511 0
2509 -8296 2510 0
2509 8296 -2510 0
-2509 8296 2510 0
-2509 -8296 -2510 0
-2510 2293 -2278 0
-2510 2292 2278 2503 0
-2510 -2292 2278 -2503 0
2510 -2293 -2278 0
2510 2292 2278 -2503 0
2510 -2292 2278 2503 0
2511 -8297 2512 0
2511 8297 -2512 0
-2511 8297 2512 0
-2511 -8297 -2512 0
-2512 2295 -2278 0
-2512 2294 2278 2513 0
-2512 -2294 2278 -2513 0
2512 -2295 -2278 0
2512 2294 2278 -2513 0
2512 -2294 2278 2513 0
2513 -2292 2370 0
2513 2370 -2503 0
-2513 -2370 0
-2513 2292 2503 0
-2514 2515 2521 0
2514 -2515 0
2514 -2521 0
-2515 2516 2518 0
2515 -2516 0
2515 -2518 0
2516 -8292 2517 0
2516 8292 -2517 0
-2516 8292 2517 0
-2516 -8292 -2517 0
-2517 2300 -2278 0
-2517 2299 2278 2504 0
-2517 -2299 2278 -2504 0
2517 -2300 -2278 0
2517 2299 2278 -2504 0
2517 -2299 2278 2504 0
2518 -8293 2519 0
2518 8293 -2519 0
-2518 8293 2519 0
-2518 -8293 -2519 0
-2519 2302 -2278 0
-2519 2301 2278 2520 0
-2519 -2301 2278 -2520 0
2519 -2302 -2278 0
2519 2301 2278 -2520 0
2519 -2301 2278 2520 0
2520 -2299 2367 0
2520 2367 -2504 0
-2520 -2367 0
-2520 2299 2504 0
-2521 2522 2525 0
2521 -2522 0
2521 -2525 0
2522 -8294 2523 0
2522 8294 -2523 0
-2522 8294 2523 0
-2522 -8294 -2523 0
-2523 2306 -2278 0
-2523 2305 2278 2524 0
-2523 -2305 2278 -2524 0
2523 -2306 -2278 0
2523 2305 2278 -2524 0
2523 -2305 2278 2524 0
2524 -2298 2366 0
2524 2366 -2504 0
-2524 -2366 0
-2524 2298 2504 0
2525 -8295 2526 0
2525 8295 -2526 0
-2525 8295 2526 0
-2525 -8295 -2526 0
-2526 2309 -2278 0
-2526 2308 2278 2527 0
-2526 -2308 2278 -2527 0
2526 -2309 -2278 0
2526 2308 2278 -2527 0
2526 -2308 2278 2527 0
2527 -2305 2368 0
2527 2368 -2524 0
-2527 -2368 0
-2527 2305 2524 0
-2528 2529 2539 0
2528 -2529 0
2528 -2539 0
-2529 2530 2534 0
2529 -2530 0
2529 -2534 0
-2530 2531 2532 0
2530 -2531 0
2530 -2532 0
-2531 2334 2314 0
-2531 2314 -2278 0
-2531 -2334 -2314 2278 0
2531 -2314 -2278 0
2531 2334 -2314 0
2531 -2334 2314 2278 0
-2532 2315 -2278 0
-2532 2315 2533 0
-2532 -2315 2278 -2533 0
2532 -2315 -2278 0
2532 -2315 2533 0
2532 2315 2278 -2533 0
2533 -2334 2314 0
-2533 2334 0
-2533 -2314 0
-2534 2535 2537 0
2534 -2535 0
2534 -2537 0
-2535 2318 -2278 0
-2535 2318 2536 0
-2535 -2318 2278 -2536 0
2535 -2318 -2278 0
2535 -2318 2536 0
2535 2318 2278 -2536 0
2536 -2334 2313 0
-2536 2334 0
-2536 -2313 0
-2537 2320 -2278 0
-2537 2320 2538 0
-2537 -2320 2278 -2538 0
2537 -2320 -2278 0
2537 -2320 2538 0
2537 2320 2278 -2538 0
2538 2318 -2536 0
-2538 -2318 0
-2538 2536 0
-2539 2540 2545 0
2539 -2540 0
2539 -2545 0
-2540 2541 2543 0
2540 -2541 0
2540 -2543 0
-2541 2324 -2278 0
-2541 2324 2542 0
-2541 -2324 2278 -2542 0
2541 -2324 -2278 0
2541 -2324 2542 0
2541 2324 2278 -2542 0
2542 -2334 2313 2317 0
-2542 2334 0
-2542 -2313 0
-2542 -2317 0
-2543 2326 -2278 0
-2543 2326 2544 0
-2543 -2326 2278 -2544 0
2543 -2326 -2278 0
2543 -2326 2544 0
2543 2326 2278 -2544 0
2544 2324 -2542 0
-2544 -2324 0
-2544 2542 0
-2545 2546 2548 0
2545 -2546 0
2545 -2548 0
-2546 2329 -2278 0
-2546 2329 2547 0
-2546 -2329 2278 -2547 0
2546 -2329 -2278 0
2546 -2329 2547 0
2546 2329 2278 -2547 0
2547 2323 -2542 0
-2547 -2323 0
-2547 2542 0
2548 -8291 2549 0
2548 8291 -2549 0
-2548 8291 2549 0
-2548 -8291 -2549 0
-2549 2331 -2278 0
-2549 2331 2550 0
-2549 -2331 2278 -2550 0
2549 -2331 -2278 0
2549 -2331 2550 0
2549 2331 2278 -2550 0
2550 2329 -2547 0
-2550 -2329 0
-2550 2547 0
2551 -2496 2577 2581 0
2551 -2552 2577 2581 0
-2551 -2581 0
-2551 -2577 0
-2551 2552 2496 0
2552 2553 2558 -2563 2576 0
-2552 -2576 0
-2552 -2553 0
-2552 -2558 0
-2552 2563 0
-2553 2554 2556 0
2553 -2554 0
2553 -2556 0
-2554 2336 -2278 0
-2554 2336 2555 0
-2554 -2336 2278 -2555 0
2554 -2336 -2278 0
2554 -2336 2555 0
2554 2336 2278 -2555 0
2555 -2346 2358 0
-2555 2346 0
-2555 -2358 0
-2556 2338 -2278 0
-2556 2338 2557 0
-2556 -2338 2278 -2557 0
2556 -2338 -2278 0
2556 -2338 2557 0
2556 2338 2278 -2557 0
2557 2336 -2555 0
-2557 -2336 0
-2557 2555 0
-2558 2559 2561 0
2558 -2559 0
2558 -2561 0
-2559 2341 -2278 0
-2559 2341 2560 0
-2559 -2341 2278 -2560 0
2559 -2341 -2278 0
2559 -2341 2560 0
2559 2341 2278 -2560 0
2560 2335 -2555 0
-2560 -2335 0
-2560 2555 0
-2561 2343 -2278 0
-2561 2343 2562 0
-2561 -2343 2278 -2562 0
2561 -2343 -2278 0
2561 -2343 2562 0
2561 2343 2278 -2562 0
2562 2341 -2560 0
-2562 -2341 0
-2562 2560 0
-2563 2564 2575 0
2563 -2564 0
2563 -2575 0
-2564 2565 2570 0
2564 -2565 0
2564 -2570 0
-2565 2566 2568 0
2565 -2566 0
2565 -2568 0
-2566 2348 -2278 0
-2566 2278 2567 0
2566 -2348 -2278 0
2566 2278 -2567 0
2567 -2348 0
-2567 2348 0
-2568 2350 -2278 0
-2568 2278 2569 0
2568 -2350 -2278 0
2568 2278 -2569 0
2569 -2350 0
-2569 2350 0
-2570 2571 2573 0
2570 -2571 0
2570 -2573 0
-2571 2353 -2278 0
-2571 2278 2572 0
2571 -2353 -2278 0
2571 2278 -2572 0
2572 -2353 0
-2572 2353 0
-2573 2355 -2278 0
-2573 2278 2574 0
2573 -2355 -2278 0
2573 2278 -2574 0
2574 -2355 0
-2574 2355 0
-2575 2553 2558 0
2575 -2553 0
2575 -2558 0
-2576 2565 2570 0
2576 -2565 0
2576 -2570 0
2577 2497 -2578 0
-2577 -2497 0
-2577 2578 0
-2578 2579 2580 0
-2578 -2539 2580 0
2578 -2580 0
2578 2539 -2579 0
-2579 2530 2534 0
2579 -2530 0
2579 -2534 0
-2580 -8291 2549 0
-2580 -8291 2540 2546 0
-2580 2540 2546 2549 0
2580 -2540 -2549 0
2580 8291 -2546 0
2580 -2546 -2549 0
2580 8291 -2540 0
2580 8291 -2549 0
-2581 -2499 2582 2590 0
-2581 2582 2588 2590 0
2581 -2590 0
2581 -2582 0
2581 2499 -2588 0
2582 2498 -2583 0
-2582 -2498 0
-2582 2583 0
-2583 -8295 2584 2587 0
-2583 -8295 2526 2584 0
-2583 2526 2584 2587 0
2583 -2526 -2587 0
2583 8295 -2587 0
2583 -2584 0
2583 8295 -2526 0
2584 2521 -2585 0
-2584 -2521 0
-2584 2585 0
-2585 -8293 2519 0
-2585 2519 2586 0
-2585 -8293 2586 0
2585 -2519 -2586 0
2585 8293 -2519 0
2585 8293 -2586 0
2586 8292 -2517 0
-2586 -8292 0
-2586 2517 0
2587 8294 -2523 0
-2587 -8294 0
-2587 2523 0
-2588 -8297 2512 0
-2588 2512 2589 0
-2588 -8297 2589 0
2588 -2512 -2589 0
2588 8297 -2512 0
2588 8297 -2589 0
2589 8296 -2510 0
-2589 -8296 0
-2589 2510 0
-2590 -8299 2506 0
-2590 2506 2591 0
-2590 -8299 2591 0
2590 -2506 -2591 0
2590 8299 -2506 0
2590 8299 -2591 0
2591 8298 -2501 0
-2591 -8298 0
-2591 2501 0
-2592 2593 2563 2602 0
2592 -2593 0
2592 -2563 0
2592 -2602 0
-2593 2594 2599 0
2593 -2594 0
2593 -2599 0
-2594 2595 2597 0
2594 -2595 0
2594 -2597 0
-2595 2596 0
2595 -2596 0
-2596 2165 0
2596 -2165 0
-2597 2598 0
2597 -2598 0
-2598 2377 0
2598 -2377 0
-2599 2600 2601 0
2599 -2600 0
2599 -2601 0
-2600 2379 0
2600 -2379 0
-2601 2380 0
2601 -2380 0
-2602 2603 2605 2607 2609 0
2602 -2609 0
2602 -2603 0
2602 -2607 0
2602 -2605 0
-2603 2604 0
2603 -2604 0
-2604 8275 0
2604 -8275 0
-2605 2606 0
2605 -2606 0
-2606 8276 0
2606 -8276 0
-2607 2608 0
2607 -2608 0
-2608 8277 0
2608 -8277 0
-2609 2610 0
2609 -2610 0
-2610 8278 0
2610 -8278 0
2611 -1116 -1162 0
2611 1115 -1162 2612 0
-2611 1162 0
-2611 -1115 1116 0
-2611 1116 -2612 0
2612 1092 -2613 0
2612 -354 -1092 -2386 0
2612 354 -1092 2386 0
-2612 1092 2613 0
-2612 -354 -1092 2386 0
-2612 354 -1092 -2386 0
2613 -1219 0
2613 -2614 -2670 0
2613 -2670 -2713 0
-2613 1219 2670 0
-2613 1219 2614 2713 0
-2614 2615 2646 0
2614 -2615 0
2614 -2646 0
-2615 2616 2632 0
2615 -2616 0
2615 -2632 0
-2616 2617 2626 0
2616 -2617 0
2616 -2626 0
-2617 2618 2623 0
2617 -2618 0
2617 -2623 0
2618 -8299 2619 0
2618 8299 -2619 0
-2618 8299 2619 0
-2618 -8299 -2619 0
-2619 2394 -2388 0
-2619 2393 2388 2620 0
-2619 -2393 2388 -2620 0
2619 -2394 -2388 0
2619 2393 2388 -2620 0
2619 -2393 2388 2620 0
2620 -2401 2481 0
2620 2481 -2621 0
-2620 -2481 0
-2620 2401 2621 0
2621 -2407 2476 0
2621 2476 -2622 0
-2621 -2476 0
-2621 2407 2622 0
2622 -2445 2471 0
2622 -2421 2471 0
-2622 -2471 0
-2622 2445 2421 0
2623 -8300 2624 0
2623 8300 -2624 0
-2623 8300 2624 0
-2623 -8300 -2624 0
-2624 2399 -2388 0
-2624 2398 2388 2625 0
-2624 -2398 2388 -2625 0
2624 -2399 -2388 0
2624 2398 2388 -2625 0
2624 -2398 2388 2625 0
2625 -2393 2484 0
2625 2484 -2620 0
-2625 -2484 0
-2625 2393 2620 0
-2626 2627 2629 0
2626 -2627 0
2626 -2629 0
2627 -8297 2628 0
2627 8297 -2628 0
-2627 8297 2628 0
-2627 -8297 -2628 0
-2628 2403 -2388 0
-2628 2402 2388 2621 0
-2628 -2402 2388 -2621 0
2628 -2403 -2388 0
2628 2402 2388 -2621 0
2628 -2402 2388 2621 0
2629 -8298 2630 0
2629 8298 -2630 0
-2629 8298 2630 0
-2629 -8298 -2630 0
-2630 2405 -2388 0
-2630 2404 2388 2631 0
-2630 -2404 2388 -2631 0
2630 -2405 -2388 0
2630 2404 2388 -2631 0
2630 -2404 2388 2631 0
2631 -2402 2482 0
2631 2482 -2621 0
-2631 -2482 0
-2631 2402 2621 0
-2632 2633 2639 0
2632 -2633 0
2632 -2639 0
-2633 2634 2636 0
2633 -2634 0
2633 -2636 0
2634 -8293 2635 0
2634 8293 -2635 0
-2634 8293 2635 0
-2634 -8293 -2635 0
-2635 2410 -2388 0
-2635 2409 2388 2622 0
-2635 -2409 2388 -2622 0
2635 -2410 -2388 0
2635 2409 2388 -2622 0
2635 -2409 2388 2622 0
2636 -8294 2637 0
2636 8294 -2637 0
-2636 8294 2637 0
-2636 -8294 -2637 0
-2637 2412 -2388 0
-2637 2411 2388 2638 0
-2637 -2411 2388 -2638 0
2637 -2412 -2388 0
2637 2411 2388 -2638 0
2637 -2411 2388 2638 0
2638 -2409 2479 0
2638 2479 -2622 0
-2638 -2479 0
-2638 2409 2622 0
-2639 2640 2643 0
2639 -2640 0
2639 -2643 0
2640 -8295 2641 0
2640 8295 -2641 0
-2640 8295 2641 0
-2640 -8295 -2641 0
-2641 2416 -2388 0
-2641 2415 2388 2642 0
-2641 -2415 2388 -2642 0
2641 -2416 -2388 0
2641 2415 2388 -2642 0
2641 -2415 2388 2642 0
2642 -2408 2478 0
2642 2478 -2622 0
-2642 -2478 0
-2642 2408 2622 0
2643 -8296 2644 0
2643 8296 -2644 0
-2643 8296 2644 0
-2643 -8296 -2644 0
-2644 2419 -2388 0
-2644 2418 2388 2645 0
-2644 -2418 2388 -2645 0
2644 -2419 -2388 0
2644 2418 2388 -2645 0
2644 -2418 2388 2645 0
2645 -2415 2480 0
2645 2480 -2642 0
-2645 -2480 0
-2645 2415 2642 0
-2646 2647 2657 0
2646 -2647 0
2646 -2657 0
-2647 2648 2652 0
2647 -2648 0
2647 -2652 0
-2648 2649 2650 0
2648 -2649 0
2648 -2650 0
-2649 2445 2424 0
-2649 2424 -2388 0
-2649 -2445 -2424 2388 0
2649 -2424 -2388 0
2649 2445 -2424 0
2649 -2445 2424 2388 0
-2650 2425 -2388 0
-2650 2425 2651 0
-2650 -2425 2388 -2651 0
2650 -2425 -2388 0
2650 -2425 2651 0
2650 2425 2388 -2651 0
2651 -2445 2424 0
-2651 2445 0
-2651 -2424 0
-2652 2653 2655 0
2652 -2653 0
2652 -2655 0
-2653 2428 -2388 0
-2653 2428 2654 0
-2653 -2428 2388 -2654 0
2653 -2428 -2388 0
2653 -2428 2654 0
2653 2428 2388 -2654 0
2654 -2445 2423 0
-2654 2445 0
-2654 -2423 0
-2655 2430 -2388 0
-2655 2430 2656 0
-2655 -2430 2388 -2656 0
2655 -2430 -2388 0
2655 -2430 2656 0
2655 2430 2388 -2656 0
2656 2428 -2654 0
-2656 -2428 0
-2656 2654 0
-2657 2658 2663 0
2657 -2658 0
2657 -2663 0
-2658 2659 2661 0
2658 -2659 0
2658 -2661 0
-2659 2434 -2388 0
-2659 2434 2660 0
-2659 -2434 2388 -2660 0
2659 -2434 -2388 0
2659 -2434 2660 0
2659 2434 2388 -2660 0
2660 -2445 2423 2427 0
-2660 2445 0
-2660 -2423 0
-2660 -2427 0
-2661 2436 -2388 0
-2661 2436 2662 0
-2661 -2436 2388 -2662 0
2661 -2436 -2388 0
2661 -2436 2662 0
2661 2436 2388 -2662 0
2662 2434 -2660 0
-2662 -2434 0
-2662 2660 0
-2663 2664 2667 0
2663 -2664 0
2663 -2667 0
2664 -8291 2665 0
2664 8291 -2665 0
-2664 8291 2665 0
-2664 -8291 -2665 0
-2665 2439 -2388 0
-2665 2439 2666 0
-2665 -2439 2388 -2666 0
2665 -2439 -2388 0
2665 -2439 2666 0
2665 2439 2388 -2666 0
2666 2433 -2660 0
-2666 -2433 0
-2666 2660 0
2667 -8292 2668 0
2667 8292 -2668 0
-2667 8292 2668 0
-2667 -8292 -2668 0
-2668 2442 -2388 0
-2668 2441 2388 2669 0
-2668 -2441 2388 -2669 0
2668 -2442 -2388 0
2668 2441 2388 -2669 0
2668 -2441 2388 2669 0
2669 2439 -2666 0
-2669 -2439 0
-2669 2666 0
2670 -2614 2696 2702 0
2670 -2671 2696 2702 0
-2670 -2702 0
-2670 -2696 0
-2670 2671 2614 0
2671 2672 2677 -2682 2695 0
-2671 -2695 0
-2671 -2672 0
-2671 -2677 0
-2671 2682 0
-2672 2673 2675 0
2672 -2673 0
2672 -2675 0
-2673 2447 -2388 0
-2673 2447 2674 0
-2673 -2447 2388 -2674 0
2673 -2447 -2388 0
2673 -2447 2674 0
2673 2447 2388 -2674 0
2674 -2457 2469 0
-2674 2457 0
-2674 -2469 0
-2675 2449 -2388 0
-2675 2449 2676 0
-2675 -2449 2388 -2676 0
2675 -2449 -2388 0
2675 -2449 2676 0
2675 2449 2388 -2676 0
2676 2447 -2674 0
-2676 -2447 0
-2676 2674 0
-2677 2678 2680 0
2677 -2678 0
2677 -2680 0
-2678 2452 -2388 0
-2678 2452 2679 0
-2678 -2452 2388 -2679 0
2678 -2452 -2388 0
2678 -2452 2679 0
2678 2452 2388 -2679 0
2679 2446 -2674 0
-2679 -2446 0
-2679 2674 0
-2680 2454 -2388 0
-2680 2454 2681 0
-2680 -2454 2388 -2681 0
2680 -2454 -2388 0
2680 -2454 2681 0
2680 2454 2388 -2681 0
2681 2452 -2679 0
-2681 -2452 0
-2681 2679 0
-2682 2683 2694 0
2682 -2683 0
2682 -2694 0
-2683 2684 2689 0
2683 -2684 0
2683 -2689 0
-2684 2685 2687 0
2684 -2685 0
2684 -2687 0
-2685 2459 -2388 0
-2685 2388 2686 0
2685 -2459 -2388 0
2685 2388 -2686 0
2686 -2459 0
-2686 2459 0
-2687 2461 -2388 0
-2687 2388 2688 0
2687 -2461 -2388 0
2687 2388 -2688 0
2688 -2461 0
-2688 2461 0
-2689 2690 2692 0
2689 -2690 0
2689 -2692 0
-2690 2464 -2388 0
-2690 2388 2691 0
2690 -2464 -2388 0
2690 2388 -2691 0
2691 -2464 0
-2691 2464 0
-2692 2466 -2388 0
-2692 2388 2693 0
2692 -2466 -2388 0
2692 2388 -2693 0
2693 -2466 0
-2693 2466 0
-2694 2672 2677 0
2694 -2672 0
2694 -2677 0
-2695 2684 2689 0
2695 -2684 0
2695 -2689 0
2696 2615 -2697 0
-2696 -2615 0
-2696 2697 0
-2697 -2663 2698 2700 0
-2697 2658 2698 2700 0
2697 -2700 0
2697 -2698 0
2697 -2658 2663 0
2698 2657 -2699 0
-2698 -2657 0
-2698 2699 0
-2699 2648 2652 0
2699 -2648 0
2699 -2652 0
-2700 -8292 2668 0
-2700 2668 2701 0
-2700 -8292 2701 0
2700 -2668 -2701 0
2700 8292 -2668 0
2700 8292 -2701 0
2701 8291 -2665 0
-2701 -8291 0
-2701 2665 0
-2702 -2617 2703 2711 0
-2702 2703 2709 2711 0
2702 -2711 0
2702 -2703 0
2702 2617 -2709 0
2703 2616 -2704 0
-2703 -2616 0
-2703 2704 0
-2704 -8296 2705 2708 0
-2704 -8296 2644 2705 0
-2704 2644 2705 2708 0
2704 -2644 -2708 0
2704 8296 -2708 0
2704 -2705 0
2704 8296 -2644 0
2705 2639 -2706 0
-2705 -2639 0
-2705 2706 0
-2706 -8294 2637 0
-2706 2637 2707 0
-2706 -8294 2707 0
2706 -2637 -2707 0
2706 8294 -2637 0
2706 8294 -2707 0
2707 8293 -2635 0
-2707 -8293 0
-2707 2635 0
2708 8295 -2641 0
-2708 -8295 0
-2708 2641 0
-2709 -8298 2630 0
-2709 2630 2710 0
-2709 -8298 2710 0
2709 -2630 -2710 0
2709 8298 -2630 0
2709 8298 -2710 0
2710 8297 -2628 0
-2710 -8297 0
-2710 2628 0
-2711 -8300 2624 0
-2711 2624 2712 0
-2711 -8300 2712 0
2711 -2624 -2712 0
2711 8300 -2624 0
2711 8300 -2712 0
2712 8299 -2619 0
-2712 -8299 0
-2712 2619 0
-2713 2494 2714 2682 0
2713 -2494 0
2713 -2714 0
2713 -2682 0
-2714 2715 2718 0
2714 -2715 0
2714 -2718 0
-2715 2716 2717 0
2715 -2716 0
2715 -2717 0
-2716 2270 0
2716 -2270 0
-2717 2490 0
2717 -2490 0
-2718 2719 2720 0
2718 -2719 0
2718 -2720 0
-2719 2492 0
2719 -2492 0
-2720 2493 0
2720 -2493 0
2721 -1219 0
2721 -2722 -2778 0
2721 -2778 -2821 0
-2721 1219 2778 0
-2721 1219 2722 2821 0
-2722 2723 2754 0
2722 -2723 0
2722 -2754 0
-2723 2724 2740 0
2723 -2724 0
2723 -2740 0
-2724 2725 2734 0
2724 -2725 0
2724 -2734 0
-2725 2726 2731 0
2725 -2726 0
2725 -2731 0
2726 -8299 2727 0
2726 8299 -2727 0
-2726 8299 2727 0
-2726 -8299 -2727 0
-2727 2501 -2495 0
-2727 2500 2495 2728 0
-2727 -2500 2495 -2728 0
2727 -2501 -2495 0
2727 2500 2495 -2728 0
2727 -2500 2495 2728 0
2728 -2508 2588 0
2728 2588 -2729 0
-2728 -2588 0
-2728 2508 2729 0
2729 -2514 2583 0
2729 2583 -2730 0
-2729 -2583 0
-2729 2514 2730 0
2730 -2552 2578 0
2730 -2528 2578 0
-2730 -2578 0
-2730 2552 2528 0
2731 -8300 2732 0
2731 8300 -2732 0
-2731 8300 2732 0
-2731 -8300 -2732 0
-2732 2506 -2495 0
-2732 2505 2495 2733 0
-2732 -2505 2495 -2733 0
2732 -2506 -2495 0
2732 2505 2495 -2733 0
2732 -2505 2495 2733 0
2733 -2500 2591 0
2733 2591 -2728 0
-2733 -2591 0
-2733 2500 2728 0
-2734 2735 2737 0
2734 -2735 0
2734 -2737 0
2735 -8297 2736 0
2735 8297 -2736 0
-2735 8297 2736 0
-2735 -8297 -2736 0
-2736 2510 -2495 0
-2736 2509 2495 2729 0
-2736 -2509 2495 -2729 0
2736 -2510 -2495 0
2736 2509 2495 -2729 0
2736 -2509 2495 2729 0
2737 -8298 2738 0
2737 8298 -2738 0
-2737 8298 2738 0
-2737 -8298 -2738 0
-2738 2512 -2495 0
-2738 2511 2495 2739 0
-2738 -2511 2495 -2739 0
2738 -2512 -2495 0
2738 2511 2495 -2739 0
2738 -2511 2495 2739 0
2739 -2509 2589 0
2739 2589 -2729 0
-2739 -2589 0
-2739 2509 2729 0
-2740 2741 2747 0
2740 -2741 0
2740 -2747 0
-2741 2742 2744 0
2741 -2742 0
2741 -2744 0
2742 -8293 2743 0
2742 8293 -2743 0
-2742 8293 2743 0
-2742 -8293 -2743 0
-2743 2517 -2495 0
-2743 2516 2495 2730 0
-2743 -2516 2495 -2730 0
2743 -2517 -2495 0
2743 2516 2495 -2730 0
2743 -2516 2495 2730 0
2744 -8294 2745 0
2744 8294 -2745 0
-2744 8294 2745 0
-2744 -8294 -2745 0
-2745 2519 -2495 0
-2745 2518 2495 2746 0
-2745 -2518 2495 -2746 0
2745 -2519 -2495 0
2745 2518 2495 -2746 0
2745 -2518 2495 2746 0
2746 -2516 2586 0
2746 2586 -2730 0
-2746 -2586 0
-2746 2516 2730 0
-2747 2748 2751 0
2747 -2748 0
2747 -2751 0
2748 -8295 2749 0
2748 8295 -2749 0
-2748 8295 2749 0
-2748 -8295 -2749 0
-2749 2523 -2495 0
-2749 2522 2495 2750 0
-2749 -2522 2495 -2750 0
2749 -2523 -2495 0
2749 2522 2495 -2750 0
2749 -2522 2495 2750 0
2750 -2515 2585 0
2750 2585 -2730 0
-2750 -2585 0
-2750 2515 2730 0
2751 -8296 2752 0
2751 8296 -2752 0
-2751 8296 2752 0
-2751 -8296 -2752 0
-2752 2526 -2495 0
-2752 2525 2495 2753 0
-2752 -2525 2495 -2753 0
2752 -2526 -2495 0
2752 2525 2495 -2753 0
2752 -2525 2495 2753 0
2753 -2522 2587 0
2753 2587 -2750 0
-2753 -2587 0
-2753 2522 2750 0
-2754 2755 2765 0
2754 -2755 0
2754 -2765 0
-2755 2756 2760 0
2755 -2756 0
2755 -2760 0
-2756 2757 2758 0
2756 -2757 0
2756 -2758 0
-2757 2552 2531 0
-2757 2531 -2495 0
-2757 -2552 -2531 2495 0
2757 -2531 -2495 0
2757 2552 -2531 0
2757 -2552 2531 2495 0
-2758 2532 -2495 0
-2758 2532 2759 0
-2758 -2532 2495 -2759 0
2758 -2532 -2495 0
2758 -2532 2759 0
2758 2532 2495 -2759 0
2759 -2552 2531 0
-2759 2552 0
-2759 -2531 0
-2760 2761 2763 0
2760 -2761 0
2760 -2763 0
-2761 2535 -2495 0
-2761 2535 2762 0
-2761 -2535 2495 -2762 0
2761 -2535 -2495 0
2761 -2535 2762 0
2761 2535 2495 -2762 0
2762 -2552 2530 0
-2762 2552 0
-2762 -2530 0
-2763 2537 -2495 0
-2763 2537 2764 0
-2763 -2537 2495 -2764 0
2763 -2537 -2495 0
2763 -2537 2764 0
2763 2537 2495 -2764 0
2764 2535 -2762 0
-2764 -2535 0
-2764 2762 0
-2765 2766 2771 0
2765 -2766 0
2765 -2771 0
-2766 2767 2769 0
2766 -2767 0
2766 -2769 0
-2767 2541 -2495 0
-2767 2541 2768 0
-2767 -2541 2495 -2768 0
2767 -2541 -2495 0
2767 -2541 2768 0
2767 2541 2495 -2768 0
2768 -2552 2530 2534 0
-2768 2552 0
-2768 -2530 0
-2768 -2534 0
-2769 2543 -2495 0
-2769 2543 2770 0
-2769 -2543 2495 -2770 0
2769 -2543 -2495 0
2769 -2543 2770 0
2769 2543 2495 -2770 0
2770 2541 -2768 0
-2770 -2541 0
-2770 2768 0
-2771 2772 2775 0
2771 -2772 0
2771 -2775 0
2772 -8291 2773 0
2772 8291 -2773 0
-2772 8291 2773 0
-2772 -8291 -2773 0
-2773 2546 -2495 0
-2773 2546 2774 0
-2773 -2546 2495 -2774 0
2773 -2546 -2495 0
2773 -2546 2774 0
2773 2546 2495 -2774 0
2774 2540 -2768 0
-2774 -2540 0
-2774 2768 0
2775 -8292 2776 0
2775 8292 -2776 0
-2775 8292 2776 0
-2775 -8292 -2776 0
-2776 2549 -2495 0
-2776 2548 2495 2777 0
-2776 -2548 2495 -2777 0
2776 -2549 -2495 0
2776 2548 2495 -2777 0
2776 -2548 2495 2777 0
2777 2546 -2774 0
-2777 -2546 0
-2777 2774 0
2778 -2722 2804 2810 0
2778 -2779 2804 2810 0
-2778 -2810 0
-2778 -2804 0
-2778 2779 2722 0
2779 2780 2785 -2790 2803 0
-2779 -2803 0
-2779 -2780 0
-2779 -2785 0
-2779 2790 0
-2780 2781 2783 0
2780 -2781 0
2780 -2783 0
-2781 2554 -2495 0
-2781 2554 2782 0
-2781 -2554 2495 -2782 0
2781 -2554 -2495 0
2781 -2554 2782 0
2781 2554 2495 -2782 0
2782 -2564 2576 0
-2782 2564 0
-2782 -2576 0
-2783 2556 -2495 0
-2783 2556 2784 0
-2783 -2556 2495 -2784 0
2783 -2556 -2495 0
2783 -2556 2784 0
2783 2556 2495 -2784 0
2784 2554 -2782 0
-2784 -2554 0
-2784 2782 0
-2785 2786 2788 0
2785 -2786 0
2785 -2788 0
-2786 2559 -2495 0
-2786 2559 2787 0
-2786 -2559 2495 -2787 0
2786 -2559 -2495 0
2786 -2559 2787 0
2786 2559 2495 -2787 0
2787 2553 -2782 0
-2787 -2553 0
-2787 2782 0
-2788 2561 -2495 0
-2788 2561 2789 0
-2788 -2561 2495 -2789 0
2788 -2561 -2495 0
2788 -2561 2789 0
2788 2561 2495 -2789 0
2789 2559 -2787 0
-2789 -2559 0
-2789 2787 0
-2790 2791 2802 0
2790 -2791 0
2790 -2802 0
-2791 2792 2797 0
2791 -2792 0
2791 -2797 0
-2792 2793 2795 0
2792 -2793 0
2792 -2795 0
-2793 2566 -2495 0
-2793 2495 2794 0
2793 -2566 -2495 0
2793 2495 -2794 0
2794 -2566 0
-2794 2566 0
-2795 2568 -2495 0
-2795 2495 2796 0
2795 -2568 -2495 0
2795 2495 -2796 0
2796 -2568 0
-2796 2568 0
-2797 2798 2800 0
2797 -2798 0
2797 -2800 0
-2798 2571 -2495 0
-2798 2495 2799 0
2798 -2571 -2495 0
2798 2495 -2799 0
2799 -2571 0
-2799 2571 0
-2800 2573 -2495 0
-2800 2495 2801 0
2800 -2573 -2495 0
2800 2495 -2801 0
2801 -2573 0
-2801 2573 0
-2802 2780 2785 0
2802 -2780 0
2802 -2785 0
-2803 2792 2797 0
2803 -2792 0
2803 -2797 0
2804 2723 -2805 0
-2804 -2723 0
-2804 2805 0
-2805 -2771 2806 2808 0
-2805 2766 2806 2808 0
2805 -2808 0
2805 -2806 0
2805 -2766 2771 0
2806 2765 -2807 0
-2806 -2765 0
-2806 2807 0
-2807 2756 2760 0
2807 -2756 0
2807 -2760 0
-2808 -8292 2776 0
-2808 2776 2809 0
-2808 -8292 2809 0
2808 -2776 -2809 0
2808 8292 -2776 0
2808 8292 -2809 0
2809 8291 -2773 0
-2809 -8291 0
-2809 2773 0
-2810 -2725 2811 2819 0
-2810 2811 2817 2819 0
2810 -2819 0
2810 -2811 0
2810 2725 -2817 0
2811 2724 -2812 0
-2811 -2724 0
-2811 2812 0
-2812 -8296 2813 2816 0
-2812 -8296 2752 2813 0
-2812 2752 2813 2816 0
2812 -2752 -2816 0
2812 8296 -2816 0
2812 -2813 0
2812 8296 -2752 0
2813 2747 -2814 0
-2813 -2747 0
-2813 2814 0
-2814 -8294 2745 0
-2814 2745 2815 0
-2814 -8294 2815 0
2814 -2745 -2815 0
2814 8294 -2745 0
2814 8294 -2815 0
2815 8293 -2743 0
-2815 -8293 0
-2815 2743 0
2816 8295 -2749 0
-2816 -8295 0
-2816 2749 0
-2817 -8298 2738 0
-2817 2738 2818 0
-2817 -8298 2818 0
2817 -2738 -2818 0
2817 8298 -2738 0
2817 8298 -2818 0
2818 8297 -2736 0
-2818 -8297 0
-2818 2736 0
-2819 -8300 2732 0
-2819 2732 2820 0
-2819 -8300 2820 0
2819 -2732 -2820 0
2819 8300 -2732 0
2819 8300 -2820 0
2820 8299 -2727 0
-2820 -8299 0
-2820 2727 0
-2821 2602 2822 2790 0
2821 -2602 0
2821 -2822 0
2821 -2790 0
-2822 2823 2827 0
2822 -2823 0
2822 -2827 0
-2823 2824 2826 0
2823 -2824 0
2823 -2826 0
-2824 2825 0
2824 -2825 0
-2825 2376 0
2825 -2376 0
-2826 2597 0
2826 -2597 0
-2827 2828 2829 0
2827 -2828 0
2827 -2829 0
-2828 2600 0
2828 -2600 0
-2829 2601 0
2829 -2601 0
2830 -2831 2944 -3054 3176 0
2830 2831 -2944 3054 -3176 0
2830 -2831 2944 3054 -3176 0
2830 2831 -2944 -3054 3176 0
-2830 -2831 -2944 0
-2830 2831 2944 0
-2830 3054 3176 0
-2830 -3054 -3176 0
2831 -1116 -1162 0
2831 1115 -1162 2832 0
-2831 1162 0
-2831 -1115 1116 0
-2831 1116 -2832 0
2832 1092 -2834 0
2832 -404 -1092 -2833 0
2832 404 -1092 2833 0
-2832 1092 2834 0
-2832 -404 -1092 2833 0
-2832 404 -1092 -2833 0
-2833 456 1063 0
-2833 1063 2387 0
2833 -1063 0
2833 -456 -2387 0
2834 -1317 0
2834 -2835 -2892 0
2834 -2892 -2936 0
-2834 1317 2892 0
-2834 1317 2835 2936 0
-2835 2836 2867 0
2835 -2836 0
2835 -2867 0
-2836 2837 2853 0
2836 -2837 0
2836 -2853 0
-2837 2838 2847 0
2837 -2838 0
2837 -2847 0
-2838 2839 2844 0
2838 -2839 0
2838 -2844 0
2839 -8300 2840 0
2839 8300 -2840 0
-2839 8300 2840 0
-2839 -8300 -2840 0
-2840 2619 -2613 0
-2840 2618 2613 2841 0
-2840 -2618 2613 -2841 0
2840 -2619 -2613 0
2840 2618 2613 -2841 0
2840 -2618 2613 2841 0
2841 -2626 2709 0
2841 2709 -2842 0
-2841 -2709 0
-2841 2626 2842 0
2842 -2632 2704 0
2842 2704 -2843 0
-2842 -2704 0
-2842 2632 2843 0
2843 -2671 2697 0
2843 -2646 2697 0
-2843 -2697 0
-2843 2671 2646 0
2844 -8301 2845 0
2844 8301 -2845 0
-2844 8301 2845 0
-2844 -8301 -2845 0
-2845 2624 -2613 0
-2845 2623 2613 2846 0
-2845 -2623 2613 -2846 0
2845 -2624 -2613 0
2845 2623 2613 -2846 0
2845 -2623 2613 2846 0
2846 -2618 2712 0
2846 2712 -2841 0
-2846 -2712 0
-2846 2618 2841 0
-2847 2848 2850 0
2847 -2848 0
2847 -2850 0
2848 -8298 2849 0
2848 8298 -2849 0
-2848 8298 2849 0
-2848 -8298 -2849 0
-2849 2628 -2613 0
-2849 2627 2613 2842 0
-2849 -2627 2613 -2842 0
2849 -2628 -2613 0
2849 2627 2613 -2842 0
2849 -2627 2613 2842 0
2850 -8299 2851 0
2850 8299 -2851 0
-2850 8299 2851 0
-2850 -8299 -2851 0
-2851 2630 -2613 0
-2851 2629 2613 2852 0
-2851 -2629 2613 -2852 0
2851 -2630 -2613 0
2851 2629 2613 -2852 0
2851 -2629 2613 2852 0
2852 -2627 2710 0
2852 2710 -2842 0
-2852 -2710 0
-2852 2627 2842 0
-2853 2854 2860 0
2853 -2854 0
2853 -2860 0
-2854 2855 2857 0
2854 -2855 0
2854 -2857 0
2855 -8294 2856 0
2855 8294 -2856 0
-2855 8294 2856 0
-2855 -8294 -2856 0
-2856 2635 -2613 0
-2856 2634 2613 2843 0
-2856 -2634 2613 -2843 0
2856 -2635 -2613 0
2856 2634 2613 -2843 0
2856 -2634 2613 2843 0
2857 -8295 2858 0
2857 8295 -2858 0
-2857 8295 2858 0
-2857 -8295 -2858 0
-2858 2637 -2613 0
-2858 2636 2613 2859 0
-2858 -2636 2613 -2859 0
2858 -2637 -2613 0
2858 2636 2613 -2859 0
2858 -2636 2613 2859 0
2859 -2634 2707 0
2859 2707 -2843 0
-2859 -2707 0
-2859 2634 2843 0
-2860 2861 2864 0
2860 -2861 0
2860 -2864 0
2861 -8296 2862 0
2861 8296 -2862 0
-2861 8296 2862 0
-2861 -8296 -2862 0
-2862 2641 -2613 0
-2862 2640 2613 2863 0
-2862 -2640 2613 -2863 0
2862 -2641 -2613 0
2862 2640 2613 -2863 0
2862 -2640 2613 2863 0
2863 -2633 2706 0
2863 2706 -2843 0
-2863 -2706 0
-2863 2633 2843 0
2864 -8297 2865 0
2864 8297 -2865 0
-2864 8297 2865 0
-2864 -8297 -2865 0
-2865 2644 -2613 0
-2865 2643 2613 2866 0
-2865 -2643 2613 -2866 0
2865 -2644 -2613 0
2865 2643 2613 -2866 0
2865 -2643 2613 2866 0
2866 -2640 2708 0
2866 2708 -2863 0
-2866 -2708 0
-2866 2640 2863 0
-2867 2868 2878 0
2867 -2868 0
2867 -2878 0
-2868 2869 2873 0
2868 -2869 0
2868 -2873 0
-2869 2870 2871 0
2869 -2870 0
2869 -2871 0
-2870 2671 2649 0
-2870 2649 -2613 0
-2870 -2671 -2649 2613 0
2870 -2649 -2613 0
2870 2671 -2649 0
2870 -2671 2649 2613 0
-2871 2650 -2613 0
-2871 2650 2872 0
-2871 -2650 2613 -2872 0
2871 -2650 -2613 0
2871 -2650 2872 0
2871 2650 2613 -2872 0
2872 -2671 2649 0
-2872 2671 0
-2872 -2649 0
-2873 2874 2876 0
2873 -2874 0
2873 -2876 0
-2874 2653 -2613 0
-2874 2653 2875 0
-2874 -2653 2613 -2875 0
2874 -2653 -2613 0
2874 -2653 2875 0
2874 2653 2613 -2875 0
2875 -2671 2648 0
-2875 2671 0
-2875 -2648 0
-2876 2655 -2613 0
-2876 2655 2877 0
-2876 -2655 2613 -2877 0
2876 -2655 -2613 0
2876 -2655 2877 0
2876 2655 2613 -2877 0
2877 2653 -2875 0
-2877 -2653 0
-2877 2875 0
-2878 2879 2885 0
2878 -2879 0
2878 -2885 0
-2879 2880 2882 0
2879 -2880 0
2879 -2882 0
-2880 2659 -2613 0
-2880 2659 2881 0
-2880 -2659 2613 -2881 0
2880 -2659 -2613 0
2880 -2659 2881 0
2880 2659 2613 -2881 0
2881 -2671 2648 2652 0
-2881 2671 0
-2881 -2648 0
-2881 -2652 0
2882 -8291 2883 0
2882 8291 -2883 0
-2882 8291 2883 0
-2882 -8291 -2883 0
-2883 2661 -2613 0
-2883 2661 2884 0
-2883 -2661 2613 -2884 0
2883 -2661 -2613 0
2883 -2661 2884 0
2883 2661 2613 -2884 0
2884 2659 -2881 0
-2884 -2659 0
-2884 2881 0
-2885 2886 2889 0
2885 -2886 0
2885 -2889 0
2886 -8292 2887 0
2886 8292 -2887 0
-2886 8292 2887 0
-2886 -8292 -2887 0
-2887 2665 -2613 0
-2887 2664 2613 2888 0
-2887 -2664 2613 -2888 0
2887 -2665 -2613 0
2887 2664 2613 -2888 0
2887 -2664 2613 2888 0
2888 2658 -2881 0
-2888 -2658 0
-2888 2881 0
2889 -8293 2890 0
2889 8293 -2890 0
-2889 8293 2890 0
-2889 -8293 -2890 0
-2890 2668 -2613 0
-2890 2667 2613 2891 0
-2890 -2667 2613 -2891 0
2890 -2668 -2613 0
2890 2667 2613 -2891 0
2890 -2667 2613 2891 0
2891 -2664 2701 0
2891 2701 -2888 0
-2891 -2701 0
-2891 2664 2888 0
2892 -2835 2918 2925 0
2892 -2893 2918 2925 0
-2892 -2925 0
-2892 -2918 0
-2892 2893 2835 0
2893 2894 2899 -2904 2917 0
-2893 -2917 0
-2893 -2894 0
-2893 -2899 0
-2893 2904 0
-2894 2895 2897 0
2894 -2895 0
2894 -2897 0
-2895 2673 -2613 0
-2895 2673 2896 0
-2895 -2673 2613 -2896 0
2895 -2673 -2613 0
2895 -2673 2896 0
2895 2673 2613 -2896 0
2896 -2683 2695 0
-2896 2683 0
-2896 -2695 0
-2897 2675 -2613 0
-2897 2675 2898 0
-2897 -2675 2613 -2898 0
2897 -2675 -2613 0
2897 -2675 2898 0
2897 2675 2613 -2898 0
2898 2673 -2896 0
-2898 -2673 0
-2898 2896 0
-2899 2900 2902 0
2899 -2900 0
2899 -2902 0
-2900 2678 -2613 0
-2900 2678 2901 0
-2900 -2678 2613 -2901 0
2900 -2678 -2613 0
2900 -2678 2901 0
2900 2678 2613 -2901 0
2901 2672 -2896 0
-2901 -2672 0
-2901 2896 0
-2902 2680 -2613 0
-2902 2680 2903 0
-2902 -2680 2613 -2903 0
2902 -2680 -2613 0
2902 -2680 2903 0
2902 2680 2613 -2903 0
2903 2678 -2901 0
-2903 -2678 0
-2903 2901 0
-2904 2905 2916 0
2904 -2905 0
2904 -2916 0
-2905 2906 2911 0
2905 -2906 0
2905 -2911 0
-2906 2907 2909 0
2906 -2907 0
2906 -2909 0
-2907 2685 -2613 0
-2907 2613 2908 0
2907 -2685 -2613 0
2907 2613 -2908 0
2908 -2685 0
-2908 2685 0
-2909 2687 -2613 0
-2909 2613 2910 0
2909 -2687 -2613 0
2909 2613 -2910 0
2910 -2687 0
-2910 2687 0
-2911 2912 2914 0
2911 -2912 0
2911 -2914 0
-2912 2690 -2613 0
-2912 2613 2913 0
2912 -2690 -2613 0
2912 2613 -2913 0
2913 -2690 0
-2913 2690 0
-2914 2692 -2613 0
-2914 2613 2915 0
2914 -2692 -2613 0
2914 2613 -2915 0
2915 -2692 0
-2915 2692 0
-2916 2894 2899 0
2916 -2894 0
2916 -2899 0
-2917 2906 2911 0
2917 -2906 0
2917 -2911 0
2918 2836 -2919 0
-2918 -2836 0
-2918 2919 0
-2919 -2885 2920 2923 0
-2919 2920 2922 2923 0
2919 -2923 0
2919 -2920 0
2919 2885 -2922 0
2920 2878 -2921 0
-2920 -2878 0
-2920 2921 0
-2921 2869 2873 0
2921 -2869 0
2921 -2873 0
-2922 -8291 2880 0
-2922 2880 2883 0
-2922 -8291 2883 0
2922 8291 -2883 0
2922 -2880 -2883 0
2922 8291 -2880 0
-2923 -8293 2890 0
-2923 2890 2924 0
-2923 -8293 2924 0
2923 -2890 -2924 0
2923 8293 -2890 0
2923 8293 -2924 0
2924 8292 -2887 0
-2924 -8292 0
-2924 2887 0
-2925 -2838 2926 2934 0
-2925 2926 2932 2934 0
2925 -2934 0
2925 -2926 0
2925 2838 -2932 0
2926 2837 -2927 0
-2926 -2837 0
-2926 2927 0
-2927 -8297 2928 2931 0
-2927 -8297 2865 2928 0
-2927 2865 2928 2931 0
2927 -2865 -2931 0
2927 8297 -2931 0
2927 -2928 0
2927 8297 -2865 0
2928 2860 -2929 0
-2928 -2860 0
-2928 2929 0
-2929 -8295 2858 0
-2929 2858 2930 0
-2929 -8295 2930 0
2929 -2858 -2930 0
2929 8295 -2858 0
2929 8295 -2930 0
2930 8294 -2856 0
-2930 -8294 0
-2930 2856 0
2931 8296 -2862 0
-2931 -8296 0
-2931 2862 0
-2932 -8299 2851 0
-2932 2851 2933 0
-2932 -8299 2933 0
2932 -2851 -2933 0
2932 8299 -2851 0
2932 8299 -2933 0
2933 8298 -2849 0
-2933 -8298 0
-2933 2849 0
-2934 -8301 2845 0
-2934 2845 2935 0
-2934 -8301 2935 0
2934 -2845 -2935 0
2934 8301 -2845 0
2934 8301 -2935 0
2935 8300 -2840 0
-2935 -8300 0
-2935 2840 0
-2936 2494 2937 2904 0
2936 -2494 0
2936 -2937 0
2936 -2904 0
-2937 2938 2941 0
2937 -2938 0
2937 -2941 0
-2938 2939 2940 0
2938 -2939 0
2938 -2940 0
-2939 2488 0
2939 -2488 0
-2940 2717 0
2940 -2717 0
-2941 2942 2943 0
2941 -2942 0
2941 -2943 0
-2942 2719 0
2942 -2719 0
-2943 2720 0
2943 -2720 0
2944 -1317 0
2944 -2945 -3002 0
2944 -3002 -3046 0
-2944 1317 3002 0
-2944 1317 2945 3046 0
-2945 2946 2977 0
2945 -2946 0
2945 -2977 0
-2946 2947 2963 0
2946 -2947 0
2946 -2963 0
-2947 2948 2957 0
2947 -2948 0
2947 -2957 0
-2948 2949 2954 0
2948 -2949 0
2948 -2954 0
2949 -8300 2950 0
2949 8300 -2950 0
-2949 8300 2950 0
-2949 -8300 -2950 0
-2950 2727 -2721 0
-2950 2726 2721 2951 0
-2950 -2726 2721 -2951 0
2950 -2727 -2721 0
2950 2726 2721 -2951 0
2950 -2726 2721 2951 0
2951 -2734 2817 0
2951 2817 -2952 0
-2951 -2817 0
-2951 2734 2952 0
2952 -2740 2812 0
2952 2812 -2953 0
-2952 -2812 0
-2952 2740 2953 0
2953 -2779 2805 0
2953 -2754 2805 0
-2953 -2805 0
-2953 2779 2754 0
2954 -8301 2955 0
2954 8301 -2955 0
-2954 8301 2955 0
-2954 -8301 -2955 0
-2955 2732 -2721 0
-2955 2731 2721 2956 0
-2955 -2731 2721 -2956 0
2955 -2732 -2721 0
2955 2731 2721 -2956 0
2955 -2731 2721 2956 0
2956 -2726 2820 0
2956 2820 -2951 0
-2956 -2820 0
-2956 2726 2951 0
-2957 2958 2960 0
2957 -2958 0
2957 -2960 0
2958 -8298 2959 0
2958 8298 -2959 0
-2958 8298 2959 0
-2958 -8298 -2959 0
-2959 2736 -2721 0
-2959 2735 2721 2952 0
-2959 -2735 2721 -2952 0
2959 -2736 -2721 0
2959 2735 2721 -2952 0
2959 -2735 2721 2952 0
2960 -8299 2961 0
2960 8299 -2961 0
-2960 8299 2961 0
-2960 -8299 -2961 0
-2961 2738 -2721 0
-2961 2737 2721 2962 0
-2961 -2737 2721 -2962 0
2961 -2738 -2721 0
2961 2737 2721 -2962 0
2961 -2737 2721 2962 0
2962 -2735 2818 0
2962 2818 -2952 0
-2962 -2818 0
-2962 2735 2952 0
-2963 2964 2970 0
2963 -2964 0
2963 -2970 0
-2964 2965 2967 0
2964 -2965 0
2964 -2967 0
2965 -8294 2966 0
2965 8294 -2966 0
-2965 8294 2966 0
-2965 -8294 -2966 0
-2966 2743 -2721 0
-2966 2742 2721 2953 0
-2966 -2742 2721 -2953 0
2966 -2743 -2721 0
2966 2742 2721 -2953 0
2966 -2742 2721 2953 0
2967 -8295 2968 0
2967 8295 -2968 0
-2967 8295 2968 0
-2967 -8295 -2968 0
-2968 2745 -2721 0
-2968 2744 2721 2969 0
-2968 -2744 2721 -2969 0
2968 -2745 -2721 0
2968 2744 2721 -2969 0
2968 -2744 2721 2969 0
2969 -2742 2815 0
2969 2815 -2953 0
-2969 -2815 0
-2969 2742 2953 0
-2970 2971 2974 0
2970 -2971 0
2970 -2974 0
2971 -8296 2972 0
2971 8296 -2972 0
-2971 8296 2972 0
-2971 -8296 -2972 0
-2972 2749 -2721 0
-2972 2748 2721 2973 0
-2972 -2748 2721 -2973 0
2972 -2749 -2721 0
2972 2748 2721 -2973 0
2972 -2748 2721 2973 0
2973 -2741 2814 0
2973 2814 -2953 0
-2973 -2814 0
-2973 2741 2953 0
2974 -8297 2975 0
2974 8297 -2975 0
-2974 8297 2975 0
-2974 -8297 -2975 0
-2975 2752 -2721 0
-2975 2751 2721 2976 0
-2975 -2751 2721 -2976 0
2975 -2752 -2721 0
2975 2751 2721 -2976 0
2975 -2751 2721 2976 0
2976 -2748 2816 0
2976 2816 -2973 0
-2976 -2816 0
-2976 2748 2973 0
-2977 2978 2988 0
2977 -2978 0
2977 -2988 0
-2978 2979 2983 0
2978 -2979 0
2978 -2983 0
-2979 2980 2981 0
2979 -2980 0
2979 -2981 0
-2980 2779 2757 0
-2980 2757 -2721 0
-2980 -2779 -2757 2721 0
2980 -2757 -2721 0
2980 2779 -2757 0
2980 -2779 2757 2721 0
-2981 2758 -2721 0
-2981 2758 2982 0
-2981 -2758 2721 -2982 0
2981 -2758 -2721 0
2981 -2758 2982 0
2981 2758 2721 -2982 0
2982 -2779 2757 0
-2982 2779 0
-2982 -2757 0
-2983 2984 2986 0
2983 -2984 0
2983 -2986 0
-2984 2761 -2721 0
-2984 2761 2985 0
-2984 -2761 2721 -2985 0
2984 -2761 -2721 0
2984 -2761 2985 0
2984 2761 2721 -2985 0
2985 -2779 2756 0
-2985 2779 0
-2985 -2756 0
-2986 2763 -2721 0
-2986 2763 2987 0
-2986 -2763 2721 -2987 0
2986 -2763 -2721 0
2986 -2763 2987 0
2986 2763 2721 -2987 0
2987 2761 -2985 0
-2987 -2761 0
-2987 2985 0
-2988 2989 2995 0
2988 -2989 0
2988 -2995 0
-2989 2990 2992 0
2989 -2990 0
2989 -2992 0
-2990 2767 -2721 0
-2990 2767 2991 0
-2990 -2767 2721 -2991 0
2990 -2767 -2721 0
2990 -2767 2991 0
2990 2767 2721 -2991 0
2991 -2779 2756 2760 0
-2991 2779 0
-2991 -2756 0
-2991 -2760 0
2992 -8291 2993 0
2992 8291 -2993 0
-2992 8291 2993 0
-2992 -8291 -2993 0
-2993 2769 -2721 0
-2993 2769 2994 0
-2993 -2769 2721 -2994 0
2993 -2769 -2721 0
2993 -2769 2994 0
2993 2769 2721 -2994 0
2994 2767 -2991 0
-2994 -2767 0
-2994 2991 0
-2995 2996 2999 0
2995 -2996 0
2995 -2999 0
2996 -8292 2997 0
2996 8292 -2997 0
-2996 8292 2997 0
-2996 -8292 -2997 0
-2997 2773 -2721 0
-2997 2772 2721 2998 0
-2997 -2772 2721 -2998 0
2997 -2773 -2721 0
2997 2772 2721 -2998 0
2997 -2772 2721 2998 0
2998 2766 -2991 0
-2998 -2766 0
-2998 2991 0
2999 -8293 3000 0
2999 8293 -3000 0
-2999 8293 3000 0
-2999 -8293 -3000 0
-3000 2776 -2721 0
-3000 2775 2721 3001 0
-3000 -2775 2721 -3001 0
3000 -2776 -2721 0
3000 2775 2721 -3001 0
3000 -2775 2721 3001 0
3001 -8291 2773 0
3001 2773 -2998 0
3001 -8291 -2998 0
-3001 8291 2998 0
-3001 -2773 2998 0
-3001 8291 -2773 0
3002 -2945 3028 3035 0
3002 -3003 3028 3035 0
-3002 -3035 0
-3002 -3028 0
-3002 3003 2945 0
3003 3004 3009 -3014 3027 0
-3003 -3027 0
-3003 -3004 0
-3003 -3009 0
-3003 3014 0
-3004 3005 3007 0
3004 -3005 0
3004 -3007 0
-3005 2781 -2721 0
-3005 2781 3006 0
-3005 -2781 2721 -3006 0
3005 -2781 -2721 0
3005 -2781 3006 0
3005 2781 2721 -3006 0
3006 -2791 2803 0
-3006 2791 0
-3006 -2803 0
-3007 2783 -2721 0
-3007 2783 3008 0
-3007 -2783 2721 -3008 0
3007 -2783 -2721 0
3007 -2783 3008 0
3007 2783 2721 -3008 0
3008 2781 -3006 0
-3008 -2781 0
-3008 3006 0
-3009 3010 3012 0
3009 -3010 0
3009 -3012 0
-3010 2786 -2721 0
-3010 2786 3011 0
-3010 -2786 2721 -3011 0
3010 -2786 -2721 0
3010 -2786 3011 0
3010 2786 2721 -3011 0
3011 2780 -3006 0
-3011 -2780 0
-3011 3006 0
-3012 2788 -2721 0
-3012 2788 3013 0
-3012 -2788 2721 -3013 0
3012 -2788 -2721 0
3012 -2788 3013 0
3012 2788 2721 -3013 0
3013 2786 -3011 0
-3013 -2786 0
-3013 3011 0
-3014 3015 3026 0
3014 -3015 0
3014 -3026 0
-3015 3016 3021 0
3015 -3016 0
3015 -3021 0
-3016 3017 3019 0
3016 -3017 0
3016 -3019 0
-3017 2793 -2721 0
-3017 2721 3018 0
3017 -2793 -2721 0
3017 2721 -3018 0
3018 -2793 0
-3018 2793 0
-3019 2795 -2721 0
-3019 2721 3020 0
3019 -2795 -2721 0
3019 2721 -3020 0
3020 -2795 0
-3020 2795 0
-3021 3022 3024 0
3021 -3022 0
3021 -3024 0
-3022 2798 -2721 0
-3022 2721 3023 0
3022 -2798 -2721 0
3022 2721 -3023 0
3023 -2798 0
-3023 2798 0
-3024 2800 -2721 0
-3024 2721 3025 0
3024 -2800 -2721 0
3024 2721 -3025 0
3025 -2800 0
-3025 2800 0
-3026 3004 3009 0
3026 -3004 0
3026 -3009 0
-3027 3016 3021 0
3027 -3016 0
3027 -3021 0
3028 2946 -3029 0
-3028 -2946 0
-3028 3029 0
-3029 -2995 3030 3033 0
-3029 3030 3032 3033 0
3029 -3033 0
3029 -3030 0
3029 2995 -3032 0
3030 2988 -3031 0
-3030 -2988 0
-3030 3031 0
-3031 2979 2983 0
3031 -2979 0
3031 -2983 0
-3032 -8291 2990 0
-3032 2990 2993 0
-3032 -8291 2993 0
3032 8291 -2993 0
3032 -2990 -2993 0
3032 8291 -2990 0
-3033 -8293 3000 0
-3033 3000 3034 0
-3033 -8293 3034 0
3033 -3000 -3034 0
3033 8293 -3000 0
3033 8293 -3034 0
3034 8292 -2997 0
-3034 -8292 0
-3034 2997 0
-3035 -2948 3036 3044 0
-3035 3036 3042 3044 0
3035 -3044 0
3035 -3036 0
3035 2948 -3042 0
3036 2947 -3037 0
-3036 -2947 0
-3036 3037 0
-3037 -8297 3038 3041 0
-3037 -8297 2975 3038 0
-3037 2975 3038 3041 0
3037 -2975 -3041 0
3037 8297 -3041 0
3037 -3038 0
3037 8297 -2975 0
3038 2970 -3039 0
-3038 -2970 0
-3038 3039 0
-3039 -8295 2968 0
-3039 2968 3040 0
-3039 -8295 3040 0
3039 -2968 -3040 0
3039 8295 -2968 0
3039 8295 -3040 0
3040 8294 -2966 0
-3040 -8294 0
-3040 2966 0
3041 8296 -2972 0
-3041 -8296 0
-3041 2972 0
-3042 -8299 2961 0
-3042 2961 3043 0
-3042 -8299 3043 0
3042 -2961 -3043 0
3042 8299 -2961 0
3042 8299 -3043 0
3043 8298 -2959 0
-3043 -8298 0
-3043 2959 0
-3044 -8301 2955 0
-3044 2955 3045 0
-3044 -8301 3045 0
3044 -2955 -3045 0
3044 8301 -2955 0
3044 8301 -3045 0
3045 8300 -2950 0
-3045 -8300 0
-3045 2950 0
-3046 2602 3047 3014 0
3046 -2602 0
3046 -3047 0
3046 -3014 0
-3047 3048 3051 0
3047 -3048 0
3047 -3051 0
-3048 3049 3050 0
3048 -3049 0
3048 -3050 0
-3049 2595 0
3049 -2595 0
-3050 2826 0
3050 -2826 0
-3051 3052 3053 0
3051 -3052 0
3051 -3053 0
-3052 2828 0
3052 -2828 0
-3053 2829 0
3053 -2829 0
3054 -1116 -1162 0
3054 1115 -1162 3055 0
-3054 1162 0
-3054 -1115 1116 0
-3054 1116 -3055 0
3055 1092 -3056 0
3055 -456 -1092 -2387 0
3055 456 -1092 2387 0
-3055 1092 3056 0
-3055 -456 -1092 2387 0
-3055 456 -1092 -2387 0
3056 -1463 0
3056 -3057 -3115 0
3056 -3115 -3160 0
-3056 1463 3115 0
-3056 1463 3057 3160 0
-3057 3058 3089 0
3057 -3058 0
3057 -3089 0
-3058 3059 3075 0
3058 -3059 0
3058 -3075 0
-3059 3060 3069 0
3059 -3060 0
3059 -3069 0
-3060 3061 3066 0
3060 -3061 0
3060 -3066 0
3061 -8301 3062 0
3061 8301 -3062 0
-3061 8301 3062 0
-3061 -8301 -3062 0
-3062 2840 -2834 0
-3062 2839 2834 3063 0
-3062 -2839 2834 -3063 0
3062 -2840 -2834 0
3062 2839 2834 -3063 0
3062 -2839 2834 3063 0
3063 -2847 2932 0
3063 2932 -3064 0
-3063 -2932 0
-3063 2847 3064 0
3064 -2853 2927 0
3064 2927 -3065 0
-3064 -2927 0
-3064 2853 3065 0
3065 -2893 2919 0
3065 -2867 2919 0
-3065 -2919 0
-3065 2893 2867 0
3066 -8302 3067 0
3066 8302 -3067 0
-3066 8302 3067 0
-3066 -8302 -3067 0
-3067 2845 -2834 0
-3067 2844 2834 3068 0
-3067 -2844 2834 -3068 0
3067 -2845 -2834 0
3067 2844 2834 -3068 0
3067 -2844 2834 3068 0
3068 -2839 2935 0
3068 2935 -3063 0
-3068 -2935 0
-3068 2839 3063 0
-3069 3070 3072 0
3069 -3070 0
3069 -3072 0
3070 -8299 3071 0
3070 8299 -3071 0
-3070 8299 3071 0
-3070 -8299 -3071 0
-3071 2849 -2834 0
-3071 2848 2834 3064 0
-3071 -2848 2834 -3064 0
3071 -2849 -2834 0
3071 2848 2834 -3064 0
3071 -2848 2834 3064 0
3072 -8300 3073 0
3072 8300 -3073 0
-3072 8300 3073 0
-3072 -8300 -3073 0
-3073 2851 -2834 0
-3073 2850 2834 3074 0
-3073 -2850 2834 -3074 0
3073 -2851 -2834 0
3073 2850 2834 -3074 0
3073 -2850 2834 3074 0
3074 -2848 2933 0
3074 2933 -3064 0
-3074 -2933 0
-3074 2848 3064 0
-3075 3076 3082 0
3075 -3076 0
3075 -3082 0
-3076 3077 3079 0
3076 -3077 0
3076 -3079 0
3077 -8295 3078 0
3077 8295 -3078 0
-3077 8295 3078 0
-3077 -8295 -3078 0
-3078 2856 -2834 0
-3078 2855 2834 3065 0
-3078 -2855 2834 -3065 0
3078 -2856 -2834 0
3078 2855 2834 -3065 0
3078 -2855 2834 3065 0
3079 -8296 3080 0
3079 8296 -3080 0
-3079 8296 3080 0
-3079 -8296 -3080 0
-3080 2858 -2834 0
-3080 2857 2834 3081 0
-3080 -2857 2834 -3081 0
3080 -2858 -2834 0
3080 2857 2834 -3081 0
3080 -2857 2834 3081 0
3081 -2855 2930 0
3081 2930 -3065 0
-3081 -2930 0
-3081 2855 3065 0
-3082 3083 3086 0
3082 -3083 0
3082 -3086 0
3083 -8297 3084 0
3083 8297 -3084 0
-3083 8297 3084 0
-3083 -8297 -3084 0
-3084 2862 -2834 0
-3084 2861 2834 3085 0
-3084 -2861 2834 -3085 0
3084 -2862 -2834 0
3084 2861 2834 -3085 0
3084 -2861 2834 3085 0
3085 -2854 2929 0
3085 2929 -3065 0
-3085 -2929 0
-3085 2854 3065 0
3086 -8298 3087 0
3086 8298 -3087 0
-3086 8298 3087 0
-3086 -8298 -3087 0
-3087 2865 -2834 0
-3087 2864 2834 3088 0
-3087 -2864 2834 -3088 0
3087 -2865 -2834 0
3087 2864 2834 -3088 0
3087 -2864 2834 3088 0
3088 -2861 2931 0
3088 2931 -3085 0
-3088 -2931 0
-3088 2861 3085 0
-3089 3090 3100 0
3089 -3090 0
3089 -3100 0
-3090 3091 3095 0
3090 -3091 0
3090 -3095 0
-3091 3092 3093 0
3091 -3092 0
3091 -3093 0
-3092 2893 2870 0
-3092 2870 -2834 0
-3092 -2893 -2870 2834 0
3092 -2870 -2834 0
3092 2893 -2870 0
3092 -2893 2870 2834 0
-3093 2871 -2834 0
-3093 2871 3094 0
-3093 -2871 2834 -3094 0
3093 -2871 -2834 0
3093 -2871 3094 0
3093 2871 2834 -3094 0
3094 -2893 2870 0
-3094 2893 0
-3094 -2870 0
-3095 3096 3098 0
3095 -3096 0
3095 -3098 0
-3096 2874 -2834 0
-3096 2874 3097 0
-3096 -2874 2834 -3097 0
3096 -2874 -2834 0
3096 -2874 3097 0
3096 2874 2834 -3097 0
3097 -2893 2869 0
-3097 2893 0
-3097 -2869 0
-3098 2876 -2834 0
-3098 2876 3099 0
-3098 -2876 2834 -3099 0
3098 -2876 -2834 0
3098 -2876 3099 0
3098 2876 2834 -3099 0
3099 2874 -3097 0
-3099 -2874 0
-3099 3097 0
-3100 3101 3108 0
3100 -3101 0
3100 -3108 0
-3101 3102 3105 0
3101 -3102 0
3101 -3105 0
3102 -8291 3103 0
3102 8291 -3103 0
-3102 8291 3103 0
-3102 -8291 -3103 0
-3103 2880 -2834 0
-3103 2880 3104 0
-3103 -2880 2834 -3104 0
3103 -2880 -2834 0
3103 -2880 3104 0
3103 2880 2834 -3104 0
3104 -2893 2869 2873 0
-3104 2893 0
-3104 -2869 0
-3104 -2873 0
3105 -8292 3106 0
3105 8292 -3106 0
-3105 8292 3106 0
-3105 -8292 -3106 0
-3106 2883 -2834 0
-3106 2882 2834 3107 0
-3106 -2882 2834 -3107 0
3106 -2883 -2834 0
3106 2882 2834 -3107 0
3106 -2882 2834 3107 0
3107 2880 -3104 0
-3107 -2880 0
-3107 3104 0
-3108 3109 3112 0
3108 -3109 0
3108 -3112 0
3109 -8293 3110 0
3109 8293 -3110 0
-3109 8293 3110 0
-3109 -8293 -3110 0
-3110 2887 -2834 0
-3110 2886 2834 3111 0
-3110 -2886 2834 -3111 0
3110 -2887 -2834 0
3110 2886 2834 -3111 0
3110 -2886 2834 3111 0
3111 -8291 2883 0
3111 -8291 2880 -3104 0
3111 2880 2883 -3104 0
-3111 -2883 3104 0
-3111 8291 -2880 0
-3111 8291 -2883 0
-3111 -2880 -2883 0
-3111 8291 3104 0
3112 -8294 3113 0
3112 8294 -3113 0
-3112 8294 3113 0
-3112 -8294 -3113 0
-3113 2890 -2834 0
-3113 2889 2834 3114 0
-3113 -2889 2834 -3114 0
3113 -2890 -2834 0
3113 2889 2834 -3114 0
3113 -2889 2834 3114 0
3114 -2886 2924 0
3114 2924 -3111 0
-3114 -2924 0
-3114 2886 3111 0
3115 -3057 3141 3149 0
3115 -3116 3141 3149 0
-3115 -3149 0
-3115 -3141 0
-3115 3116 3057 0
3116 3117 3122 -3127 3140 0
-3116 -3140 0
-3116 -3117 0
-3116 -3122 0
-3116 3127 0
-3117 3118 3120 0
3117 -3118 0
3117 -3120 0
-3118 2895 -2834 0
-3118 2895 3119 0
-3118 -2895 2834 -3119 0
3118 -2895 -2834 0
3118 -2895 3119 0
3118 2895 2834 -3119 0
3119 -2905 2917 0
-3119 2905 0
-3119 -2917 0
-3120 2897 -2834 0
-3120 2897 3121 0
-3120 -2897 2834 -3121 0
3120 -2897 -2834 0
3120 -2897 3121 0
3120 2897 2834 -3121 0
3121 2895 -3119 0
-3121 -2895 0
-3121 3119 0
-3122 3123 3125 0
3122 -3123 0
3122 -3125 0
-3123 2900 -2834 0
-3123 2900 3124 0
-3123 -2900 2834 -3124 0
3123 -2900 -2834 0
3123 -2900 3124 0
3123 2900 2834 -3124 0
3124 2894 -3119 0
-3124 -2894 0
-3124 3119 0
-3125 2902 -2834 0
-3125 2902 3126 0
-3125 -2902 2834 -3126 0
3125 -2902 -2834 0
3125 -2902 3126 0
3125 2902 2834 -3126 0
3126 2900 -3124 0
-3126 -2900 0
-3126 3124 0
-3127 3128 3139 0
3127 -3128 0
3127 -3139 0
-3128 3129 3134 0
3128 -3129 0
3128 -3134 0
-3129 3130 3132 0
3129 -3130 0
3129 -3132 0
-3130 2907 -2834 0
-3130 2834 3131 0
3130 -2907 -2834 0
3130 2834 -3131 0
3131 -2907 0
-3131 2907 0
-3132 2909 -2834 0
-3132 2834 3133 0
3132 -2909 -2834 0
3132 2834 -3133 0
3133 -2909 0
-3133 2909 0
-3134 3135 3137 0
3134 -3135 0
3134 -3137 0
-3135 2912 -2834 0
-3135 2834 3136 0
3135 -2912 -2834 0
3135 2834 -3136 0
3136 -2912 0
-3136 2912 0
-3137 2914 -2834 0
-3137 2834 3138 0
3137 -2914 -2834 0
3137 2834 -3138 0
3138 -2914 0
-3138 2914 0
-3139 3117 3122 0
3139 -3117 0
3139 -3122 0
-3140 3129 3134 0
3140 -3129 0
3140 -3134 0
3141 3058 -3142 0
-3141 -3058 0
-3141 3142 0
-3142 -3108 3143 3147 0
-3142 3143 3145 3147 0
3142 -3147 0
3142 -3143 0
3142 3108 -3145 0
3143 3100 -3144 0
-3143 -3100 0
-3143 3144 0
-3144 3091 3095 0
3144 -3091 0
3144 -3095 0
-3145 -8292 3106 0
-3145 3106 3146 0
-3145 -8292 3146 0
3145 -3106 -3146 0
3145 8292 -3106 0
3145 8292 -3146 0
3146 8291 -3103 0
-3146 -8291 0
-3146 3103 0
-3147 -8294 3113 0
-3147 3113 3148 0
-3147 -8294 3148 0
3147 -3113 -3148 0
3147 8294 -3113 0
3147 8294 -3148 0
3148 8293 -3110 0
-3148 -8293 0
-3148 3110 0
-3149 -3060 3150 3158 0
-3149 3150 3156 3158 0
3149 -3158 0
3149 -3150 0
3149 3060 -3156 0
3150 3059 -3151 0
-3150 -3059 0
-3150 3151 0
-3151 -8298 3152 3155 0
-3151 -8298 3087 3152 0
-3151 3087 3152 3155 0
3151 -3087 -3155 0
3151 8298 -3155 0
3151 -3152 0
3151 8298 -3087 0
3152 3082 -3153 0
-3152 -3082 0
-3152 3153 0
-3153 -8296 3080 0
-3153 3080 3154 0
-3153 -8296 3154 0
3153 -3080 -3154 0
3153 8296 -3080 0
3153 8296 -3154 0
3154 8295 -3078 0
-3154 -8295 0
-3154 3078 0
3155 8297 -3084 0
-3155 -8297 0
-3155 3084 0
-3156 -8300 3073 0
-3156 3073 3157 0
-3156 -8300 3157 0
3156 -3073 -3157 0
3156 8300 -3073 0
3156 8300 -3157 0
3157 8299 -3071 0
-3157 -8299 0
-3157 3071 0
-3158 -8302 3067 0
-3158 3067 3159 0
-3158 -8302 3159 0
3158 -3067 -3159 0
3158 8302 -3067 0
3158 8302 -3159 0
3159 8301 -3062 0
-3159 -8301 0
-3159 3062 0
-3160 3161 3127 3168 3173 0
3160 -3173 0
3160 -3161 0
3160 -3168 0
3160 -3127 0
-3161 3162 3165 0
3161 -3162 0
3161 -3165 0
-3162 3163 3164 0
3162 -3163 0
3162 -3164 0
-3163 2716 0
3163 -2716 0
-3164 2940 0
3164 -2940 0
-3165 3166 3167 0
3165 -3166 0
3165 -3167 0
-3166 2942 0
3166 -2942 0
-3167 2943 0
3167 -2943 0
-3168 3169 3171 0
3168 -3169 0
3168 -3171 0
-3169 3170 0
3169 -3170 0
-3170 444 0
3170 -444 0
-3171 3172 0
3171 -3172 0
-3172 391 0
3172 -391 0
-3173 3174 3175 0
3173 -3174 0
3173 -3175 0
-3174 342 0
3174 -342 0
-3175 292 0
3175 -292 0
3176 -1463 0
3176 -3177 -3235 0
3176 -3235 -3280 0
-3176 1463 3235 0
-3176 1463 3177 3280 0
-3177 3178 3209 0
3177 -3178 0
3177 -3209 0
-3178 3179 3195 0
3178 -3179 0
3178 -3195 0
-3179 3180 3189 0
3179 -3180 0
3179 -3189 0
-3180 3181 3186 0
3180 -3181 0
3180 -3186 0
3181 -8301 3182 0
3181 8301 -3182 0
-3181 8301 3182 0
-3181 -8301 -3182 0
-3182 2950 -2944 0
-3182 2949 2944 3183 0
-3182 -2949 2944 -3183 0
3182 -2950 -2944 0
3182 2949 2944 -3183 0
3182 -2949 2944 3183 0
3183 -2957 3042 0
3183 3042 -3184 0
-3183 -3042 0
-3183 2957 3184 0
3184 -2963 3037 0
3184 3037 -3185 0
-3184 -3037 0
-3184 2963 3185 0
3185 -3003 3029 0
3185 -2977 3029 0
-3185 -3029 0
-3185 3003 2977 0
3186 -8302 3187 0
3186 8302 -3187 0
-3186 8302 3187 0
-3186 -8302 -3187 0
-3187 2955 -2944 0
-3187 2954 2944 3188 0
-3187 -2954 2944 -3188 0
3187 -2955 -2944 0
3187 2954 2944 -3188 0
3187 -2954 2944 3188 0
3188 -2949 3045 0
3188 3045 -3183 0
-3188 -3045 0
-3188 2949 3183 0
-3189 3190 3192 0
3189 -3190 0
3189 -3192 0
3190 -8299 3191 0
3190 8299 -3191 0
-3190 8299 3191 0
-3190 -8299 -3191 0
-3191 2959 -2944 0
-3191 2958 2944 3184 0
-3191 -2958 2944 -3184 0
3191 -2959 -2944 0
3191 2958 2944 -3184 0
3191 -2958 2944 3184 0
3192 -8300 3193 0
3192 8300 -3193 0
-3192 8300 3193 0
-3192 -8300 -3193 0
-3193 2961 -2944 0
-3193 2960 2944 3194 0
-3193 -2960 2944 -3194 0
3193 -2961 -2944 0
3193 2960 2944 -3194 0
3193 -2960 2944 3194 0
3194 -2958 3043 0
3194 3043 -3184 0
-3194 -3043 0
-3194 2958 3184 0
-3195 3196 3202 0
3195 -3196 0
3195 -3202 0
-3196 3197 3199 0
3196 -3197 0
3196 -3199 0
3197 -8295 3198 0
3197 8295 -3198 0
-3197 8295 3198 0
-3197 -8295 -3198 0
-3198 2966 -2944 0
-3198 2965 2944 3185 0
-3198 -2965 2944 -3185 0
3198 -2966 -2944 0
3198 2965 2944 -3185 0
3198 -2965 2944 3185 0
3199 -8296 3200 0
3199 8296 -3200 0
-3199 8296 3200 0
-3199 -8296 -3200 0
-3200 2968 -2944 0
-3200 2967 2944 3201 0
-3200 -2967 2944 -3201 0
3200 -2968 -2944 0
3200 2967 2944 -3201 0
3200 -2967 2944 3201 0
3201 -2965 3040 0
3201 3040 -3185 0
-3201 -3040 0
-3201 2965 3185 0
-3202 3203 3206 0
3202 -3203 0
3202 -3206 0
3203 -8297 3204 0
3203 8297 -3204 0
-3203 8297 3204 0
-3203 -8297 -3204 0
-3204 2972 -2944 0
-3204 2971 2944 3205 0
-3204 -2971 2944 -3205 0
3204 -2972 -2944 0
3204 2971 2944 -3205 0
3204 -2971 2944 3205 0
3205 -2964 3039 0
3205 3039 -3185 0
-3205 -3039 0
-3205 2964 3185 0
3206 -8298 3207 0
3206 8298 -3207 0
-3206 8298 3207 0
-3206 -8298 -3207 0
-3207 2975 -2944 0
-3207 2974 2944 3208 0
-3207 -2974 2944 -3208 0
3207 -2975 -2944 0
3207 2974 2944 -3208 0
3207 -2974 2944 3208 0
3208 -2971 3041 0
3208 3041 -3205 0
-3208 -3041 0
-3208 2971 3205 0
-3209 3210 3220 0
3209 -3210 0
3209 -3220 0
-3210 3211 3215 0
3210 -3211 0
3210 -3215 0
-3211 3212 3213 0
3211 -3212 0
3211 -3213 0
-3212 3003 2980 0
-3212 2980 -2944 0
-3212 -3003 -2980 2944 0
3212 -2980 -2944 0
3212 3003 -2980 0
3212 -3003 2980 2944 0
-3213 2981 -2944 0
-3213 2981 3214 0
-3213 -2981 2944 -3214 0
3213 -2981 -2944 0
3213 -2981 3214 0
3213 2981 2944 -3214 0
3214 -3003 2980 0
-3214 3003 0
-3214 -2980 0
-3215 3216 3218 0
3215 -3216 0
3215 -3218 0
-3216 2984 -2944 0
-3216 2984 3217 0
-3216 -2984 2944 -3217 0
3216 -2984 -2944 0
3216 -2984 3217 0
3216 2984 2944 -3217 0
3217 -3003 2979 0
-3217 3003 0
-3217 -2979 0
-3218 2986 -2944 0
-3218 2986 3219 0
-3218 -2986 2944 -3219 0
3218 -2986 -2944 0
3218 -2986 3219 0
3218 2986 2944 -3219 0
3219 2984 -3217 0
-3219 -2984 0
-3219 3217 0
-3220 3221 3228 0
3220 -3221 0
3220 -3228 0
-3221 3222 3225 0
3221 -3222 0
3221 -3225 0
3222 -8291 3223 0
3222 8291 -3223 0
-3222 8291 3223 0
-3222 -8291 -3223 0
-3223 2990 -2944 0
-3223 2990 3224 0
-3223 -2990 2944 -3224 0
3223 -2990 -2944 0
3223 -2990 3224 0
3223 2990 2944 -3224 0
3224 -3003 2979 2983 0
-3224 3003 0
-3224 -2979 0
-3224 -2983 0
3225 -8292 3226 0
3225 8292 -3226 0
-3225 8292 3226 0
-3225 -8292 -3226 0
-3226 2993 -2944 0
-3226 2992 2944 3227 0
-3226 -2992 2944 -3227 0
3226 -2993 -2944 0
3226 2992 2944 -3227 0
3226 -2992 2944 3227 0
3227 2990 -3224 0
-3227 -2990 0
-3227 3224 0
-3228 3229 3232 0
3228 -3229 0
3228 -3232 0
3229 -8293 3230 0
3229 8293 -3230 0
-3229 8293 3230 0
-3229 -8293 -3230 0
-3230 2997 -2944 0
-3230 2996 2944 3231 0
-3230 -2996 2944 -3231 0
3230 -2997 -2944 0
3230 2996 2944 -3231 0
3230 -2996 2944 3231 0
3231 -8291 2993 0
3231 -8291 2990 -3224 0
3231 2990 2993 -3224 0
-3231 -2993 3224 0
-3231 8291 -2990 0
-3231 8291 -2993 0
-3231 -2990 -2993 0
-3231 8291 3224 0
3232 -8294 3233 0
3232 8294 -3233 0
-3232 8294 3233 0
-3232 -8294 -3233 0
-3233 3000 -2944 0
-3233 2999 2944 3234 0
-3233 -2999 2944 -3234 0
3233 -3000 -2944 0
3233 2999 2944 -3234 0
3233 -2999 2944 3234 0
3234 -2996 3034 0
3234 3034 -3231 0
-3234 -3034 0
-3234 2996 3231 0
3235 -3177 3261 3269 0
3235 -3236 3261 3269 0
-3235 -3269 0
-3235 -3261 0
-3235 3236 3177 0
3236 3237 3242 -3247 3260 0
-3236 -3260 0
-3236 -3237 0
-3236 -3242 0
-3236 3247 0
-3237 3238 3240 0
3237 -3238 0
3237 -3240 0
-3238 3005 -2944 0
-3238 3005 3239 0
-3238 -3005 2944 -3239 0
3238 -3005 -2944 0
3238 -3005 3239 0
3238 3005 2944 -3239 0
3239 -3015 3027 0
-3239 3015 0
-3239 -3027 0
-3240 3007 -2944 0
-3240 3007 3241 0
-3240 -3007 2944 -3241 0
3240 -3007 -2944 0
3240 -3007 3241 0
3240 3007 2944 -3241 0
3241 3005 -3239 0
-3241 -3005 0
-3241 3239 0
-3242 3243 3245 0
3242 -3243 0
3242 -3245 0
-3243 3010 -2944 0
-3243 3010 3244 0
-3243 -3010 2944 -3244 0
3243 -3010 -2944 0
3243 -3010 3244 0
3243 3010 2944 -3244 0
3244 3004 -3239 0
-3244 -3004 0
-3244 3239 0
-3245 3012 -2944 0
-3245 3012 3246 0
-3245 -3012 2944 -3246 0
3245 -3012 -2944 0
3245 -3012 3246 0
3245 3012 2944 -3246 0
3246 3010 -3244 0
-3246 -3010 0
-3246 3244 0
-3247 3248 3259 0
3247 -3248 0
3247 -3259 0
-3248 3249 3254 0
3248 -3249 0
3248 -3254 0
-3249 3250 3252 0
3249 -3250 0
3249 -3252 0
-3250 3017 -2944 0
-3250 2944 3251 0
3250 -3017 -2944 0
3250 2944 -3251 0
3251 -3017 0
-3251 3017 0
-3252 3019 -2944 0
-3252 2944 3253 0
3252 -3019 -2944 0
3252 2944 -3253 0
3253 -3019 0
-3253 3019 0
-3254 3255 3257 0
3254 -3255 0
3254 -3257 0
-3255 3022 -2944 0
-3255 2944 3256 0
3255 -3022 -2944 0
3255 2944 -3256 0
3256 -3022 0
-3256 3022 0
-3257 3024 -2944 0
-3257 2944 3258 0
3257 -3024 -2944 0
3257 2944 -3258 0
3258 -3024 0
-3258 3024 0
-3259 3237 3242 0
3259 -3237 0
3259 -3242 0
-3260 3249 3254 0
3260 -3249 0
3260 -3254 0
3261 3178 -3262 0
-3261 -3178 0
-3261 3262 0
-3262 -3228 3263 3267 0
-3262 3263 3265 3267 0
3262 -3267 0
3262 -3263 0
3262 3228 -3265 0
3263 3220 -3264 0
-3263 -3220 0
-3263 3264 0
-3264 3211 3215 0
3264 -3211 0
3264 -3215 0
-3265 -8292 3226 0
-3265 3226 3266 0
-3265 -8292 3266 0
3265 -3226 -3266 0
3265 8292 -3226 0
3265 8292 -3266 0
3266 8291 -3223 0
-3266 -8291 0
-3266 3223 0
-3267 -8294 3233 0
-3267 3233 3268 0
-3267 -8294 3268 0
3267 -3233 -3268 0
3267 8294 -3233 0
3267 8294 -3268 0
3268 8293 -3230 0
-3268 -8293 0
-3268 3230 0
-3269 -3180 3270 3278 0
-3269 3270 3276 3278 0
3269 -3278 0
3269 -3270 0
3269 3180 -3276 0
3270 3179 -3271 0
-3270 -3179 0
-3270 3271 0
-3271 -8298 3272 3275 0
-3271 -8298 3207 3272 0
-3271 3207 3272 3275 0
3271 -3207 -3275 0
3271 8298 -3275 0
3271 -3272 0
3271 8298 -3207 0
3272 3202 -3273 0
-3272 -3202 0
-3272 3273 0
-3273 -8296 3200 0
-3273 3200 3274 0
-3273 -8296 3274 0
3273 -3200 -3274 0
3273 8296 -3200 0
3273 8296 -3274 0
3274 8295 -3198 0
-3274 -8295 0
-3274 3198 0
3275 8297 -3204 0
-3275 -8297 0
-3275 3204 0
-3276 -8300 3193 0
-3276 3193 3277 0
-3276 -8300 3277 0
3276 -3193 -3277 0
3276 8300 -3193 0
3276 8300 -3277 0
3277 8299 -3191 0
-3277 -8299 0
-3277 3191 0
-3278 -8302 3187 0
-3278 3187 3279 0
-3278 -8302 3279 0
3278 -3187 -3279 0
3278 8302 -3187 0
3278 8302 -3279 0
3279 8301 -3182 0
-3279 -8301 0
-3279 3182 0
-3280 2602 3281 3247 0
3280 -2602 0
3280 -3281 0
3280 -3247 0
-3281 3282 3285 0
3281 -3282 0
3281 -3285 0
-3282 3283 3284 0
3282 -3283 0
3282 -3284 0
-3283 2824 0
3283 -2824 0
-3284 3050 0
3284 -3050 0
-3285 3286 3287 0
3285 -3286 0
3285 -3287 0
-3286 3052 0
3286 -3052 0
-3287 3053 0
3287 -3053 0
3288 -3289 3409 -3526 3645 0
3288 3289 -3409 3526 -3645 0
3288 -3289 3409 3526 -3645 0
3288 3289 -3409 -3526 3645 0
-3288 -3289 -3409 0
-3288 3289 3409 0
-3288 3526 3645 0
-3288 -3526 -3645 0
3289 -1116 -1162 0
3289 1115 -1162 3290 0
-3289 1162 0
-3289 -1115 1116 0
-3289 1116 -3290 0
3290 1092 -3293 0
3290 -513 -1092 -3291 0
3290 513 -1092 3291 0
-3290 1092 3293 0
-3290 -513 -1092 3291 0
-3290 513 -1092 -3291 0
-3291 565 1061 0
-3291 1061 3292 0
3291 -1061 0
3291 -565 -3292 0
-3292 714 1059 0
-3292 616 1059 0
3292 -1059 0
3292 -616 -714 0
3293 -1109 0
3293 -3294 -3353 0
3293 -3353 -3398 0
-3293 1109 3353 0
-3293 1109 3294 3398 0
-3294 3295 3326 0
3294 -3295 0
3294 -3326 0
-3295 3296 3312 0
3295 -3296 0
3295 -3312 0
-3296 3297 3306 0
3296 -3297 0
3296 -3306 0
-3297 3298 3303 0
3297 -3298 0
3297 -3303 0
3298 -8302 3299 0
3298 8302 -3299 0
-3298 8302 3299 0
-3298 -8302 -3299 0
-3299 3062 -3056 0
-3299 3061 3056 3300 0
-3299 -3061 3056 -3300 0
3299 -3062 -3056 0
3299 3061 3056 -3300 0
3299 -3061 3056 3300 0
3300 -3069 3156 0
3300 3156 -3301 0
-3300 -3156 0
-3300 3069 3301 0
3301 -3075 3151 0
3301 3151 -3302 0
-3301 -3151 0
-3301 3075 3302 0
3302 -3116 3142 0
3302 -3089 3142 0
-3302 -3142 0
-3302 3116 3089 0
3303 -8303 3304 0
3303 8303 -3304 0
-3303 8303 3304 0
-3303 -8303 -3304 0
-3304 3067 -3056 0
-3304 3066 3056 3305 0
-3304 -3066 3056 -3305 0
3304 -3067 -3056 0
3304 3066 3056 -3305 0
3304 -3066 3056 3305 0
3305 -3061 3159 0
3305 3159 -3300 0
-3305 -3159 0
-3305 3061 3300 0
-3306 3307 3309 0
3306 -3307 0
3306 -3309 0
3307 -8300 3308 0
3307 8300 -3308 0
-3307 8300 3308 0
-3307 -8300 -3308 0
-3308 3071 -3056 0
-3308 3070 3056 3301 0
-3308 -3070 3056 -3301 0
3308 -3071 -3056 0
3308 3070 3056 -3301 0
3308 -3070 3056 3301 0
3309 -8301 3310 0
3309 8301 -3310 0
-3309 8301 3310 0
-3309 -8301 -3310 0
-3310 3073 -3056 0
-3310 3072 3056 3311 0
-3310 -3072 3056 -3311 0
3310 -3073 -3056 0
3310 3072 3056 -3311 0
3310 -3072 3056 3311 0
3311 -3070 3157 0
3311 3157 -3301 0
-3311 -3157 0
-3311 3070 3301 0
-3312 3313 3319 0
3312 -3313 0
3312 -3319 0
-3313 3314 3316 0
3313 -3314 0
3313 -3316 0
3314 -8296 3315 0
3314 8296 -3315 0
-3314 8296 3315 0
-3314 -8296 -3315 0
-3315 3078 -3056 0
-3315 3077 3056 3302 0
-3315 -3077 3056 -3302 0
3315 -3078 -3056 0
3315 3077 3056 -3302 0
3315 -3077 3056 3302 0
3316 -8297 3317 0
3316 8297 -3317 0
-3316 8297 3317 0
-3316 -8297 -3317 0
-3317 3080 -3056 0
-3317 3079 3056 3318 0
-3317 -3079 3056 -3318 0
3317 -3080 -3056 0
3317 3079 3056 -3318 0
3317 -3079 3056 3318 0
3318 -3077 3154 0
3318 3154 -3302 0
-3318 -3154 0
-3318 3077 3302 0
-3319 3320 3323 0
3319 -3320 0
3319 -3323 0
3320 -8298 3321 0
3320 8298 -3321 0
-3320 8298 3321 0
-3320 -8298 -3321 0
-3321 3084 -3056 0
-3321 3083 3056 3322 0
-3321 -3083 3056 -3322 0
3321 -3084 -3056 0
3321 3083 3056 -3322 0
3321 -3083 3056 3322 0
3322 -3076 3153 0
3322 3153 -3302 0
-3322 -3153 0
-3322 3076 3302 0
3323 -8299 3324 0
3323 8299 -3324 0
-3323 8299 3324 0
-3323 -8299 -3324 0
-3324 3087 -3056 0
-3324 3086 3056 3325 0
-3324 -3086 3056 -3325 0
3324 -3087 -3056 0
3324 3086 3056 -3325 0
3324 -3086 3056 3325 0
3325 -3083 3155 0
3325 3155 -3322 0
-3325 -3155 0
-3325 3083 3322 0
-3326 3327 3338 0
3326 -3327 0
3326 -3338 0
-3327 3328 3332 0
3327 -3328 0
3327 -3332 0
-3328 3329 3330 0
3328 -3329 0
3328 -3330 0
-3329 3116 3092 0
-3329 3092 -3056 0
-3329 -3116 -3092 3056 0
3329 -3092 -3056 0
3329 3116 -3092 0
3329 -3116 3092 3056 0
-3330 3093 -3056 0
-3330 3093 3331 0
-3330 -3093 3056 -3331 0
3330 -3093 -3056 0
3330 -3093 3331 0
3330 3093 3056 -3331 0
3331 -3116 3092 0
-3331 3116 0
-3331 -3092 0
-3332 3333 3335 0
3332 -3333 0
3332 -3335 0
-3333 3096 -3056 0
-3333 3096 3334 0
-3333 -3096 3056 -3334 0
3333 -3096 -3056 0
3333 -3096 3334 0
3333 3096 3056 -3334 0
3334 -3116 3091 0
-3334 3116 0
-3334 -3091 0
3335 -8291 3336 0
3335 8291 -3336 0
-3335 8291 3336 0
-3335 -8291 -3336 0
-3336 3098 -3056 0
-3336 3098 3337 0
-3336 -3098 3056 -3337 0
3336 -3098 -3056 0
3336 -3098 3337 0
3336 3098 3056 -3337 0
3337 3096 -3334 0
-3337 -3096 0
-3337 3334 0
-3338 3339 3346 0
3338 -3339 0
3338 -3346 0
-3339 3340 3343 0
3339 -3340 0
3339 -3343 0
3340 -8292 3341 0
3340 8292 -3341 0
-3340 8292 3341 0
-3340 -8292 -3341 0
-3341 3103 -3056 0
-3341 3102 3056 3342 0
-3341 -3102 3056 -3342 0
3341 -3103 -3056 0
3341 3102 3056 -3342 0
3341 -3102 3056 3342 0
3342 -3116 3091 3095 0
-3342 3116 0
-3342 -3091 0
-3342 -3095 0
3343 -8293 3344 0
3343 8293 -3344 0
-3343 8293 3344 0
-3343 -8293 -3344 0
-3344 3106 -3056 0
-3344 3105 3056 3345 0
-3344 -3105 3056 -3345 0
3344 -3106 -3056 0
3344 3105 3056 -3345 0
3344 -3105 3056 3345 0
3345 -3102 3146 0
3345 3146 -3342 0
-3345 -3146 0
-3345 3102 3342 0
-3346 3347 3350 0
3346 -3347 0
3346 -3350 0
3347 -8294 3348 0
3347 8294 -3348 0
-3347 8294 3348 0
-3347 -8294 -3348 0
-3348 3110 -3056 0
-3348 3109 3056 3349 0
-3348 -3109 3056 -3349 0
3348 -3110 -3056 0
3348 3109 3056 -3349 0
3348 -3109 3056 3349 0
3349 -3101 3145 0
3349 3145 -3342 0
-3349 -3145 0
-3349 3101 3342 0
3350 -8295 3351 0
3350 8295 -3351 0
-3350 8295 3351 0
-3350 -8295 -3351 0
-3351 3113 -3056 0
-3351 3112 3056 3352 0
-3351 -3112 3056 -3352 0
3351 -3113 -3056 0
3351 3112 3056 -3352 0
3351 -3112 3056 3352 0
3352 -3109 3148 0
3352 3148 -3349 0
-3352 -3148 0
-3352 3109 3349 0
3353 -3294 3379 3387 0
3353 -3354 3379 3387 0
-3353 -3387 0
-3353 -3379 0
-3353 3354 3294 0
3354 3355 3360 -3365 3378 0
-3354 -3378 0
-3354 -3355 0
-3354 -3360 0
-3354 3365 0
-3355 3356 3358 0
3355 -3356 0
3355 -3358 0
-3356 3118 -3056 0
-3356 3118 3357 0
-3356 -3118 3056 -3357 0
3356 -3118 -3056 0
3356 -3118 3357 0
3356 3118 3056 -3357 0
3357 -3128 3140 0
-3357 3128 0
-3357 -3140 0
-3358 3120 -3056 0
-3358 3120 3359 0
-3358 -3120 3056 -3359 0
3358 -3120 -3056 0
3358 -3120 3359 0
3358 3120 3056 -3359 0
3359 3118 -3357 0
-3359 -3118 0
-3359 3357 0
-3360 3361 3363 0
3360 -3361 0
3360 -3363 0
-3361 3123 -3056 0
-3361 3123 3362 0
-3361 -3123 3056 -3362 0
3361 -3123 -3056 0
3361 -3123 3362 0
3361 3123 3056 -3362 0
3362 3117 -3357 0
-3362 -3117 0
-3362 3357 0
-3363 3125 -3056 0
-3363 3125 3364 0
-3363 -3125 3056 -3364 0
3363 -3125 -3056 0
3363 -3125 3364 0
3363 3125 3056 -3364 0
3364 3123 -3362 0
-3364 -3123 0
-3364 3362 0
-3365 3366 3377 0
3365 -3366 0
3365 -3377 0
-3366 3367 3372 0
3366 -3367 0
3366 -3372 0
-3367 3368 3370 0
3367 -3368 0
3367 -3370 0
-3368 3130 -3056 0
-3368 3056 3369 0
3368 -3130 -3056 0
3368 3056 -3369 0
3369 -3130 0
-3369 3130 0
-3370 3132 -3056 0
-3370 3056 3371 0
3370 -3132 -3056 0
3370 3056 -3371 0
3371 -3132 0
-3371 3132 0
-3372 3373 3375 0
3372 -3373 0
3372 -3375 0
-3373 3135 -3056 0
-3373 3056 3374 0
3373 -3135 -3056 0
3373 3056 -3374 0
3374 -3135 0
-3374 3135 0
-3375 3137 -3056 0
-3375 3056 3376 0
3375 -3137 -3056 0
3375 3056 -3376 0
3376 -3137 0
-3376 3137 0
-3377 3355 3360 0
3377 -3355 0
3377 -3360 0
-3378 3367 3372 0
3378 -3367 0
3378 -3372 0
3379 3295 -3380 0
-3379 -3295 0
-3379 3380 0
-3380 -3346 3381 3385 0
-3380 3381 3383 3385 0
3380 -3385 0
3380 -3381 0
3380 3346 -3383 0
3381 3338 -3382 0
-3381 -3338 0
-3381 3382 0
-3382 -8291 3336 0
-3382 -8291 3328 3333 0
-3382 3328 3333 3336 0
3382 -3328 -3336 0
3382 8291 -3333 0
3382 -3333 -3336 0
3382 8291 -3328 0
3382 8291 -3336 0
-3383 -8293 3344 0
-3383 3344 3384 0
-3383 -8293 3384 0
3383 -3344 -3384 0
3383 8293 -3344 0
3383 8293 -3384 0
3384 8292 -3341 0
-3384 -8292 0
-3384 3341 0
-3385 -8295 3351 0
-3385 3351 3386 0
-3385 -8295 3386 0
3385 -3351 -3386 0
3385 8295 -3351 0
3385 8295 -3386 0
3386 8294 -3348 0
-3386 -8294 0
-3386 3348 0
-3387 -3297 3388 3396 0
-3387 3388 3394 3396 0
3387 -3396 0
3387 -3388 0
3387 3297 -3394 0
3388 3296 -3389 0
-3388 -3296 0
-3388 3389 0
-3389 -8299 3390 3393 0
-3389 -8299 3324 3390 0
-3389 3324 3390 3393 0
3389 -3324 -3393 0
3389 8299 -3393 0
3389 -3390 0
3389 8299 -3324 0
3390 3319 -3391 0
-3390 -3319 0
-3390 3391 0
-3391 -8297 3317 0
-3391 3317 3392 0
-3391 -8297 3392 0
3391 -3317 -3392 0
3391 8297 -3317 0
3391 8297 -3392 0
3392 8296 -3315 0
-3392 -8296 0
-3392 3315 0
3393 8298 -3321 0
-3393 -8298 0
-3393 3321 0
-3394 -8301 3310 0
-3394 3310 3395 0
-3394 -8301 3395 0
3394 -3310 -3395 0
3394 8301 -3310 0
3394 8301 -3395 0
3395 8300 -3308 0
-3395 -8300 0
-3395 3308 0
-3396 -8303 3304 0
-3396 3304 3397 0
-3396 -8303 3397 0
3396 -3304 -3397 0
3396 8303 -3304 0
3396 8303 -3397 0
3397 8302 -3299 0
-3397 -8302 0
-3397 3299 0
-3398 3168 3399 3365 3406 0
3398 -3406 0
3398 -3168 0
3398 -3365 0
3398 -3399 0
-3399 3400 3403 0
3399 -3400 0
3399 -3403 0
-3400 3401 3402 0
3400 -3401 0
3400 -3402 0
-3401 2939 0
3401 -2939 0
-3402 3164 0
3402 -3164 0
-3403 3404 3405 0
3403 -3404 0
3403 -3405 0
-3404 3166 0
3404 -3166 0
-3405 3167 0
3405 -3167 0
-3406 3407 3408 0
3406 -3407 0
3406 -3408 0
-3407 342 0
3407 -342 0
-3408 292 0
3408 -292 0
3409 -1109 0
3409 -3410 -3469 0
3409 -3469 -3514 0
-3409 1109 3469 0
-3409 1109 3410 3514 0
-3410 3411 3442 0
3410 -3411 0
3410 -3442 0
-3411 3412 3428 0
3411 -3412 0
3411 -3428 0
-3412 3413 3422 0
3412 -3413 0
3412 -3422 0
-3413 3414 3419 0
3413 -3414 0
3413 -3419 0
3414 -8302 3415 0
3414 8302 -3415 0
-3414 8302 3415 0
-3414 -8302 -3415 0
-3415 3182 -3176 0
-3415 3181 3176 3416 0
-3415 -3181 3176 -3416 0
3415 -3182 -3176 0
3415 3181 3176 -3416 0
3415 -3181 3176 3416 0
3416 -3189 3276 0
3416 3276 -3417 0
-3416 -3276 0
-3416 3189 3417 0
3417 -3195 3271 0
3417 3271 -3418 0
-3417 -3271 0
-3417 3195 3418 0
3418 -3236 3262 0
3418 -3209 3262 0
-3418 -3262 0
-3418 3236 3209 0
3419 -8303 3420 0
3419 8303 -3420 0
-3419 8303 3420 0
-3419 -8303 -3420 0
-3420 3187 -3176 0
-3420 3186 3176 3421 0
-3420 -3186 3176 -3421 0
3420 -3187 -3176 0
3420 3186 3176 -3421 0
3420 -3186 3176 3421 0
3421 -3181 3279 0
3421 3279 -3416 0
-3421 -3279 0
-3421 3181 3416 0
-3422 3423 3425 0
3422 -3423 0
3422 -3425 0
3423 -8300 3424 0
3423 8300 -3424 0
-3423 8300 3424 0
-3423 -8300 -3424 0
-3424 3191 -3176 0
-3424 3190 3176 3417 0
-3424 -3190 3176 -3417 0
3424 -3191 -3176 0
3424 3190 3176 -3417 0
3424 -3190 3176 3417 0
3425 -8301 3426 0
3425 8301 -3426 0
-3425 8301 3426 0
-3425 -8301 -3426 0
-3426 3193 -3176 0
-3426 3192 3176 3427 0
-3426 -3192 3176 -3427 0
3426 -3193 -3176 0
3426 3192 3176 -3427 0
3426 -3192 3176 3427 0
3427 -3190 3277 0
3427 3277 -3417 0
-3427 -3277 0
-3427 3190 3417 0
-3428 3429 3435 0
3428 -3429 0
3428 -3435 0
-3429 3430 3432 0
3429 -3430 0
3429 -3432 0
3430 -8296 3431 0
3430 8296 -3431 0
-3430 8296 3431 0
-3430 -8296 -3431 0
-3431 3198 -3176 0
-3431 3197 3176 3418 0
-3431 -3197 3176 -3418 0
3431 -3198 -3176 0
3431 3197 3176 -3418 0
3431 -3197 3176 3418 0
3432 -8297 3433 0
3432 8297 -3433 0
-3432 8297 3433 0
-3432 -8297 -3433 0
-3433 3200 -3176 0
-3433 3199 3176 3434 0
-3433 -3199 3176 -3434 0
3433 -3200 -3176 0
3433 3199 3176 -3434 0
3433 -3199 3176 3434 0
3434 -3197 3274 0
3434 3274 -3418 0
-3434 -3274 0
-3434 3197 3418 0
-3435 3436 3439 0
3435 -3436 0
3435 -3439 0
3436 -8298 3437 0
3436 8298 -3437 0
-3436 8298 3437 0
-3436 -8298 -3437 0
-3437 3204 -3176 0
-3437 3203 3176 3438 0
-3437 -3203 3176 -3438 0
3437 -3204 -3176 0
3437 3203 3176 -3438 0
3437 -3203 3176 3438 0
3438 -3196 3273 0
3438 3273 -3418 0
-3438 -3273 0
-3438 3196 3418 0
3439 -8299 3440 0
3439 8299 -3440 0
-3439 8299 3440 0
-3439 -8299 -3440 0
-3440 3207 -3176 0
-3440 3206 3176 3441 0
-3440 -3206 3176 -3441 0
3440 -3207 -3176 0
3440 3206 3176 -3441 0
3440 -3206 3176 3441 0
3441 -3203 3275 0
3441 3275 -3438 0
-3441 -3275 0
-3441 3203 3438 0
-3442 3443 3454 0
3442 -3443 0
3442 -3454 0
-3443 3444 3448 0
3443 -3444 0
3443 -3448 0
-3444 3445 3446 0
3444 -3445 0
3444 -3446 0
-3445 3236 3212 0
-3445 3212 -3176 0
-3445 -3236 -3212 3176 0
3445 -3212 -3176 0
3445 3236 -3212 0
3445 -3236 3212 3176 0
-3446 3213 -3176 0
-3446 3213 3447 0
-3446 -3213 3176 -3447 0
3446 -3213 -3176 0
3446 -3213 3447 0
3446 3213 3176 -3447 0
3447 -3236 3212 0
-3447 3236 0
-3447 -3212 0
-3448 3449 3451 0
3448 -3449 0
3448 -3451 0
-3449 3216 -3176 0
-3449 3216 3450 0
-3449 -3216 3176 -3450 0
3449 -3216 -3176 0
3449 -3216 3450 0
3449 3216 3176 -3450 0
3450 -3236 3211 0
-3450 3236 0
-3450 -3211 0
3451 -8291 3452 0
3451 8291 -3452 0
-3451 8291 3452 0
-3451 -8291 -3452 0
-3452 3218 -3176 0
-3452 3218 3453 0
-3452 -3218 3176 -3453 0
3452 -3218 -3176 0
3452 -3218 3453 0
3452 3218 3176 -3453 0
3453 3216 -3450 0
-3453 -3216 0
-3453 3450 0
-3454 3455 3462 0
3454 -3455 0
3454 -3462 0
-3455 3456 3459 0
3455 -3456 0
3455 -3459 0
3456 -8292 3457 0
3456 8292 -3457 0
-3456 8292 3457 0
-3456 -8292 -3457 0
-3457 3223 -3176 0
-3457 3222 3176 3458 0
-3457 -3222 3176 -3458 0
3457 -3223 -3176 0
3457 3222 3176 -3458 0
3457 -3222 3176 3458 0
3458 -3236 3211 3215 0
-3458 3236 0
-3458 -3211 0
-3458 -3215 0
3459 -8293 3460 0
3459 8293 -3460 0
-3459 8293 3460 0
-3459 -8293 -3460 0
-3460 3226 -3176 0
-3460 3225 3176 3461 0
-3460 -3225 3176 -3461 0
3460 -3226 -3176 0
3460 3225 3176 -3461 0
3460 -3225 3176 3461 0
3461 -3222 3266 0
3461 3266 -3458 0
-3461 -3266 0
-3461 3222 3458 0
-3462 3463 3466 0
3462 -3463 0
3462 -3466 0
3463 -8294 3464 0
3463 8294 -3464 0
-3463 8294 3464 0
-3463 -8294 -3464 0
-3464 3230 -3176 0
-3464 3229 3176 3465 0
-3464 -3229 3176 -3465 0
3464 -3230 -3176 0
3464 3229 3176 -3465 0
3464 -3229 3176 3465 0
3465 -3221 3265 0
3465 3265 -3458 0
-3465 -3265 0
-3465 3221 3458 0
3466 -8295 3467 0
3466 8295 -3467 0
-3466 8295 3467 0
-3466 -8295 -3467 0
-3467 3233 -3176 0
-3467 3232 3176 3468 0
-3467 -3232 3176 -3468 0
3467 -3233 -3176 0
3467 3232 3176 -3468 0
3467 -3232 3176 3468 0
3468 -3229 3268 0
3468 3268 -3465 0
-3468 -3268 0
-3468 3229 3465 0
3469 -3410 3495 3503 0
3469 -3470 3495 3503 0
-3469 -3503 0
-3469 -3495 0
-3469 3470 3410 0
3470 3471 3476 -3481 3494 0
-3470 -3494 0
-3470 -3471 0
-3470 -3476 0
-3470 3481 0
-3471 3472 3474 0
3471 -3472 0
3471 -3474 0
-3472 3238 -3176 0
-3472 3238 3473 0
-3472 -3238 3176 -3473 0
3472 -3238 -3176 0
3472 -3238 3473 0
3472 3238 3176 -3473 0
3473 -3248 3260 0
-3473 3248 0
-3473 -3260 0
-3474 3240 -3176 0
-3474 3240 3475 0
-3474 -3240 3176 -3475 0
3474 -3240 -3176 0
3474 -3240 3475 0
3474 3240 3176 -3475 0
3475 3238 -3473 0
-3475 -3238 0
-3475 3473 0
-3476 3477 3479 0
3476 -3477 0
3476 -3479 0
-3477 3243 -3176 0
-3477 3243 3478 0
-3477 -3243 3176 -3478 0
3477 -3243 -3176 0
3477 -3243 3478 0
3477 3243 3176 -3478 0
3478 3237 -3473 0
-3478 -3237 0
-3478 3473 0
-3479 3245 -3176 0
-3479 3245 3480 0
-3479 -3245 3176 -3480 0
3479 -3245 -3176 0
3479 -3245 3480 0
3479 3245 3176 -3480 0
3480 3243 -3478 0
-3480 -3243 0
-3480 3478 0
-3481 3482 3493 0
3481 -3482 0
3481 -3493 0
-3482 3483 3488 0
3482 -3483 0
3482 -3488 0
-3483 3484 3486 0
3483 -3484 0
3483 -3486 0
-3484 3250 -3176 0
-3484 3176 3485 0
3484 -3250 -3176 0
3484 3176 -3485 0
3485 -3250 0
-3485 3250 0
-3486 3252 -3176 0
-3486 3176 3487 0
3486 -3252 -3176 0
3486 3176 -3487 0
3487 -3252 0
-3487 3252 0
-3488 3489 3491 0
3488 -3489 0
3488 -3491 0
-3489 3255 -3176 0
-3489 3176 3490 0
3489 -3255 -3176 0
3489 3176 -3490 0
3490 -3255 0
-3490 3255 0
-3491 3257 -3176 0
-3491 3176 3492 0
3491 -3257 -3176 0
3491 3176 -3492 0
3492 -3257 0
-3492 3257 0
-3493 3471 3476 0
3493 -3471 0
3493 -3476 0
-3494 3483 3488 0
3494 -3483 0
3494 -3488 0
3495 3411 -3496 0
-3495 -3411 0
-3495 3496 0
-3496 -3462 3497 3501 0
-3496 3497 3499 3501 0
3496 -3501 0
3496 -3497 0
3496 3462 -3499 0
3497 3454 -3498 0
-3497 -3454 0
-3497 3498 0
-3498 -8291 3452 0
-3498 -8291 3444 3449 0
-3498 3444 3449 3452 0
3498 -3444 -3452 0
3498 8291 -3449 0
3498 -3449 -3452 0
3498 8291 -3444 0
3498 8291 -3452 0
-3499 -8293 3460 0
-3499 3460 3500 0
-3499 -8293 3500 0
3499 -3460 -3500 0
3499 8293 -3460 0
3499 8293 -3500 0
3500 8292 -3457 0
-3500 -8292 0
-3500 3457 0
-3501 -8295 3467 0
-3501 3467 3502 0
-3501 -8295 3502 0
3501 -3467 -3502 0
3501 8295 -3467 0
3501 8295 -3502 0
3502 8294 -3464 0
-3502 -8294 0
-3502 3464 0
-3503 -3413 3504 3512 0
-3503 3504 3510 3512 0
3503 -3512 0
3503 -3504 0
3503 3413 -3510 0
3504 3412 -3505 0
-3504 -3412 0
-3504 3505 0
-3505 -8299 3506 3509 0
-3505 -8299 3440 3506 0
-3505 3440 3506 3509 0
3505 -3440 -3509 0
3505 8299 -3509 0
3505 -3506 0
3505 8299 -3440 0
3506 3435 -3507 0
-3506 -3435 0
-3506 3507 0
-3507 -8297 3433 0
-3507 3433 3508 0
-3507 -8297 3508 0
3507 -3433 -3508 0
3507 8297 -3433 0
3507 8297 -3508 0
3508 8296 -3431 0
-3508 -8296 0
-3508 3431 0
3509 8298 -3437 0
-3509 -8298 0
-3509 3437 0
-3510 -8301 3426 0
-3510 3426 3511 0
-3510 -8301 3511 0
3510 -3426 -3511 0
3510 8301 -3426 0
3510 8301 -3511 0
3511 8300 -3424 0
-3511 -8300 0
-3511 3424 0
-3512 -8303 3420 0
-3512 3420 3513 0
-3512 -8303 3513 0
3512 -3420 -3513 0
3512 8303 -3420 0
3512 8303 -3513 0
3513 8302 -3415 0
-3513 -8302 0
-3513 3415 0
-3514 3515 3481 3522 3525 0
3514 -3525 0
3514 -3515 0
3514 -3522 0
3514 -3481 0
-3515 3516 3519 0
3515 -3516 0
3515 -3519 0
-3516 3517 3518 0
3516 -3517 0
3516 -3518 0
-3517 3049 0
3517 -3049 0
-3518 3284 0
3518 -3284 0
-3519 3520 3521 0
3519 -3520 0
3519 -3521 0
-3520 3286 0
3520 -3286 0
-3521 3287 0
3521 -3287 0
-3522 3523 3524 0
3522 -3523 0
3522 -3524 0
-3523 2603 0
3523 -2603 0
-3524 2605 0
3524 -2605 0
-3525 2607 2609 0
3525 -2607 0
3525 -2609 0
3526 -1116 -1162 0
3526 1115 -1162 3527 0
-3526 1162 0
-3526 -1115 1116 0
-3526 1116 -3527 0
3527 1092 -3528 0
3527 -565 -1092 -3292 0
3527 565 -1092 3292 0
-3527 1092 3528 0
-3527 -565 -1092 3292 0
-3527 565 -1092 -3292 0
3528 -1221 0
3528 -3529 -3589 0
3528 -3589 -3636 0
-3528 1221 3589 0
-3528 1221 3529 3636 0
-3529 3530 3561 0
3529 -3530 0
3529 -3561 0
-3530 3531 3547 0
3530 -3531 0
3530 -3547 0
-3531 3532 3541 0
3531 -3532 0
3531 -3541 0
-3532 3533 3538 0
3532 -3533 0
3532 -3538 0
3533 -8303 3534 0
3533 8303 -3534 0
-3533 8303 3534 0
-3533 -8303 -3534 0
-3534 3299 -3293 0
-3534 3298 3293 3535 0
-3534 -3298 3293 -3535 0
3534 -3299 -3293 0
3534 3298 3293 -3535 0
3534 -3298 3293 3535 0
3535 -3306 3394 0
3535 3394 -3536 0
-3535 -3394 0
-3535 3306 3536 0
3536 -3312 3389 0
3536 3389 -3537 0
-3536 -3389 0
-3536 3312 3537 0
3537 -3354 3380 0
3537 -3326 3380 0
-3537 -3380 0
-3537 3354 3326 0
3538 -8304 3539 0
3538 8304 -3539 0
-3538 8304 3539 0
-3538 -8304 -3539 0
-3539 3304 -3293 0
-3539 3303 3293 3540 0
-3539 -3303 3293 -3540 0
3539 -3304 -3293 0
3539 3303 3293 -3540 0
3539 -3303 3293 3540 0
3540 -3298 3397 0
3540 3397 -3535 0
-3540 -3397 0
-3540 3298 3535 0
-3541 3542 3544 0
3541 -3542 0
3541 -3544 0
3542 -8301 3543 0
3542 8301 -3543 0
-3542 8301 3543 0
-3542 -8301 -3543 0
-3543 3308 -3293 0
-3543 3307 3293 3536 0
-3543 -3307 3293 -3536 0
3543 -3308 -3293 0
3543 3307 3293 -3536 0
3543 -3307 3293 3536 0
3544 -8302 3545 0
3544 8302 -3545 0
-3544 8302 3545 0
-3544 -8302 -3545 0
-3545 3310 -3293 0
-3545 3309 3293 3546 0
-3545 -3309 3293 -3546 0
3545 -3310 -3293 0
3545 3309 3293 -3546 0
3545 -3309 3293 3546 0
3546 -3307 3395 0
3546 3395 -3536 0
-3546 -3395 0
-3546 3307 3536 0
-3547 3548 3554 0
3547 -3548 0
3547 -3554 0
-3548 3549 3551 0
3548 -3549 0
3548 -3551 0
3549 -8297 3550 0
3549 8297 -3550 0
-3549 8297 3550 0
-3549 -8297 -3550 0
-3550 3315 -3293 0
-3550 3314 3293 3537 0
-3550 -3314 3293 -3537 0
3550 -3315 -3293 0
3550 3314 3293 -3537 0
3550 -3314 3293 3537 0
3551 -8298 3552 0
3551 8298 -3552 0
-3551 8298 3552 0
-3551 -8298 -3552 0
-3552 3317 -3293 0
-3552 3316 3293 3553 0
-3552 -3316 3293 -3553 0
3552 -3317 -3293 0
3552 3316 3293 -3553 0
3552 -3316 3293 3553 0
3553 -3314 3392 0
3553 3392 -3537 0
-3553 -3392 0
-3553 3314 3537 0
-3554 3555 3558 0
3554 -3555 0
3554 -3558 0
3555 -8299 3556 0
3555 8299 -3556 0
-3555 8299 3556 0
-3555 -8299 -3556 0
-3556 3321 -3293 0
-3556 3320 3293 3557 0
-3556 -3320 3293 -3557 0
3556 -3321 -3293 0
3556 3320 3293 -3557 0
3556 -3320 3293 3557 0
3557 -3313 3391 0
3557 3391 -3537 0
-3557 -3391 0
-3557 3313 3537 0
3558 -8300 3559 0
3558 8300 -3559 0
-3558 8300 3559 0
-3558 -8300 -3559 0
-3559 3324 -3293 0
-3559 3323 3293 3560 0
-3559 -3323 3293 -3560 0
3559 -3324 -3293 0
3559 3323 3293 -3560 0
3559 -3323 3293 3560 0
3560 -3320 3393 0
3560 3393 -3557 0
-3560 -3393 0
-3560 3320 3557 0
-3561 3562 3574 0
3561 -3562 0
3561 -3574 0
-3562 3563 3567 0
3562 -3563 0
3562 -3567 0
-3563 3564 3565 0
3563 -3564 0
3563 -3565 0
-3564 3354 3329 0
-3564 3329 -3293 0
-3564 -3354 -3329 3293 0
3564 -3329 -3293 0
3564 3354 -3329 0
3564 -3354 3329 3293 0
-3565 3330 -3293 0
-3565 3330 3566 0
-3565 -3330 3293 -3566 0
3565 -3330 -3293 0
3565 -3330 3566 0
3565 3330 3293 -3566 0
3566 -3354 3329 0
-3566 3354 0
-3566 -3329 0
-3567 3568 3571 0
3567 -3568 0
3567 -3571 0
3568 -8291 3569 0
3568 8291 -3569 0
-3568 8291 3569 0
-3568 -8291 -3569 0
-3569 3333 -3293 0
-3569 3333 3570 0
-3569 -3333 3293 -3570 0
3569 -3333 -3293 0
3569 -3333 3570 0
3569 3333 3293 -3570 0
3570 -3354 3328 0
-3570 3354 0
-3570 -3328 0
3571 -8292 3572 0
3571 8292 -3572 0
-3571 8292 3572 0
-3571 -8292 -3572 0
-3572 3336 -3293 0
-3572 3335 3293 3573 0
-3572 -3335 3293 -3573 0
3572 -3336 -3293 0
3572 3335 3293 -3573 0
3572 -3335 3293 3573 0
3573 3333 -3570 0
-3573 -3333 0
-3573 3570 0
-3574 3575 3582 0
3574 -3575 0
3574 -3582 0
-3575 3576 3579 0
3575 -3576 0
3575 -3579 0
3576 -8293 3577 0
3576 8293 -3577 0
-3576 8293 3577 0
-3576 -8293 -3577 0
-3577 3341 -3293 0
-3577 3340 3293 3578 0
-3577 -3340 3293 -3578 0
3577 -3341 -3293 0
3577 3340 3293 -3578 0
3577 -3340 3293 3578 0
3578 -3354 3382 0
3578 -3327 3382 0
-3578 -3382 0
-3578 3354 3327 0
3579 -8294 3580 0
3579 8294 -3580 0
-3579 8294 3580 0
-3579 -8294 -3580 0
-3580 3344 -3293 0
-3580 3343 3293 3581 0
-3580 -3343 3293 -3581 0
3580 -3344 -3293 0
3580 3343 3293 -3581 0
3580 -3343 3293 3581 0
3581 -3340 3384 0
3581 3384 -3578 0
-3581 -3384 0
-3581 3340 3578 0
-3582 3583 3586 0
3582 -3583 0
3582 -3586 0
3583 -8295 3584 0
3583 8295 -3584 0
-3583 8295 3584 0
-3583 -8295 -3584 0
-3584 3348 -3293 0
-3584 3347 3293 3585 0
-3584 -3347 3293 -3585 0
3584 -3348 -3293 0
3584 3347 3293 -3585 0
3584 -3347 3293 3585 0
3585 -3339 3383 0
3585 3383 -3578 0
-3585 -3383 0
-3585 3339 3578 0
3586 -8296 3587 0
3586 8296 -3587 0
-3586 8296 3587 0
-3586 -8296 -3587 0
-3587 3351 -3293 0
-3587 3350 3293 3588 0
-3587 -3350 3293 -3588 0
3587 -3351 -3293 0
3587 3350 3293 -3588 0
3587 -3350 3293 3588 0
3588 -3347 3386 0
3588 3386 -3585 0
-3588 -3386 0
-3588 3347 3585 0
3589 -3529 3615 3625 0
3589 -3590 3615 3625 0
-3589 -3625 0
-3589 -3615 0
-3589 3590 3529 0
3590 3591 3596 -3601 3614 0
-3590 -3614 0
-3590 -3591 0
-3590 -3596 0
-3590 3601 0
-3591 3592 3594 0
3591 -3592 0
3591 -3594 0
-3592 3356 -3293 0
-3592 3356 3593 0
-3592 -3356 3293 -3593 0
3592 -3356 -3293 0
3592 -3356 3593 0
3592 3356 3293 -3593 0
3593 -3366 3378 0
-3593 3366 0
-3593 -3378 0
-3594 3358 -3293 0
-3594 3358 3595 0
-3594 -3358 3293 -3595 0
3594 -3358 -3293 0
3594 -3358 3595 0
3594 3358 3293 -3595 0
3595 3356 -3593 0
-3595 -3356 0
-3595 3593 0
-3596 3597 3599 0
3596 -3597 0
3596 -3599 0
-3597 3361 -3293 0
-3597 3361 3598 0
-3597 -3361 3293 -3598 0
3597 -3361 -3293 0
3597 -3361 3598 0
3597 3361 3293 -3598 0
3598 3355 -3593 0
-3598 -3355 0
-3598 3593 0
-3599 3363 -3293 0
-3599 3363 3600 0
-3599 -3363 3293 -3600 0
3599 -3363 -3293 0
3599 -3363 3600 0
3599 3363 3293 -3600 0
3600 3361 -3598 0
-3600 -3361 0
-3600 3598 0
-3601 3602 3613 0
3601 -3602 0
3601 -3613 0
-3602 3603 3608 0
3602 -3603 0
3602 -3608 0
-3603 3604 3606 0
3603 -3604 0
3603 -3606 0
-3604 3368 -3293 0
-3604 3293 3605 0
3604 -3368 -3293 0
3604 3293 -3605 0
3605 -3368 0
-3605 3368 0
-3606 3370 -3293 0
-3606 3293 3607 0
3606 -3370 -3293 0
3606 3293 -3607 0
3607 -3370 0
-3607 3370 0
-3608 3609 3611 0
3608 -3609 0
3608 -3611 0
-3609 3373 -3293 0
-3609 3293 3610 0
3609 -3373 -3293 0
3609 3293 -3610 0
3610 -3373 0
-3610 3373 0
-3611 3375 -3293 0
-3611 3293 3612 0
3611 -3375 -3293 0
3611 3293 -3612 0
3612 -3375 0
-3612 3375 0
-3613 3591 3596 0
3613 -3591 0
3613 -3596 0
-3614 3603 3608 0
3614 -3603 0
3614 -3608 0
3615 3530 -3616 0
-3615 -3530 0
-3615 3616 0
-3616 -3582 3617 3623 0
-3616 3617 3621 3623 0
3616 -3623 0
3616 -3617 0
3616 3582 -3621 0
3617 3574 -3618 0
-3617 -3574 0
-3617 3618 0
-3618 -8292 3619 3620 0
-3618 -8292 3572 3619 0
-3618 3572 3619 3620 0
3618 -3572 -3620 0
3618 8292 -3620 0
3618 -3619 0
3618 8292 -3572 0
3619 -3563 3567 0
-3619 3563 0
-3619 -3567 0
3620 8291 -3569 0
-3620 -8291 0
-3620 3569 0
-3621 -8294 3580 0
-3621 3580 3622 0
-3621 -8294 3622 0
3621 -3580 -3622 0
3621 8294 -3580 0
3621 8294 -3622 0
3622 8293 -3577 0
-3622 -8293 0
-3622 3577 0
-3623 -8296 3587 0
-3623 3587 3624 0
-3623 -8296 3624 0
3623 -3587 -3624 0
3623 8296 -3587 0
3623 8296 -3624 0
3624 8295 -3584 0
-3624 -8295 0
-3624 3584 0
-3625 -3532 3626 3634 0
-3625 3626 3632 3634 0
3625 -3634 0
3625 -3626 0
3625 3532 -3632 0
3626 3531 -3627 0
-3626 -3531 0
-3626 3627 0
-3627 -8300 3628 3631 0
-3627 -8300 3559 3628 0
-3627 3559 3628 3631 0
3627 -3559 -3631 0
3627 8300 -3631 0
3627 -3628 0
3627 8300 -3559 0
3628 3554 -3629 0
-3628 -3554 0
-3628 3629 0
-3629 -8298 3552 0
-3629 3552 3630 0
-3629 -8298 3630 0
3629 -3552 -3630 0
3629 8298 -3552 0
3629 8298 -3630 0
3630 8297 -3550 0
-3630 -8297 0
-3630 3550 0
3631 8299 -3556 0
-3631 -8299 0
-3631 3556 0
-3632 -8302 3545 0
-3632 3545 3633 0
-3632 -8302 3633 0
3632 -3545 -3633 0
3632 8302 -3545 0
3632 8302 -3633 0
3633 8301 -3543 0
-3633 -8301 0
-3633 3543 0
-3634 -8304 3539 0
-3634 3539 3635 0
-3634 -8304 3635 0
3634 -3539 -3635 0
3634 8304 -3539 0
3634 8304 -3635 0
3635 8303 -3534 0
-3635 -8303 0
-3635 3534 0
-3636 3168 3637 3601 3644 0
3636 -3644 0
3636 -3168 0
3636 -3601 0
3636 -3637 0
-3637 3638 3641 0
3637 -3638 0
3637 -3641 0
-3638 3639 3640 0
3638 -3639 0
3638 -3640 0
-3639 3163 0
3639 -3163 0
-3640 3402 0
3640 -3402 0
-3641 3642 3643 0
3641 -3642 0
3641 -3643 0
-3642 3404 0
3642 -3404 0
-3643 3405 0
3643 -3405 0
-3644 3407 3408 0
3644 -3407 0
3644 -3408 0
3645 -1221 0
3645 -3646 -3706 0
3645 -3706 -3753 0
-3645 1221 3706 0
-3645 1221 3646 3753 0
-3646 3647 3678 0
3646 -3647 0
3646 -3678 0
-3647 3648 3664 0
3647 -3648 0
3647 -3664 0
-3648 3649 3658 0
3648 -3649 0
3648 -3658 0
-3649 3650 3655 0
3649 -3650 0
3649 -3655 0
3650 -8303 3651 0
3650 8303 -3651 0
-3650 8303 3651 0
-3650 -8303 -3651 0
-3651 3415 -3409 0
-3651 3414 3409 3652 0
-3651 -3414 3409 -3652 0
3651 -3415 -3409 0
3651 3414 3409 -3652 0
3651 -3414 3409 3652 0
3652 -3422 3510 0
3652 3510 -3653 0
-3652 -3510 0
-3652 3422 3653 0
3653 -3428 3505 0
3653 3505 -3654 0
-3653 -3505 0
-3653 3428 3654 0
3654 -3470 3496 0
3654 -3442 3496 0
-3654 -3496 0
-3654 3470 3442 0
3655 -8304 3656 0
3655 8304 -3656 0
-3655 8304 3656 0
-3655 -8304 -3656 0
-3656 3420 -3409 0
-3656 3419 3409 3657 0
-3656 -3419 3409 -3657 0
3656 -3420 -3409 0
3656 3419 3409 -3657 0
3656 -3419 3409 3657 0
3657 -3414 3513 0
3657 3513 -3652 0
-3657 -3513 0
-3657 3414 3652 0
-3658 3659 3661 0
3658 -3659 0
3658 -3661 0
3659 -8301 3660 0
3659 8301 -3660 0
-3659 8301 3660 0
-3659 -8301 -3660 0
-3660 3424 -3409 0
-3660 3423 3409 3653 0
-3660 -3423 3409 -3653 0
3660 -3424 -3409 0
3660 3423 3409 -3653 0
3660 -3423 3409 3653 0
3661 -8302 3662 0
3661 8302 -3662 0
-3661 8302 3662 0
-3661 -8302 -3662 0
-3662 3426 -3409 0
-3662 3425 3409 3663 0
-3662 -3425 3409 -3663 0
3662 -3426 -3409 0
3662 3425 3409 -3663 0
3662 -3425 3409 3663 0
3663 -3423 3511 0
3663 3511 -3653 0
-3663 -3511 0
-3663 3423 3653 0
-3664 3665 3671 0
3664 -3665 0
3664 -3671 0
-3665 3666 3668 0
3665 -3666 0
3665 -3668 0
3666 -8297 3667 0
3666 8297 -3667 0
-3666 8297 3667 0
-3666 -8297 -3667 0
-3667 3431 -3409 0
-3667 3430 3409 3654 0
-3667 -3430 3409 -3654 0
3667 -3431 -3409 0
3667 3430 3409 -3654 0
3667 -3430 3409 3654 0
3668 -8298 3669 0
3668 8298 -3669 0
-3668 8298 3669 0
-3668 -8298 -3669 0
-3669 3433 -3409 0
-3669 3432 3409 3670 0
-3669 -3432 3409 -3670 0
3669 -3433 -3409 0
3669 3432 3409 -3670 0
3669 -3432 3409 3670 0
3670 -3430 3508 0
3670 3508 -3654 0
-3670 -3508 0
-3670 3430 3654 0
-3671 3672 3675 0
3671 -3672 0
3671 -3675 0
3672 -8299 3673 0
3672 8299 -3673 0
-3672 8299 3673 0
-3672 -8299 -3673 0
-3673 3437 -3409 0
-3673 3436 3409 3674 0
-3673 -3436 3409 -3674 0
3673 -3437 -3409 0
3673 3436 3409 -3674 0
3673 -3436 3409 3674 0
3674 -3429 3507 0
3674 3507 -3654 0
-3674 -3507 0
-3674 3429 3654 0
3675 -8300 3676 0
3675 8300 -3676 0
-3675 8300 3676 0
-3675 -8300 -3676 0
-3676 3440 -3409 0
-3676 3439 3409 3677 0
-3676 -3439 3409 -3677 0
3676 -3440 -3409 0
3676 3439 3409 -3677 0
3676 -3439 3409 3677 0
3677 -3436 3509 0
3677 3509 -3674 0
-3677 -3509 0
-3677 3436 3674 0
-3678 3679 3691 0
3678 -3679 0
3678 -3691 0
-3679 3680 3684 0
3679 -3680 0
3679 -3684 0
-3680 3681 3682 0
3680 -3681 0
3680 -3682 0
-3681 3470 3445 0
-3681 3445 -3409 0
-3681 -3470 -3445 3409 0
3681 -3445 -3409 0
3681 3470 -3445 0
3681 -3470 3445 3409 0
-3682 3446 -3409 0
-3682 3446 3683 0
-3682 -3446 3409 -3683 0
3682 -3446 -3409 0
3682 -3446 3683 0
3682 3446 3409 -3683 0
3683 -3470 3445 0
-3683 3470 0
-3683 -3445 0
-3684 3685 3688 0
3684 -3685 0
3684 -3688 0
3685 -8291 3686 0
3685 8291 -3686 0
-3685 8291 3686 0
-3685 -8291 -3686 0
-3686 3449 -3409 0
-3686 3449 3687 0
-3686 -3449 3409 -3687 0
3686 -3449 -3409 0
3686 -3449 3687 0
3686 3449 3409 -3687 0
3687 -3470 3444 0
-3687 3470 0
-3687 -3444 0
3688 -8292 3689 0
3688 8292 -3689 0
-3688 8292 3689 0
-3688 -8292 -3689 0
-3689 3452 -3409 0
-3689 3451 3409 3690 0
-3689 -3451 3409 -3690 0
3689 -3452 -3409 0
3689 3451 3409 -3690 0
3689 -3451 3409 3690 0
3690 3449 -3687 0
-3690 -3449 0
-3690 3687 0
-3691 3692 3699 0
3691 -3692 0
3691 -3699 0
-3692 3693 3696 0
3692 -3693 0
3692 -3696 0
3693 -8293 3694 0
3693 8293 -3694 0
-3693 8293 3694 0
-3693 -8293 -3694 0
-3694 3457 -3409 0
-3694 3456 3409 3695 0
-3694 -3456 3409 -3695 0
3694 -3457 -3409 0
3694 3456 3409 -3695 0
3694 -3456 3409 3695 0
3695 -3470 3498 0
3695 -3443 3498 0
-3695 -3498 0
-3695 3470 3443 0
3696 -8294 3697 0
3696 8294 -3697 0
-3696 8294 3697 0
-3696 -8294 -3697 0
-3697 3460 -3409 0
-3697 3459 3409 3698 0
-3697 -3459 3409 -3698 0
3697 -3460 -3409 0
3697 3459 3409 -3698 0
3697 -3459 3409 3698 0
3698 -3456 3500 0
3698 3500 -3695 0
-3698 -3500 0
-3698 3456 3695 0
-3699 3700 3703 0
3699 -3700 0
3699 -3703 0
3700 -8295 3701 0
3700 8295 -3701 0
-3700 8295 3701 0
-3700 -8295 -3701 0
-3701 3464 -3409 0
-3701 3463 3409 3702 0
-3701 -3463 3409 -3702 0
3701 -3464 -3409 0
3701 3463 3409 -3702 0
3701 -3463 3409 3702 0
3702 -3455 3499 0
3702 3499 -3695 0
-3702 -3499 0
-3702 3455 3695 0
3703 -8296 3704 0
3703 8296 -3704 0
-3703 8296 3704 0
-3703 -8296 -3704 0
-3704 3467 -3409 0
-3704 3466 3409 3705 0
-3704 -3466 3409 -3705 0
3704 -3467 -3409 0
3704 3466 3409 -3705 0
3704 -3466 3409 3705 0
3705 -3463 3502 0
3705 3502 -3702 0
-3705 -3502 0
-3705 3463 3702 0
3706 -3646 3732 3742 0
3706 -3707 3732 3742 0
-3706 -3742 0
-3706 -3732 0
-3706 3707 3646 0
3707 3708 3713 -3718 3731 0
-3707 -3731 0
-3707 -3708 0
-3707 -3713 0
-3707 3718 0
-3708 3709 3711 0
3708 -3709 0
3708 -3711 0
-3709 3472 -3409 0
-3709 3472 3710 0
-3709 -3472 3409 -3710 0
3709 -3472 -3409 0
3709 -3472 3710 0
3709 3472 3409 -3710 0
3710 -3482 3494 0
-3710 3482 0
-3710 -3494 0
-3711 3474 -3409 0
-3711 3474 3712 0
-3711 -3474 3409 -3712 0
3711 -3474 -3409 0
3711 -3474 3712 0
3711 3474 3409 -3712 0
3712 3472 -3710 0
-3712 -3472 0
-3712 3710 0
-3713 3714 3716 0
3713 -3714 0
3713 -3716 0
-3714 3477 -3409 0
-3714 3477 3715 0
-3714 -3477 3409 -3715 0
3714 -3477 -3409 0
3714 -3477 3715 0
3714 3477 3409 -3715 0
3715 3471 -3710 0
-3715 -3471 0
-3715 3710 0
-3716 3479 -3409 0
-3716 3479 3717 0
-3716 -3479 3409 -3717 0
3716 -3479 -3409 0
3716 -3479 3717 0
3716 3479 3409 -3717 0
3717 3477 -3715 0
-3717 -3477 0
-3717 3715 0
-3718 3719 3730 0
3718 -3719 0
3718 -3730 0
-3719 3720 3725 0
3719 -3720 0
3719 -3725 0
-3720 3721 3723 0
3720 -3721 0
3720 -3723 0
-3721 3484 -3409 0
-3721 3409 3722 0
3721 -3484 -3409 0
3721 3409 -3722 0
3722 -3484 0
-3722 3484 0
-3723 3486 -3409 0
-3723 3409 3724 0
3723 -3486 -3409 0
3723 3409 -3724 0
3724 -3486 0
-3724 3486 0
-3725 3726 3728 0
3725 -3726 0
3725 -3728 0
-3726 3489 -3409 0
-3726 3409 3727 0
3726 -3489 -3409 0
3726 3409 -3727 0
3727 -3489 0
-3727 3489 0
-3728 3491 -3409 0
-3728 3409 3729 0
3728 -3491 -3409 0
3728 3409 -3729 0
3729 -3491 0
-3729 3491 0
-3730 3708 3713 0
3730 -3708 0
3730 -3713 0
-3731 3720 3725 0
3731 -3720 0
3731 -3725 0
3732 3647 -3733 0
-3732 -3647 0
-3732 3733 0
-3733 -3699 3734 3740 0
-3733 3734 3738 3740 0
3733 -3740 0
3733 -3734 0
3733 3699 -3738 0
3734 3691 -3735 0
-3734 -3691 0
-3734 3735 0
-3735 -8292 3736 3737 0
-3735 -8292 3689 3736 0
-3735 3689 3736 3737 0
3735 -3689 -3737 0
3735 8292 -3737 0
3735 -3736 0
3735 8292 -3689 0
3736 -3680 3684 0
-3736 3680 0
-3736 -3684 0
3737 8291 -3686 0
-3737 -8291 0
-3737 3686 0
-3738 -8294 3697 0
-3738 3697 3739 0
-3738 -8294 3739 0
3738 -3697 -3739 0
3738 8294 -3697 0
3738 8294 -3739 0
3739 8293 -3694 0
-3739 -8293 0
-3739 3694 0
-3740 -8296 3704 0
-3740 3704 3741 0
-3740 -8296 3741 0
3740 -3704 -3741 0
3740 8296 -3704 0
3740 8296 -3741 0
3741 8295 -3701 0
-3741 -8295 0
-3741 3701 0
-3742 -3649 3743 3751 0
-3742 3743 3749 3751 0
3742 -3751 0
3742 -3743 0
3742 3649 -3749 0
3743 3648 -3744 0
-3743 -3648 0
-3743 3744 0
-3744 -8300 3745 3748 0
-3744 -8300 3676 3745 0
-3744 3676 3745 3748 0
3744 -3676 -3748 0
3744 8300 -3748 0
3744 -3745 0
3744 8300 -3676 0
3745 3671 -3746 0
-3745 -3671 0
-3745 3746 0
-3746 -8298 3669 0
-3746 3669 3747 0
-3746 -8298 3747 0
3746 -3669 -3747 0
3746 8298 -3669 0
3746 8298 -3747 0
3747 8297 -3667 0
-3747 -8297 0
-3747 3667 0
3748 8299 -3673 0
-3748 -8299 0
-3748 3673 0
-3749 -8302 3662 0
-3749 3662 3750 0
-3749 -8302 3750 0
3749 -3662 -3750 0
3749 8302 -3662 0
3749 8302 -3750 0
3750 8301 -3660 0
-3750 -8301 0
-3750 3660 0
-3751 -8304 3656 0
-3751 3656 3752 0
-3751 -8304 3752 0
3751 -3656 -3752 0
3751 8304 -3656 0
3751 8304 -3752 0
3752 8303 -3651 0
-3752 -8303 0
-3752 3651 0
-3753 3522 3754 3718 3761 0
3753 -3761 0
3753 -3522 0
3753 -3718 0
3753 -3754 0
-3754 3755 3758 0
3754 -3755 0
3754 -3758 0
-3755 3756 3757 0
3755 -3756 0
3755 -3757 0
-3756 3283 0
3756 -3283 0
-3757 3518 0
3757 -3518 0
-3758 3759 3760 0
3758 -3759 0
3758 -3760 0
-3759 3520 0
3759 -3520 0
-3760 3521 0
3760 -3521 0
-3761 2607 2609 0
3761 -2607 0
3761 -2609 0
3762 3763 -3885 4004 -4169 0
3762 -3763 3885 4004 -4169 0
3762 3763 -3885 -4004 4169 0
3762 -3763 3885 -4004 4169 0
-3762 -4004 -4169 0
-3762 4004 4169 0
-3762 -3763 -3885 0
-3762 3763 3885 0
3763 -1116 -1162 0
3763 1115 -1162 3764 0
-3763 1162 0
-3763 -1115 1116 0
-3763 1116 -3764 0
3764 1092 -3766 0
3764 -617 -1092 -3765 0
3764 617 -1092 3765 0
-3764 1092 3766 0
-3764 -617 -1092 3765 0
-3764 617 -1092 -3765 0
-3765 666 1060 0
-3765 714 1060 0
3765 -1060 0
3765 -666 -714 0
3766 -8306 0
3766 -3767 -3828 0
3766 -3828 -3876 0
-3766 8306 3828 0
-3766 8306 3767 3876 0
-3767 3768 3799 0
3767 -3768 0
3767 -3799 0
-3768 3769 3785 0
3768 -3769 0
3768 -3785 0
-3769 3770 3779 0
3769 -3770 0
3769 -3779 0
-3770 3771 3776 0
3770 -3771 0
3770 -3776 0
3771 -8304 3772 0
3771 8304 -3772 0
-3771 8304 3772 0
-3771 -8304 -3772 0
-3772 3534 -3528 0
-3772 3533 3528 3773 0
-3772 -3533 3528 -3773 0
3772 -3534 -3528 0
3772 3533 3528 -3773 0
3772 -3533 3528 3773 0
3773 -3541 3632 0
3773 3632 -3774 0
-3773 -3632 0
-3773 3541 3774 0
3774 -3547 3627 0
3774 3627 -3775 0
-3774 -3627 0
-3774 3547 3775 0
3775 -3590 3616 0
3775 -3561 3616 0
-3775 -3616 0
-3775 3590 3561 0
3776 -8305 3777 0
3776 8305 -3777 0
-3776 8305 3777 0
-3776 -8305 -3777 0
-3777 3539 -3528 0
-3777 3538 3528 3778 0
-3777 -3538 3528 -3778 0
3777 -3539 -3528 0
3777 3538 3528 -3778 0
3777 -3538 3528 3778 0
3778 -3533 3635 0
3778 3635 -3773 0
-3778 -3635 0
-3778 3533 3773 0
-3779 3780 3782 0
3779 -3780 0
3779 -3782 0
3780 -8302 3781 0
3780 8302 -3781 0
-3780 8302 3781 0
-3780 -8302 -3781 0
-3781 3543 -3528 0
-3781 3542 3528 3774 0
-3781 -3542 3528 -3774 0
3781 -3543 -3528 0
3781 3542 3528 -3774 0
3781 -3542 3528 3774 0
3782 -8303 3783 0
3782 8303 -3783 0
-3782 8303 3783 0
-3782 -8303 -3783 0
-3783 3545 -3528 0
-3783 3544 3528 3784 0
-3783 -3544 3528 -3784 0
3783 -3545 -3528 0
3783 3544 3528 -3784 0
3783 -3544 3528 3784 0
3784 -3542 3633 0
3784 3633 -3774 0
-3784 -3633 0
-3784 3542 3774 0
-3785 3786 3792 0
3785 -3786 0
3785 -3792 0
-3786 3787 3789 0
3786 -3787 0
3786 -3789 0
3787 -8298 3788 0
3787 8298 -3788 0
-3787 8298 3788 0
-3787 -8298 -3788 0
-3788 3550 -3528 0
-3788 3549 3528 3775 0
-3788 -3549 3528 -3775 0
3788 -3550 -3528 0
3788 3549 3528 -3775 0
3788 -3549 3528 3775 0
3789 -8299 3790 0
3789 8299 -3790 0
-3789 8299 3790 0
-3789 -8299 -3790 0
-3790 3552 -3528 0
-3790 3551 3528 3791 0
-3790 -3551 3528 -3791 0
3790 -3552 -3528 0
3790 3551 3528 -3791 0
3790 -3551 3528 3791 0
3791 -3549 3630 0
3791 3630 -3775 0
-3791 -3630 0
-3791 3549 3775 0
-3792 3793 3796 0
3792 -3793 0
3792 -3796 0
3793 -8300 3794 0
3793 8300 -3794 0
-3793 8300 3794 0
-3793 -8300 -3794 0
-3794 3556 -3528 0
-3794 3555 3528 3795 0
-3794 -3555 3528 -3795 0
3794 -3556 -3528 0
3794 3555 3528 -3795 0
3794 -3555 3528 3795 0
3795 -3548 3629 0
3795 3629 -3775 0
-3795 -3629 0
-3795 3548 3775 0
3796 -8301 3797 0
3796 8301 -3797 0
-3796 8301 3797 0
-3796 -8301 -3797 0
-3797 3559 -3528 0
-3797 3558 3528 3798 0
-3797 -3558 3528 -3798 0
3797 -3559 -3528 0
3797 3558 3528 -3798 0
3797 -3558 3528 3798 0
3798 -3555 3631 0
3798 3631 -3795 0
-3798 -3631 0
-3798 3555 3795 0
-3799 3800 3813 0
3799 -3800 0
3799 -3813 0
-3800 3801 3806 0
3800 -3801 0
3800 -3806 0
-3801 3802 3803 0
3801 -3802 0
3801 -3803 0
-3802 3590 3564 0
-3802 3564 -3528 0
-3802 -3590 -3564 3528 0
3802 -3564 -3528 0
3802 3590 -3564 0
3802 -3590 3564 3528 0
3803 -8291 3804 0
3803 8291 -3804 0
-3803 8291 3804 0
-3803 -8291 -3804 0
-3804 3565 -3528 0
-3804 3565 3805 0
-3804 -3565 3528 -3805 0
3804 -3565 -3528 0
3804 -3565 3805 0
3804 3565 3528 -3805 0
3805 -3590 3564 0
-3805 3590 0
-3805 -3564 0
-3806 3807 3810 0
3806 -3807 0
3806 -3810 0
3807 -8292 3808 0
3807 8292 -3808 0
-3807 8292 3808 0
-3807 -8292 -3808 0
-3808 3569 -3528 0
-3808 3568 3528 3809 0
-3808 -3568 3528 -3809 0
3808 -3569 -3528 0
3808 3568 3528 -3809 0
3808 -3568 3528 3809 0
3809 -3590 3563 0
-3809 3590 0
-3809 -3563 0
3810 -8293 3811 0
3810 8293 -3811 0
-3810 8293 3811 0
-3810 -8293 -3811 0
-3811 3572 -3528 0
-3811 3571 3528 3812 0
-3811 -3571 3528 -3812 0
3811 -3572 -3528 0
3811 3571 3528 -3812 0
3811 -3571 3528 3812 0
3812 -8291 3569 0
3812 3569 -3809 0
3812 -8291 -3809 0
-3812 8291 3809 0
-3812 -3569 3809 0
-3812 8291 -3569 0
-3813 3814 3821 0
3813 -3814 0
3813 -3821 0
-3814 3815 3818 0
3814 -3815 0
3814 -3818 0
3815 -8294 3816 0
3815 8294 -3816 0
-3815 8294 3816 0
-3815 -8294 -3816 0
-3816 3577 -3528 0
-3816 3576 3528 3817 0
-3816 -3576 3528 -3817 0
3816 -3577 -3528 0
3816 3576 3528 -3817 0
3816 -3576 3528 3817 0
3817 -3590 3618 0
3817 -3562 3618 0
-3817 -3618 0
-3817 3590 3562 0
3818 -8295 3819 0
3818 8295 -3819 0
-3818 8295 3819 0
-3818 -8295 -3819 0
-3819 3580 -3528 0
-3819 3579 3528 3820 0
-3819 -3579 3528 -3820 0
3819 -3580 -3528 0
3819 3579 3528 -3820 0
3819 -3579 3528 3820 0
3820 -3576 3622 0
3820 3622 -3817 0
-3820 -3622 0
-3820 3576 3817 0
-3821 3822 3825 0
3821 -3822 0
3821 -3825 0
3822 -8296 3823 0
3822 8296 -3823 0
-3822 8296 3823 0
-3822 -8296 -3823 0
-3823 3584 -3528 0
-3823 3583 3528 3824 0
-3823 -3583 3528 -3824 0
3823 -3584 -3528 0
3823 3583 3528 -3824 0
3823 -3583 3528 3824 0
3824 -3575 3621 0
3824 3621 -3817 0
-3824 -3621 0
-3824 3575 3817 0
3825 -8297 3826 0
3825 8297 -3826 0
-3825 8297 3826 0
-3825 -8297 -3826 0
-3826 3587 -3528 0
-3826 3586 3528 3827 0
-3826 -3586 3528 -3827 0
3826 -3587 -3528 0
3826 3586 3528 -3827 0
3826 -3586 3528 3827 0
3827 -3583 3624 0
3827 3624 -3824 0
-3827 -3624 0
-3827 3583 3824 0
3828 -3767 3854 3865 0
3828 -3829 3854 3865 0
-3828 -3865 0
-3828 -3854 0
-3828 3829 3767 0
3829 3830 3835 -3840 3853 0
-3829 -3853 0
-3829 -3830 0
-3829 -3835 0
-3829 3840 0
-3830 3831 3833 0
3830 -3831 0
3830 -3833 0
-3831 3592 -3528 0
-3831 3592 3832 0
-3831 -3592 3528 -3832 0
3831 -3592 -3528 0
3831 -3592 3832 0
3831 3592 3528 -3832 0
3832 -3602 3614 0
-3832 3602 0
-3832 -3614 0
-3833 3594 -3528 0
-3833 3594 3834 0
-3833 -3594 3528 -3834 0
3833 -3594 -3528 0
3833 -3594 3834 0
3833 3594 3528 -3834 0
3834 3592 -3832 0
-3834 -3592 0
-3834 3832 0
-3835 3836 3838 0
3835 -3836 0
3835 -3838 0
-3836 3597 -3528 0
-3836 3597 3837 0
-3836 -3597 3528 -3837 0
3836 -3597 -3528 0
3836 -3597 3837 0
3836 3597 3528 -3837 0
3837 3591 -3832 0
-3837 -3591 0
-3837 3832 0
-3838 3599 -3528 0
-3838 3599 3839 0
-3838 -3599 3528 -3839 0
3838 -3599 -3528 0
3838 -3599 3839 0
3838 3599 3528 -3839 0
3839 3597 -3837 0
-3839 -3597 0
-3839 3837 0
-3840 3841 3852 0
3840 -3841 0
3840 -3852 0
-3841 3842 3847 0
3841 -3842 0
3841 -3847 0
-3842 3843 3845 0
3842 -3843 0
3842 -3845 0
-3843 3604 -3528 0
-3843 3528 3844 0
3843 -3604 -3528 0
3843 3528 -3844 0
3844 -3604 0
-3844 3604 0
-3845 3606 -3528 0
-3845 3528 3846 0
3845 -3606 -3528 0
3845 3528 -3846 0
3846 -3606 0
-3846 3606 0
-3847 3848 3850 0
3847 -3848 0
3847 -3850 0
-3848 3609 -3528 0
-3848 3528 3849 0
3848 -3609 -3528 0
3848 3528 -3849 0
3849 -3609 0
-3849 3609 0
-3850 3611 -3528 0
-3850 3528 3851 0
3850 -3611 -3528 0
3850 3528 -3851 0
3851 -3611 0
-3851 3611 0
-3852 3830 3835 0
3852 -3830 0
3852 -3835 0
-3853 3842 3847 0
3853 -3842 0
3853 -3847 0
3854 3768 -3855 0
-3854 -3768 0
-3854 3855 0
-3855 -3821 3856 3863 0
-3855 3856 3861 3863 0
3855 -3863 0
3855 -3856 0
3855 3821 -3861 0
3856 3813 -3857 0
-3856 -3813 0
-3856 3857 0
-3857 -8293 3858 3860 0
-3857 -8293 3811 3858 0
-3857 3811 3858 3860 0
3857 -3811 -3860 0
3857 8293 -3860 0
3857 -3858 0
3857 8293 -3811 0
3858 3806 -3859 0
-3858 -3806 0
-3858 3859 0
-3859 -8291 3802 0
-3859 3802 3804 0
-3859 -8291 3804 0
3859 8291 -3804 0
3859 -3802 -3804 0
3859 8291 -3802 0
3860 8292 -3808 0
-3860 -8292 0
-3860 3808 0
-3861 -8295 3819 0
-3861 3819 3862 0
-3861 -8295 3862 0
3861 -3819 -3862 0
3861 8295 -3819 0
3861 8295 -3862 0
3862 8294 -3816 0
-3862 -8294 0
-3862 3816 0
-3863 -8297 3826 0
-3863 3826 3864 0
-3863 -8297 3864 0
3863 -3826 -3864 0
3863 8297 -3826 0
3863 8297 -3864 0
3864 8296 -3823 0
-3864 -8296 0
-3864 3823 0
-3865 -3770 3866 3874 0
-3865 3866 3872 3874 0
3865 -3874 0
3865 -3866 0
3865 3770 -3872 0
3866 3769 -3867 0
-3866 -3769 0
-3866 3867 0
-3867 -8301 3868 3871 0
-3867 -8301 3797 3868 0
-3867 3797 3868 3871 0
3867 -3797 -3871 0
3867 8301 -3871 0
3867 -3868 0
3867 8301 -3797 0
3868 3792 -3869 0
-3868 -3792 0
-3868 3869 0
-3869 -8299 3790 0
-3869 3790 3870 0
-3869 -8299 3870 0
3869 -3790 -3870 0
3869 8299 -3790 0
3869 8299 -3870 0
3870 8298 -3788 0
-3870 -8298 0
-3870 3788 0
3871 8300 -3794 0
-3871 -8300 0
-3871 3794 0
-3872 -8303 3783 0
-3872 3783 3873 0
-3872 -8303 3873 0
3872 -3783 -3873 0
3872 8303 -3783 0
3872 8303 -3873 0
3873 8302 -3781 0
-3873 -8302 0
-3873 3781 0
-3874 -8305 3777 0
-3874 3777 3875 0
-3874 -8305 3875 0
3874 -3777 -3875 0
3874 8305 -3777 0
3874 8305 -3875 0
3875 8304 -3772 0
-3875 -8304 0
-3875 3772 0
-3876 3877 3840 3884 0
3876 -3877 0
3876 -3840 0
3876 -3884 0
-3877 3878 3881 0
3877 -3878 0
3877 -3881 0
-3878 3879 3880 0
3878 -3879 0
3878 -3880 0
-3879 3401 0
3879 -3401 0
-3880 3640 0
3880 -3640 0
-3881 3882 3883 0
3881 -3882 0
3881 -3883 0
-3882 3642 0
3882 -3642 0
-3883 3643 0
3883 -3643 0
-3884 3170 3172 3407 3408 0
3884 -3408 0
3884 -3170 0
3884 -3407 0
3884 -3172 0
3885 -8306 0
3885 -3886 -3947 0
3885 -3947 -3995 0
-3885 8306 3947 0
-3885 8306 3886 3995 0
-3886 3887 3918 0
3886 -3887 0
3886 -3918 0
-3887 3888 3904 0
3887 -3888 0
3887 -3904 0
-3888 3889 3898 0
3888 -3889 0
3888 -3898 0
-3889 3890 3895 0
3889 -3890 0
3889 -3895 0
3890 -8304 3891 0
3890 8304 -3891 0
-3890 8304 3891 0
-3890 -8304 -3891 0
-3891 3651 -3645 0
-3891 3650 3645 3892 0
-3891 -3650 3645 -3892 0
3891 -3651 -3645 0
3891 3650 3645 -3892 0
3891 -3650 3645 3892 0
3892 -3658 3749 0
3892 3749 -3893 0
-3892 -3749 0
-3892 3658 3893 0
3893 -3664 3744 0
3893 3744 -3894 0
-3893 -3744 0
-3893 3664 3894 0
3894 -3707 3733 0
3894 -3678 3733 0
-3894 -3733 0
-3894 3707 3678 0
3895 -8305 3896 0
3895 8305 -3896 0
-3895 8305 3896 0
-3895 -8305 -3896 0
-3896 3656 -3645 0
-3896 3655 3645 3897 0
-3896 -3655 3645 -3897 0
3896 -3656 -3645 0
3896 3655 3645 -3897 0
3896 -3655 3645 3897 0
3897 -3650 3752 0
3897 3752 -3892 0
-3897 -3752 0
-3897 3650 3892 0
-3898 3899 3901 0
3898 -3899 0
3898 -3901 0
3899 -8302 3900 0
3899 8302 -3900 0
-3899 8302 3900 0
-3899 -8302 -3900 0
-3900 3660 -3645 0
-3900 3659 3645 3893 0
-3900 -3659 3645 -3893 0
3900 -3660 -3645 0
3900 3659 3645 -3893 0
3900 -3659 3645 3893 0
3901 -8303 3902 0
3901 8303 -3902 0
-3901 8303 3902 0
-3901 -8303 -3902 0
-3902 3662 -3645 0
-3902 3661 3645 3903 0
-3902 -3661 3645 -3903 0
3902 -3662 -3645 0
3902 3661 3645 -3903 0
3902 -3661 3645 3903 0
3903 -3659 3750 0
3903 3750 -3893 0
-3903 -3750 0
-3903 3659 3893 0
-3904 3905 3911 0
3904 -3905 0
3904 -3911 0
-3905 3906 3908 0
3905 -3906 0
3905 -3908 0
3906 -8298 3907 0
3906 8298 -3907 0
-3906 8298 3907 0
-3906 -8298 -3907 0
-3907 3667 -3645 0
-3907 3666 3645 3894 0
-3907 -3666 3645 -3894 0
3907 -3667 -3645 0
3907 3666 3645 -3894 0
3907 -3666 3645 3894 0
3908 -8299 3909 0
3908 8299 -3909 0
-3908 8299 3909 0
-3908 -8299 -3909 0
-3909 3669 -3645 0
-3909 3668 3645 3910 0
-3909 -3668 3645 -3910 0
3909 -3669 -3645 0
3909 3668 3645 -3910 0
3909 -3668 3645 3910 0
3910 -3666 3747 0
3910 3747 -3894 0
-3910 -3747 0
-3910 3666 3894 0
-3911 3912 3915 0
3911 -3912 0
3911 -3915 0
3912 -8300 3913 0
3912 8300 -3913 0
-3912 8300 3913 0
-3912 -8300 -3913 0
-3913 3673 -3645 0
-3913 3672 3645 3914 0
-3913 -3672 3645 -3914 0
3913 -3673 -3645 0
3913 3672 3645 -3914 0
3913 -3672 3645 3914 0
3914 -3665 3746 0
3914 3746 -3894 0
-3914 -3746 0
-3914 3665 3894 0
3915 -8301 3916 0
3915 8301 -3916 0
-3915 8301 3916 0
-3915 -8301 -3916 0
-3916 3676 -3645 0
-3916 3675 3645 3917 0
-3916 -3675 3645 -3917 0
3916 -3676 -3645 0
3916 3675 3645 -3917 0
3916 -3675 3645 3917 0
3917 -3672 3748 0
3917 3748 -3914 0
-3917 -3748 0
-3917 3672 3914 0
-3918 3919 3932 0
3918 -3919 0
3918 -3932 0
-3919 3920 3925 0
3919 -3920 0
3919 -3925 0
-3920 3921 3922 0
3920 -3921 0
3920 -3922 0
-3921 3707 3681 0
-3921 3681 -3645 0
-3921 -3707 -3681 3645 0
3921 -3681 -3645 0
3921 3707 -3681 0
3921 -3707 3681 3645 0
3922 -8291 3923 0
3922 8291 -3923 0
-3922 8291 3923 0
-3922 -8291 -3923 0
-3923 3682 -3645 0
-3923 3682 3924 0
-3923 -3682 3645 -3924 0
3923 -3682 -3645 0
3923 -3682 3924 0
3923 3682 3645 -3924 0
3924 -3707 3681 0
-3924 3707 0
-3924 -3681 0
-3925 3926 3929 0
3925 -3926 0
3925 -3929 0
3926 -8292 3927 0
3926 8292 -3927 0
-3926 8292 3927 0
-3926 -8292 -3927 0
-3927 3686 -3645 0
-3927 3685 3645 3928 0
-3927 -3685 3645 -3928 0
3927 -3686 -3645 0
3927 3685 3645 -3928 0
3927 -3685 3645 3928 0
3928 -3707 3680 0
-3928 3707 0
-3928 -3680 0
3929 -8293 3930 0
3929 8293 -3930 0
-3929 8293 3930 0
-3929 -8293 -3930 0
-3930 3689 -3645 0
-3930 3688 3645 3931 0
-3930 -3688 3645 -3931 0
3930 -3689 -3645 0
3930 3688 3645 -3931 0
3930 -3688 3645 3931 0
3931 -3685 3737 0
3931 3737 -3928 0
-3931 -3737 0
-3931 3685 3928 0
-3932 3933 3940 0
3932 -3933 0
3932 -3940 0
-3933 3934 3937 0
3933 -3934 0
3933 -3937 0
3934 -8294 3935 0
3934 8294 -3935 0
-3934 8294 3935 0
-3934 -8294 -3935 0
-3935 3694 -3645 0
-3935 3693 3645 3936 0
-3935 -3693 3645 -3936 0
3935 -3694 -3645 0
3935 3693 3645 -3936 0
3935 -3693 3645 3936 0
3936 -3707 3735 0
3936 -3679 3735 0
-3936 -3735 0
-3936 3707 3679 0
3937 -8295 3938 0
3937 8295 -3938 0
-3937 8295 3938 0
-3937 -8295 -3938 0
-3938 3697 -3645 0
-3938 3696 3645 3939 0
-3938 -3696 3645 -3939 0
3938 -3697 -3645 0
3938 3696 3645 -3939 0
3938 -3696 3645 3939 0
3939 -3693 3739 0
3939 3739 -3936 0
-3939 -3739 0
-3939 3693 3936 0
-3940 3941 3944 0
3940 -3941 0
3940 -3944 0
3941 -8296 3942 0
3941 8296 -3942 0
-3941 8296 3942 0
-3941 -8296 -3942 0
-3942 3701 -3645 0
-3942 3700 3645 3943 0
-3942 -3700 3645 -3943 0
3942 -3701 -3645 0
3942 3700 3645 -3943 0
3942 -3700 3645 3943 0
3943 -3692 3738 0
3943 3738 -3936 0
-3943 -3738 0
-3943 3692 3936 0
3944 -8297 3945 0
3944 8297 -3945 0
-3944 8297 3945 0
-3944 -8297 -3945 0
-3945 3704 -3645 0
-3945 3703 3645 3946 0
-3945 -3703 3645 -3946 0
3945 -3704 -3645 0
3945 3703 3645 -3946 0
3945 -3703 3645 3946 0
3946 -3700 3741 0
3946 3741 -3943 0
-3946 -3741 0
-3946 3700 3943 0
3947 -3886 3973 3984 0
3947 -3948 3973 3984 0
-3947 -3984 0
-3947 -3973 0
-3947 3948 3886 0
3948 3949 3954 -3959 3972 0
-3948 -3972 0
-3948 -3949 0
-3948 -3954 0
-3948 3959 0
-3949 3950 3952 0
3949 -3950 0
3949 -3952 0
-3950 3709 -3645 0
-3950 3709 3951 0
-3950 -3709 3645 -3951 0
3950 -3709 -3645 0
3950 -3709 3951 0
3950 3709 3645 -3951 0
3951 -3719 3731 0
-3951 3719 0
-3951 -3731 0
-3952 3711 -3645 0
-3952 3711 3953 0
-3952 -3711 3645 -3953 0
3952 -3711 -3645 0
3952 -3711 3953 0
3952 3711 3645 -3953 0
3953 3709 -3951 0
-3953 -3709 0
-3953 3951 0
-3954 3955 3957 0
3954 -3955 0
3954 -3957 0
-3955 3714 -3645 0
-3955 3714 3956 0
-3955 -3714 3645 -3956 0
3955 -3714 -3645 0
3955 -3714 3956 0
3955 3714 3645 -3956 0
3956 3708 -3951 0
-3956 -3708 0
-3956 3951 0
-3957 3716 -3645 0
-3957 3716 3958 0
-3957 -3716 3645 -3958 0
3957 -3716 -3645 0
3957 -3716 3958 0
3957 3716 3645 -3958 0
3958 3714 -3956 0
-3958 -3714 0
-3958 3956 0
-3959 3960 3971 0
3959 -3960 0
3959 -3971 0
-3960 3961 3966 0
3960 -3961 0
3960 -3966 0
-3961 3962 3964 0
3961 -3962 0
3961 -3964 0
-3962 3721 -3645 0
-3962 3645 3963 0
3962 -3721 -3645 0
3962 3645 -3963 0
3963 -3721 0
-3963 3721 0
-3964 3723 -3645 0
-3964 3645 3965 0
3964 -3723 -3645 0
3964 3645 -3965 0
3965 -3723 0
-3965 3723 0
-3966 3967 3969 0
3966 -3967 0
3966 -3969 0
-3967 3726 -3645 0
-3967 3645 3968 0
3967 -3726 -3645 0
3967 3645 -3968 0
3968 -3726 0
-3968 3726 0
-3969 3728 -3645 0
-3969 3645 3970 0
3969 -3728 -3645 0
3969 3645 -3970 0
3970 -3728 0
-3970 3728 0
-3971 3949 3954 0
3971 -3949 0
3971 -3954 0
-3972 3961 3966 0
3972 -3961 0
3972 -3966 0
3973 3887 -3974 0
-3973 -3887 0
-3973 3974 0
-3974 -3940 3975 3982 0
-3974 3975 3980 3982 0
3974 -3982 0
3974 -3975 0
3974 3940 -3980 0
3975 3932 -3976 0
-3975 -3932 0
-3975 3976 0
-3976 -8293 3977 3979 0
-3976 -8293 3930 3977 0
-3976 3930 3977 3979 0
3976 -3930 -3979 0
3976 8293 -3979 0
3976 -3977 0
3976 8293 -3930 0
3977 3925 -3978 0
-3977 -3925 0
-3977 3978 0
-3978 -8291 3921 0
-3978 3921 3923 0
-3978 -8291 3923 0
3978 8291 -3923 0
3978 -3921 -3923 0
3978 8291 -3921 0
3979 8292 -3927 0
-3979 -8292 0
-3979 3927 0
-3980 -8295 3938 0
-3980 3938 3981 0
-3980 -8295 3981 0
3980 -3938 -3981 0
3980 8295 -3938 0
3980 8295 -3981 0
3981 8294 -3935 0
-3981 -8294 0
-3981 3935 0
-3982 -8297 3945 0
-3982 3945 3983 0
-3982 -8297 3983 0
3982 -3945 -3983 0
3982 8297 -3945 0
3982 8297 -3983 0
3983 8296 -3942 0
-3983 -8296 0
-3983 3942 0
-3984 -3889 3985 3993 0
-3984 3985 3991 3993 0
3984 -3993 0
3984 -3985 0
3984 3889 -3991 0
3985 3888 -3986 0
-3985 -3888 0
-3985 3986 0
-3986 -8301 3987 3990 0
-3986 -8301 3916 3987 0
-3986 3916 3987 3990 0
3986 -3916 -3990 0
3986 8301 -3990 0
3986 -3987 0
3986 8301 -3916 0
3987 3911 -3988 0
-3987 -3911 0
-3987 3988 0
-3988 -8299 3909 0
-3988 3909 3989 0
-3988 -8299 3989 0
3988 -3909 -3989 0
3988 8299 -3909 0
3988 8299 -3989 0
3989 8298 -3907 0
-3989 -8298 0
-3989 3907 0
3990 8300 -3913 0
-3990 -8300 0
-3990 3913 0
-3991 -8303 3902 0
-3991 3902 3992 0
-3991 -8303 3992 0
3991 -3902 -3992 0
3991 8303 -3902 0
3991 8303 -3992 0
3992 8302 -3900 0
-3992 -8302 0
-3992 3900 0
-3993 -8305 3896 0
-3993 3896 3994 0
-3993 -8305 3994 0
3993 -3896 -3994 0
3993 8305 -3896 0
3993 8305 -3994 0
3994 8304 -3891 0
-3994 -8304 0
-3994 3891 0
-3995 3522 3996 3959 4003 0
3995 -4003 0
3995 -3522 0
3995 -3959 0
3995 -3996 0
-3996 3997 4000 0
3996 -3997 0
3996 -4000 0
-3997 3998 3999 0
3997 -3998 0
3997 -3999 0
-3998 3517 0
3998 -3517 0
-3999 3757 0
3999 -3757 0
-4000 4001 4002 0
4000 -4001 0
4000 -4002 0
-4001 3759 0
4001 -3759 0
-4002 3760 0
4002 -3760 0
-4003 2607 2609 0
4003 -2607 0
4003 -2609 0
-4004 1162 4005 0
-4004 1116 -1162 -4044 0
4004 1162 -4005 0
4004 -1116 -1162 0
4004 -1162 4044 0
-4005 4013 4037 0
-4005 4006 4037 0
-4005 4020 4037 0
4005 -4037 0
4005 -4006 -4013 -4020 0
4006 -4007 -4010 0
-4006 4007 0
-4006 4010 0
4007 -4008 -4009 0
-4007 4008 0
-4007 4009 0
-4008 -8290 -8306 0
-4008 8306 39 0
4008 8290 -8306 0
4008 8306 -39 0
-4009 -8289 -8305 0
-4009 8305 16 0
4009 8289 -8305 0
4009 8305 -16 0
4010 -4011 -4012 0
-4010 4011 0
-4010 4012 0
-4011 -8288 -8304 0
-4011 8304 18 0
4011 8288 -8304 0
4011 8304 -18 0
-4012 -8287 -8303 0
-4012 8303 47 0
4012 8287 -8303 0
4012 8303 -47 0
4013 -4014 -4017 0
-4013 4014 0
-4013 4017 0
4014 -4015 -4016 0
-4014 4015 0
-4014 4016 0
-4015 -8286 -8302 0
-4015 8302 32 0
4015 8286 -8302 0
4015 8302 -32 0
-4016 -8285 -8301 0
-4016 8301 25 0
4016 8285 -8301 0
4016 8301 -25 0
4017 -4018 -4019 0
-4017 4018 0
-4017 4019 0
-4018 -8284 -8300 0
-4018 8300 27 0
4018 8284 -8300 0
4018 8300 -27 0
-4019 -8283 -8299 0
-4019 8299 29 0
4019 8283 -8299 0
4019 8299 -29 0
-4020 4024 4034 0
-4020 4021 4034 0
-4020 4027 4034 0
4020 -4034 0
4020 -4021 -4024 -4027 0
4021 -4022 -4023 0
-4021 4022 0
-4021 4023 0
-4022 -8282 -8298 0
-4022 8298 130 0
4022 8282 -8298 0
4022 8298 -130 0
-4023 -8281 -8297 0
-4023 8297 166 0
4023 8281 -8297 0
4023 8297 -166 0
4024 -4025 -4026 0
-4024 4025 0
-4024 4026 0
-4025 -8280 -8296 0
-4025 8296 202 0
4025 8280 -8296 0
4025 8296 -202 0
-4026 -8279 -8295 0
-4026 8295 242 0
4026 8279 -8295 0
4026 8295 -242 0
-4027 917 971 4029 0
-4027 917 4028 4029 0
4027 -917 0
4027 -4029 0
4027 -971 -4028 0
-4028 -8278 -8294 0
-4028 8294 292 0
4028 8278 -8294 0
4028 8294 -292 0
4029 -4028 -4030 -4031 0
-4029 4028 0
-4029 4031 0
-4029 4030 0
-4030 -8277 -8293 0
-4030 8293 342 0
4030 8277 -8293 0
4030 8293 -342 0
-4031 1013 4032 0
-4031 1013 4033 0
4031 -1013 0
4031 -4032 -4033 0
-4032 -8276 -8292 0
-4032 8292 391 0
4032 8276 -8292 0
4032 8292 -391 0
4033 -8291 -444 0
-4033 8291 0
-4033 444 0
-4034 534 630 4035 0
-4034 534 4022 4035 0
4034 -534 0
4034 -4035 0
4034 -630 -4022 0
4035 -4021 -4036 0
-4035 4021 0
-4035 4036 0
-4036 730 817 0
-4036 730 4025 0
4036 -730 0
4036 -817 -4025 0
-4037 4007 4038 4043 0
-4037 4038 4042 4043 0
4037 -4043 0
4037 -4038 0
4037 -4007 -4042 0
4038 -4006 -4039 0
-4038 4006 0
-4038 4039 0
-4039 227 153 4040 0
-4039 153 4015 4040 0
4039 -4040 0
4039 -153 0
4039 -227 -4015 0
4040 -4014 -4041 0
-4040 4014 0
-4040 4041 0
-4041 320 422 0
-4041 320 4018 0
4041 -320 0
4041 -422 -4018 0
-4042 62 19 0
-4042 62 4011 0
4042 -62 0
4042 -19 -4011 0
-4043 1083 4008 0
-4043 92 1083 0
4043 -1083 0
4043 -92 -4008 0
-4044 1092 1115 4046 0
-4044 -1092 1115 -4045 0
4044 -1115 0
4044 1092 -4046 0
4044 -1092 4045 0
-4045 666 714 0
-4045 -666 -714 0
4045 -666 714 0
4045 666 -714 0
4046 -4072 4134 0
4046 -4047 4134 -4157 0
-4046 -4134 0
-4046 4072 4157 0
-4046 4047 4072 0
4047 4048 4053 -4058 4071 0
-4047 -4071 0
-4047 -4048 0
-4047 -4053 0
-4047 4058 0
-4048 4049 4051 0
4048 -4049 0
4048 -4051 0
-4049 3831 -3766 0
-4049 3831 4050 0
-4049 -3831 3766 -4050 0
4049 -3831 -3766 0
4049 -3831 4050 0
4049 3831 3766 -4050 0
4050 -3841 3853 0
-4050 3841 0
-4050 -3853 0
-4051 3833 -3766 0
-4051 3833 4052 0
-4051 -3833 3766 -4052 0
4051 -3833 -3766 0
4051 -3833 4052 0
4051 3833 3766 -4052 0
4052 3831 -4050 0
-4052 -3831 0
-4052 4050 0
-4053 4054 4056 0
4053 -4054 0
4053 -4056 0
-4054 3836 -3766 0
-4054 3836 4055 0
-4054 -3836 3766 -4055 0
4054 -3836 -3766 0
4054 -3836 4055 0
4054 3836 3766 -4055 0
4055 3830 -4050 0
-4055 -3830 0
-4055 4050 0
-4056 3838 -3766 0
-4056 3838 4057 0
-4056 -3838 3766 -4057 0
4056 -3838 -3766 0
4056 -3838 4057 0
4056 3838 3766 -4057 0
4057 3836 -4055 0
-4057 -3836 0
-4057 4055 0
-4058 4059 4070 0
4058 -4059 0
4058 -4070 0
-4059 4060 4065 0
4059 -4060 0
4059 -4065 0
-4060 4061 4063 0
4060 -4061 0
4060 -4063 0
-4061 3843 -3766 0
-4061 3766 4062 0
4061 -3843 -3766 0
4061 3766 -4062 0
4062 -3843 0
-4062 3843 0
-4063 3845 -3766 0
-4063 3766 4064 0
4063 -3845 -3766 0
4063 3766 -4064 0
4064 -3845 0
-4064 3845 0
-4065 4066 4068 0
4065 -4066 0
4065 -4068 0
-4066 3848 -3766 0
-4066 3766 4067 0
4066 -3848 -3766 0
4066 3766 -4067 0
4067 -3848 0
-4067 3848 0
-4068 3850 -3766 0
-4068 3766 4069 0
4068 -3850 -3766 0
4068 3766 -4069 0
4069 -3850 0
-4069 3850 0
-4070 4048 4053 0
4070 -4048 0
4070 -4053 0
-4071 4060 4065 0
4071 -4060 0
4071 -4065 0
-4072 4073 4104 0
4072 -4073 0
4072 -4104 0
-4073 4074 4090 0
4073 -4074 0
4073 -4090 0
-4074 4075 4084 0
4074 -4075 0
4074 -4084 0
-4075 4076 4081 0
4075 -4076 0
4075 -4081 0
4076 -8305 4077 0
4076 8305 -4077 0
-4076 8305 4077 0
-4076 -8305 -4077 0
-4077 3772 -3766 0
-4077 3771 3766 4078 0
-4077 -3771 3766 -4078 0
4077 -3772 -3766 0
4077 3771 3766 -4078 0
4077 -3771 3766 4078 0
4078 -3779 3872 0
4078 3872 -4079 0
-4078 -3872 0
-4078 3779 4079 0
4079 -3785 3867 0
4079 3867 -4080 0
-4079 -3867 0
-4079 3785 4080 0
4080 -3829 3855 0
4080 -3799 3855 0
-4080 -3855 0
-4080 3829 3799 0
4081 -8306 3777 0
4081 8306 -4082 0
-4081 -8306 -3777 0
-4081 8306 4082 0
-4082 3777 -3766 0
-4082 3776 3766 4083 0
-4082 -3776 3766 -4083 0
4082 -3777 -3766 0
4082 3776 3766 -4083 0
4082 -3776 3766 4083 0
4083 -3771 3875 0
4083 3875 -4078 0
-4083 -3875 0
-4083 3771 4078 0
-4084 4085 4087 0
4084 -4085 0
4084 -4087 0
4085 -8303 4086 0
4085 8303 -4086 0
-4085 8303 4086 0
-4085 -8303 -4086 0
-4086 3781 -3766 0
-4086 3780 3766 4079 0
-4086 -3780 3766 -4079 0
4086 -3781 -3766 0
4086 3780 3766 -4079 0
4086 -3780 3766 4079 0
4087 -8304 4088 0
4087 8304 -4088 0
-4087 8304 4088 0
-4087 -8304 -4088 0
-4088 3783 -3766 0
-4088 3782 3766 4089 0
-4088 -3782 3766 -4089 0
4088 -3783 -3766 0
4088 3782 3766 -4089 0
4088 -3782 3766 4089 0
4089 -3780 3873 0
4089 3873 -4079 0
-4089 -3873 0
-4089 3780 4079 0
-4090 4091 4097 0
4090 -4091 0
4090 -4097 0
-4091 4092 4094 0
4091 -4092 0
4091 -4094 0
4092 -8299 4093 0
4092 8299 -4093 0
-4092 8299 4093 0
-4092 -8299 -4093 0
-4093 3788 -3766 0
-4093 3787 3766 4080 0
-4093 -3787 3766 -4080 0
4093 -3788 -3766 0
4093 3787 3766 -4080 0
4093 -3787 3766 4080 0
4094 -8300 4095 0
4094 8300 -4095 0
-4094 8300 4095 0
-4094 -8300 -4095 0
-4095 3790 -3766 0
-4095 3789 3766 4096 0
-4095 -3789 3766 -4096 0
4095 -3790 -3766 0
4095 3789 3766 -4096 0
4095 -3789 3766 4096 0
4096 -3787 3870 0
4096 3870 -4080 0
-4096 -3870 0
-4096 3787 4080 0
-4097 4098 4101 0
4097 -4098 0
4097 -4101 0
4098 -8301 4099 0
4098 8301 -4099 0
-4098 8301 4099 0
-4098 -8301 -4099 0
-4099 3794 -3766 0
-4099 3793 3766 4100 0
-4099 -3793 3766 -4100 0
4099 -3794 -3766 0
4099 3793 3766 -4100 0
4099 -3793 3766 4100 0
4100 -3786 3869 0
4100 3869 -4080 0
-4100 -3869 0
-4100 3786 4080 0
4101 -8302 4102 0
4101 8302 -4102 0
-4101 8302 4102 0
-4101 -8302 -4102 0
-4102 3797 -3766 0
-4102 3796 3766 4103 0
-4102 -3796 3766 -4103 0
4102 -3797 -3766 0
4102 3796 3766 -4103 0
4102 -3796 3766 4103 0
4103 -3793 3871 0
4103 3871 -4100 0
-4103 -3871 0
-4103 3793 4100 0
-4104 4105 4119 0
4104 -4105 0
4104 -4119 0
-4105 4106 4112 0
4105 -4106 0
4105 -4112 0
-4106 4107 4109 0
4106 -4107 0
4106 -4109 0
4107 -8291 4108 0
4107 8291 -4108 0
-4107 8291 4108 0
-4107 -8291 -4108 0
-4108 3829 3802 0
-4108 3802 -3766 0
-4108 -3829 -3802 3766 0
4108 -3802 -3766 0
4108 3829 -3802 0
4108 -3829 3802 3766 0
4109 -8292 4110 0
4109 8292 -4110 0
-4109 8292 4110 0
-4109 -8292 -4110 0
-4110 3804 -3766 0
-4110 3803 3766 4111 0
-4110 -3803 3766 -4111 0
4110 -3804 -3766 0
4110 3803 3766 -4111 0
4110 -3803 3766 4111 0
4111 -3829 3802 0
-4111 3829 0
-4111 -3802 0
-4112 4113 4116 0
4112 -4113 0
4112 -4116 0
4113 -8293 4114 0
4113 8293 -4114 0
-4113 8293 4114 0
-4113 -8293 -4114 0
-4114 3808 -3766 0
-4114 3807 3766 4115 0
-4114 -3807 3766 -4115 0
4114 -3808 -3766 0
4114 3807 3766 -4115 0
4114 -3807 3766 4115 0
4115 -3829 3859 0
4115 -3801 3859 0
-4115 -3859 0
-4115 3829 3801 0
4116 -8294 4117 0
4116 8294 -4117 0
-4116 8294 4117 0
-4116 -8294 -4117 0
-4117 3811 -3766 0
-4117 3810 3766 4118 0
-4117 -3810 3766 -4118 0
4117 -3811 -3766 0
4117 3810 3766 -4118 0
4117 -3810 3766 4118 0
4118 -3807 3860 0
4118 3860 -4115 0
-4118 -3860 0
-4118 3807 4115 0
-4119 4120 4127 0
4119 -4120 0
4119 -4127 0
-4120 4121 4124 0
4120 -4121 0
4120 -4124 0
4121 -8295 4122 0
4121 8295 -4122 0
-4121 8295 4122 0
-4121 -8295 -4122 0
-4122 3816 -3766 0
-4122 3815 3766 4123 0
-4122 -3815 3766 -4123 0
4122 -3816 -3766 0
4122 3815 3766 -4123 0
4122 -3815 3766 4123 0
4123 -3829 3857 0
4123 -3800 3857 0
-4123 -3857 0
-4123 3829 3800 0
4124 -8296 4125 0
4124 8296 -4125 0
-4124 8296 4125 0
-4124 -8296 -4125 0
-4125 3819 -3766 0
-4125 3818 3766 4126 0
-4125 -3818 3766 -4126 0
4125 -3819 -3766 0
4125 3818 3766 -4126 0
4125 -3818 3766 4126 0
4126 -3815 3862 0
4126 3862 -4123 0
-4126 -3862 0
-4126 3815 4123 0
-4127 4128 4131 0
4127 -4128 0
4127 -4131 0
4128 -8297 4129 0
4128 8297 -4129 0
-4128 8297 4129 0
-4128 -8297 -4129 0
-4129 3823 -3766 0
-4129 3822 3766 4130 0
-4129 -3822 3766 -4130 0
4129 -3823 -3766 0
4129 3822 3766 -4130 0
4129 -3822 3766 4130 0
4130 -3814 3861 0
4130 3861 -4123 0
-4130 -3861 0
-4130 3814 4123 0
4131 -8298 4132 0
4131 8298 -4132 0
-4131 8298 4132 0
-4131 -8298 -4132 0
-4132 3826 -3766 0
-4132 3825 3766 4133 0
-4132 -3825 3766 -4133 0
4132 -3826 -3766 0
4132 3825 3766 -4133 0
4132 -3825 3766 4133 0
4133 -3822 3864 0
4133 3864 -4130 0
-4133 -3864 0
-4133 3822 4130 0
-4134 -4074 4135 4152 0
-4134 4135 4147 4152 0
4134 -4152 0
4134 -4135 0
4134 4074 -4147 0
4135 4073 -4136 0
-4135 -4073 0
-4135 4136 0
-4136 -4127 4137 4145 0
-4136 4137 4143 4145 0
4136 -4145 0
4136 -4137 0
4136 4127 -4143 0
4137 4119 -4138 0
-4137 -4119 0
-4137 4138 0
-4138 -8294 4139 4142 0
-4138 -8294 4117 4139 0
-4138 4117 4139 4142 0
4138 -4117 -4142 0
4138 8294 -4142 0
4138 -4139 0
4138 8294 -4117 0
4139 4112 -4140 0
-4139 -4112 0
-4139 4140 0
-4140 -8292 4110 0
-4140 4110 4141 0
-4140 -8292 4141 0
4140 -4110 -4141 0
4140 8292 -4110 0
4140 8292 -4141 0
4141 8291 -4108 0
-4141 -8291 0
-4141 4108 0
4142 8293 -4114 0
-4142 -8293 0
-4142 4114 0
-4143 -8296 4125 0
-4143 4125 4144 0
-4143 -8296 4144 0
4143 -4125 -4144 0
4143 8296 -4125 0
4143 8296 -4144 0
4144 8295 -4122 0
-4144 -8295 0
-4144 4122 0
-4145 -8298 4132 0
-4145 4132 4146 0
-4145 -8298 4146 0
4145 -4132 -4146 0
4145 8298 -4132 0
4145 8298 -4146 0
4146 8297 -4129 0
-4146 -8297 0
-4146 4129 0
-4147 -8302 4148 4151 0
-4147 -8302 4102 4148 0
-4147 4102 4148 4151 0
4147 -4102 -4151 0
4147 8302 -4151 0
4147 -4148 0
4147 8302 -4102 0
4148 4097 -4149 0
-4148 -4097 0
-4148 4149 0
-4149 -8300 4095 0
-4149 4095 4150 0
-4149 -8300 4150 0
4149 -4095 -4150 0
4149 8300 -4095 0
4149 8300 -4150 0
4150 8299 -4093 0
-4150 -8299 0
-4150 4093 0
4151 8301 -4099 0
-4151 -8301 0
-4151 4099 0
-4152 4153 4155 0
-4152 -4075 4155 0
4152 -4155 0
4152 4075 -4153 0
-4153 -8304 4088 0
-4153 4088 4154 0
-4153 -8304 4154 0
4153 -4088 -4154 0
4153 8304 -4088 0
4153 8304 -4154 0
4154 8303 -4086 0
-4154 -8303 0
-4154 4086 0
-4155 4082 -4081 0
-4155 -8306 4156 0
-4155 -8306 -4081 0
-4155 4082 4156 0
4155 4081 -4156 0
4155 8306 -4082 0
4156 8305 -4077 0
-4156 -8305 0
-4156 4077 0
-4157 4158 4058 4165 0
4157 -4158 0
4157 -4058 0
4157 -4165 0
-4158 4159 4162 0
4158 -4159 0
4158 -4162 0
-4159 4160 4161 0
4159 -4160 0
4159 -4161 0
-4160 3639 0
4160 -3639 0
-4161 3880 0
4161 -3880 0
-4162 4163 4164 0
4162 -4163 0
4162 -4164 0
-4163 3882 0
4163 -3882 0
-4164 3883 0
4164 -3883 0
-4165 3169 3171 4166 4167 0
4165 -4167 0
4165 -3169 0
4165 -4166 0
4165 -3171 0
-4166 3174 0
4166 -3174 0
-4167 4168 0
4167 -4168 0
-4168 3175 0
4168 -3175 0
4169 -4195 4257 0
4169 -4170 4257 -4280 0
-4169 -4257 0
-4169 4195 4280 0
-4169 4170 4195 0
4170 4171 4176 -4181 4194 0
-4170 -4194 0
-4170 -4171 0
-4170 -4176 0
-4170 4181 0
-4171 4172 4174 0
4171 -4172 0
4171 -4174 0
-4172 3950 -3885 0
-4172 3950 4173 0
-4172 -3950 3885 -4173 0
4172 -3950 -3885 0
4172 -3950 4173 0
4172 3950 3885 -4173 0
4173 -3960 3972 0
-4173 3960 0
-4173 -3972 0
-4174 3952 -3885 0
-4174 3952 4175 0
-4174 -3952 3885 -4175 0
4174 -3952 -3885 0
4174 -3952 4175 0
4174 3952 3885 -4175 0
4175 3950 -4173 0
-4175 -3950 0
-4175 4173 0
-4176 4177 4179 0
4176 -4177 0
4176 -4179 0
-4177 3955 -3885 0
-4177 3955 4178 0
-4177 -3955 3885 -4178 0
4177 -3955 -3885 0
4177 -3955 4178 0
4177 3955 3885 -4178 0
4178 3949 -4173 0
-4178 -3949 0
-4178 4173 0
-4179 3957 -3885 0
-4179 3957 4180 0
-4179 -3957 3885 -4180 0
4179 -3957 -3885 0
4179 -3957 4180 0
4179 3957 3885 -4180 0
4180 3955 -4178 0
-4180 -3955 0
-4180 4178 0
-4181 4182 4193 0
4181 -4182 0
4181 -4193 0
-4182 4183 4188 0
4182 -4183 0
4182 -4188 0
-4183 4184 4186 0
4183 -4184 0
4183 -4186 0
-4184 3962 -3885 0
-4184 3885 4185 0
4184 -3962 -3885 0
4184 3885 -4185 0
4185 -3962 0
-4185 3962 0
-4186 3964 -3885 0
-4186 3885 4187 0
4186 -3964 -3885 0
4186 3885 -4187 0
4187 -3964 0
-4187 3964 0
-4188 4189 4191 0
4188 -4189 0
4188 -4191 0
-4189 3967 -3885 0
-4189 3885 4190 0
4189 -3967 -3885 0
4189 3885 -4190 0
4190 -3967 0
-4190 3967 0
-4191 3969 -3885 0
-4191 3885 4192 0
4191 -3969 -3885 0
4191 3885 -4192 0
4192 -3969 0
-4192 3969 0
-4193 4171 4176 0
4193 -4171 0
4193 -4176 0
-4194 4183 4188 0
4194 -4183 0
4194 -4188 0
-4195 4196 4227 0
4195 -4196 0
4195 -4227 0
-4196 4197 4213 0
4196 -4197 0
4196 -4213 0
-4197 4198 4207 0
4197 -4198 0
4197 -4207 0
-4198 4199 4204 0
4198 -4199 0
4198 -4204 0
4199 -8305 4200 0
4199 8305 -4200 0
-4199 8305 4200 0
-4199 -8305 -4200 0
-4200 3891 -3885 0
-4200 3890 3885 4201 0
-4200 -3890 3885 -4201 0
4200 -3891 -3885 0
4200 3890 3885 -4201 0
4200 -3890 3885 4201 0
4201 -3898 3991 0
4201 3991 -4202 0
-4201 -3991 0
-4201 3898 4202 0
4202 -3904 3986 0
4202 3986 -4203 0
-4202 -3986 0
-4202 3904 4203 0
4203 -3948 3974 0
4203 -3918 3974 0
-4203 -3974 0
-4203 3948 3918 0
4204 -8306 3896 0
4204 8306 -4205 0
-4204 -8306 -3896 0
-4204 8306 4205 0
-4205 3896 -3885 0
-4205 3895 3885 4206 0
-4205 -3895 3885 -4206 0
4205 -3896 -3885 0
4205 3895 3885 -4206 0
4205 -3895 3885 4206 0
4206 -3890 3994 0
4206 3994 -4201 0
-4206 -3994 0
-4206 3890 4201 0
-4207 4208 4210 0
4207 -4208 0
4207 -4210 0
4208 -8303 4209 0
4208 8303 -4209 0
-4208 8303 4209 0
-4208 -8303 -4209 0
-4209 3900 -3885 0
-4209 3899 3885 4202 0
-4209 -3899 3885 -4202 0
4209 -3900 -3885 0
4209 3899 3885 -4202 0
4209 -3899 3885 4202 0
4210 -8304 4211 0
4210 8304 -4211 0
-4210 8304 4211 0
-4210 -8304 -4211 0
-4211 3902 -3885 0
-4211 3901 3885 4212 0
-4211 -3901 3885 -4212 0
4211 -3902 -3885 0
4211 3901 3885 -4212 0
4211 -3901 3885 4212 0
4212 -3899 3992 0
4212 3992 -4202 0
-4212 -3992 0
-4212 3899 4202 0
-4213 4214 4220 0
4213 -4214 0
4213 -4220 0
-4214 4215 4217 0
4214 -4215 0
4214 -4217 0
4215 -8299 4216 0
4215 8299 -4216 0
-4215 8299 4216 0
-4215 -8299 -4216 0
-4216 3907 -3885 0
-4216 3906 3885 4203 0
-4216 -3906 3885 -4203 0
4216 -3907 -3885 0
4216 3906 3885 -4203 0
4216 -3906 3885 4203 0
4217 -8300 4218 0
4217 8300 -4218 0
-4217 8300 4218 0
-4217 -8300 -4218 0
-4218 3909 -3885 0
-4218 3908 3885 4219 0
-4218 -3908 3885 -4219 0
4218 -3909 -3885 0
4218 3908 3885 -4219 0
4218 -3908 3885 4219 0
4219 -3906 3989 0
4219 3989 -4203 0
-4219 -3989 0
-4219 3906 4203 0
-4220 4221 4224 0
4220 -4221 0
4220 -4224 0
4221 -8301 4222 0
4221 8301 -4222 0
-4221 8301 4222 0
-4221 -8301 -4222 0
-4222 3913 -3885 0
-4222 3912 3885 4223 0
-4222 -3912 3885 -4223 0
4222 -3913 -3885 0
4222 3912 3885 -4223 0
4222 -3912 3885 4223 0
4223 -3905 3988 0
4223 3988 -4203 0
-4223 -3988 0
-4223 3905 4203 0
4224 -8302 4225 0
4224 8302 -4225 0
-4224 8302 4225 0
-4224 -8302 -4225 0
-4225 3916 -3885 0
-4225 3915 3885 4226 0
-4225 -3915 3885 -4226 0
4225 -3916 -3885 0
4225 3915 3885 -4226 0
4225 -3915 3885 4226 0
4226 -3912 3990 0
4226 3990 -4223 0
-4226 -3990 0
-4226 3912 4223 0
-4227 4228 4242 0
4227 -4228 0
4227 -4242 0
-4228 4229 4235 0
4228 -4229 0
4228 -4235 0
-4229 4230 4232 0
4229 -4230 0
4229 -4232 0
4230 -8291 4231 0
4230 8291 -4231 0
-4230 8291 4231 0
-4230 -8291 -4231 0
-4231 3948 3921 0
-4231 3921 -3885 0
-4231 -3948 -3921 3885 0
4231 -3921 -3885 0
4231 3948 -3921 0
4231 -3948 3921 3885 0
4232 -8292 4233 0
4232 8292 -4233 0
-4232 8292 4233 0
-4232 -8292 -4233 0
-4233 3923 -3885 0
-4233 3922 3885 4234 0
-4233 -3922 3885 -4234 0
4233 -3923 -3885 0
4233 3922 3885 -4234 0
4233 -3922 3885 4234 0
4234 -3948 3921 0
-4234 3948 0
-4234 -3921 0
-4235 4236 4239 0
4235 -4236 0
4235 -4239 0
4236 -8293 4237 0
4236 8293 -4237 0
-4236 8293 4237 0
-4236 -8293 -4237 0
-4237 3927 -3885 0
-4237 3926 3885 4238 0
-4237 -3926 3885 -4238 0
4237 -3927 -3885 0
4237 3926 3885 -4238 0
4237 -3926 3885 4238 0
4238 -3948 3978 0
4238 -3920 3978 0
-4238 -3978 0
-4238 3948 3920 0
4239 -8294 4240 0
4239 8294 -4240 0
-4239 8294 4240 0
-4239 -8294 -4240 0
-4240 3930 -3885 0
-4240 3929 3885 4241 0
-4240 -3929 3885 -4241 0
4240 -3930 -3885 0
4240 3929 3885 -4241 0
4240 -3929 3885 4241 0
4241 -3926 3979 0
4241 3979 -4238 0
-4241 -3979 0
-4241 3926 4238 0
-4242 4243 4250 0
4242 -4243 0
4242 -4250 0
-4243 4244 4247 0
4243 -4244 0
4243 -4247 0
4244 -8295 4245 0
4244 8295 -4245 0
-4244 8295 4245 0
-4244 -8295 -4245 0
-4245 3935 -3885 0
-4245 3934 3885 4246 0
-4245 -3934 3885 -4246 0
4245 -3935 -3885 0
4245 3934 3885 -4246 0
4245 -3934 3885 4246 0
4246 -3948 3976 0
4246 -3919 3976 0
-4246 -3976 0
-4246 3948 3919 0
4247 -8296 4248 0
4247 8296 -4248 0
-4247 8296 4248 0
-4247 -8296 -4248 0
-4248 3938 -3885 0
-4248 3937 3885 4249 0
-4248 -3937 3885 -4249 0
4248 -3938 -3885 0
4248 3937 3885 -4249 0
4248 -3937 3885 4249 0
4249 -3934 3981 0
4249 3981 -4246 0
-4249 -3981 0
-4249 3934 4246 0
-4250 4251 4254 0
4250 -4251 0
4250 -4254 0
4251 -8297 4252 0
4251 8297 -4252 0
-4251 8297 4252 0
-4251 -8297 -4252 0
-4252 3942 -3885 0
-4252 3941 3885 4253 0
-4252 -3941 3885 -4253 0
4252 -3942 -3885 0
4252 3941 3885 -4253 0
4252 -3941 3885 4253 0
4253 -3933 3980 0
4253 3980 -4246 0
-4253 -3980 0
-4253 3933 4246 0
4254 -8298 4255 0
4254 8298 -4255 0
-4254 8298 4255 0
-4254 -8298 -4255 0
-4255 3945 -3885 0
-4255 3944 3885 4256 0
-4255 -3944 3885 -4256 0
4255 -3945 -3885 0
4255 3944 3885 -4256 0
4255 -3944 3885 4256 0
4256 -3941 3983 0
4256 3983 -4253 0
-4256 -3983 0
-4256 3941 4253 0
-4257 -4197 4258 4275 0
-4257 4258 4270 4275 0
4257 -4275 0
4257 -4258 0
4257 4197 -4270 0
4258 4196 -4259 0
-4258 -4196 0
-4258 4259 0
-4259 -4250 4260 4268 0
-4259 4260 4266 4268 0
4259 -4268 0
4259 -4260 0
4259 4250 -4266 0
4260 4242 -4261 0
-4260 -4242 0
-4260 4261 0
-4261 -8294 4262 4265 0
-4261 -8294 4240 4262 0
-4261 4240 4262 4265 0
4261 -4240 -4265 0
4261 8294 -4265 0
4261 -4262 0
4261 8294 -4240 0
4262 4235 -4263 0
-4262 -4235 0
-4262 4263 0
-4263 -8292 4233 0
-4263 4233 4264 0
-4263 -8292 4264 0
4263 -4233 -4264 0
4263 8292 -4233 0
4263 8292 -4264 0
4264 8291 -4231 0
-4264 -8291 0
-4264 4231 0
4265 8293 -4237 0
-4265 -8293 0
-4265 4237 0
-4266 -8296 4248 0
-4266 4248 4267 0
-4266 -8296 4267 0
4266 -4248 -4267 0
4266 8296 -4248 0
4266 8296 -4267 0
4267 8295 -4245 0
-4267 -8295 0
-4267 4245 0
-4268 -8298 4255 0
-4268 4255 4269 0
-4268 -8298 4269 0
4268 -4255 -4269 0
4268 8298 -4255 0
4268 8298 -4269 0
4269 8297 -4252 0
-4269 -8297 0
-4269 4252 0
-4270 -8302 4271 4274 0
-4270 -8302 4225 4271 0
-4270 4225 4271 4274 0
4270 -4225 -4274 0
4270 8302 -4274 0
4270 -4271 0
4270 8302 -4225 0
4271 4220 -4272 0
-4271 -4220 0
-4271 4272 0
-4272 -8300 4218 0
-4272 4218 4273 0
-4272 -8300 4273 0
4272 -4218 -4273 0
4272 8300 -4218 0
4272 8300 -4273 0
4273 8299 -4216 0
-4273 -8299 0
-4273 4216 0
4274 8301 -4222 0
-4274 -8301 0
-4274 4222 0
-4275 4276 4278 0
-4275 -4198 4278 0
4275 -4278 0
4275 4198 -4276 0
-4276 -8304 4211 0
-4276 4211 4277 0
-4276 -8304 4277 0
4276 -4211 -4277 0
4276 8304 -4211 0
4276 8304 -4277 0
4277 8303 -4209 0
-4277 -8303 0
-4277 4209 0
-4278 4205 -4204 0
-4278 -8306 4279 0
-4278 -8306 -4204 0
-4278 4205 4279 0
4278 4204 -4279 0
4278 8306 -4205 0
4279 8305 -4200 0
-4279 -8305 0
-4279 4200 0
-4280 4281 4181 4288 0
4280 -4281 0
4280 -4181 0
4280 -4288 0
-4281 4282 4285 0
4281 -4282 0
4281 -4285 0
-4282 4283 4284 0
4282 -4283 0
4282 -4284 0
-4283 3756 0
4283 -3756 0
-4284 3999 0
4284 -3999 0
-4285 4286 4287 0
4285 -4286 0
4285 -4287 0
-4286 4001 0
4286 -4001 0
-4287 4002 0
4287 -4002 0
-4288 2603 2605 2607 2609 0
4288 -2609 0
4288 -2603 0
4288 -2607 0
4288 -2605 0
4289 -4290 -4794 -5301 -5812 0
-4289 5812 0
-4289 4290 0
-4289 5301 0
-4289 4794 0
4290 -4291 4425 4547 -4672 0
4290 4291 -4425 4547 -4672 0
4290 -4291 4425 -4547 4672 0
4290 4291 -4425 -4547 4672 0
-4290 -4291 -4425 0
-4290 4291 4425 0
-4290 -4547 -4672 0
-4290 4547 4672 0
-4291 -1162 -4295 0
-4291 1162 -4008 -4292 0
-4291 1162 4008 4292 0
4291 -1162 4295 0
4291 1162 4008 -4292 0
4291 1162 -4008 4292 0
-4292 92 4009 0
-4292 92 4293 0
4292 -92 0
4292 -4009 -4293 0
-4293 4010 4042 0
-4293 4042 4294 0
4293 -4042 0
4293 -4010 -4294 0
-4294 4020 4039 0
-4294 4013 4039 0
4294 -4039 0
4294 -4013 -4020 0
4295 1115 -4299 0
4295 -1115 1120 4296 0
4295 -1115 -1120 -4296 0
-4295 1115 4299 0
-4295 -1115 -1120 4296 0
-4295 -1115 1120 -4296 0
4296 -1121 1161 0
4296 1161 -4297 0
-4296 -1161 0
-4296 1121 4297 0
4297 -1122 1158 0
4297 1158 -4298 0
-4297 -1158 0
-4297 1122 4298 0
4298 -1132 1153 0
4298 -1125 1153 0
-4298 -1153 0
-4298 1125 1132 0
4299 1092 -4303 0
4299 -717 -1092 -4300 0
4299 717 -1092 4300 0
-4299 1092 4303 0
-4299 -717 -1092 4300 0
-4299 717 -1092 -4300 0
-4300 760 1054 0
-4300 1054 4301 0
4300 -1054 0
4300 -760 -4301 0
-4301 803 1051 0
-4301 1051 4302 0
4301 -1051 0
4301 -803 -4302 0
-4302 982 1046 0
-4302 874 1046 0
4302 -1046 0
4302 -874 -982 0
4303 -4331 4392 0
4303 -4304 4392 -4414 0
-4303 -4392 0
-4303 4331 4414 0
-4303 4304 4331 0
4304 -4305 -4317 4330 0
4304 -4317 4329 4330 0
-4304 -4330 0
-4304 4317 0
-4304 4305 -4329 0
-4305 4306 4311 0
4305 -4306 0
4305 -4311 0
-4306 4307 4309 0
4306 -4307 0
4306 -4309 0
-4307 4049 -4046 0
-4307 4049 4308 0
-4307 -4049 4046 -4308 0
4307 -4049 -4046 0
4307 -4049 4308 0
4307 4049 4046 -4308 0
4308 -4059 4071 0
-4308 4059 0
-4308 -4071 0
-4309 4051 -4046 0
-4309 4051 4310 0
-4309 -4051 4046 -4310 0
4309 -4051 -4046 0
4309 -4051 4310 0
4309 4051 4046 -4310 0
4310 4049 -4308 0
-4310 -4049 0
-4310 4308 0
-4311 4312 4314 0
4311 -4312 0
4311 -4314 0
-4312 4054 -4046 0
-4312 4054 4313 0
-4312 -4054 4046 -4313 0
4312 -4054 -4046 0
4312 -4054 4313 0
4312 4054 4046 -4313 0
4313 4048 -4308 0
-4313 -4048 0
-4313 4308 0
4314 -8291 4315 0
4314 8291 -4315 0
-4314 8291 4315 0
-4314 -8291 -4315 0
-4315 4056 -4046 0
-4315 4056 4316 0
-4315 -4056 4046 -4316 0
4315 -4056 -4046 0
4315 -4056 4316 0
4315 4056 4046 -4316 0
4316 4054 -4313 0
-4316 -4054 0
-4316 4313 0
-4317 4318 4305 0
4317 -4318 0
4317 -4305 0
-4318 4319 4324 0
4318 -4319 0
4318 -4324 0
-4319 4320 4322 0
4319 -4320 0
4319 -4322 0
-4320 4061 -4046 0
-4320 4046 4321 0
4320 -4061 -4046 0
4320 4046 -4321 0
4321 -4061 0
-4321 4061 0
-4322 4063 -4046 0
-4322 4046 4323 0
4322 -4063 -4046 0
4322 4046 -4323 0
4323 -4063 0
-4323 4063 0
-4324 4325 4327 0
4324 -4325 0
4324 -4327 0
-4325 4066 -4046 0
-4325 4046 4326 0
4325 -4066 -4046 0
4325 4046 -4326 0
4326 -4066 0
-4326 4066 0
-4327 4068 -4046 0
-4327 4046 4328 0
4327 -4068 -4046 0
4327 4046 -4328 0
4328 -4068 0
-4328 4068 0
-4329 4319 4324 0
4329 -4319 0
4329 -4324 0
-4330 -8291 4315 0
-4330 -8291 4306 4312 0
-4330 4306 4312 4315 0
4330 -4306 -4315 0
4330 8291 -4312 0
4330 -4312 -4315 0
4330 8291 -4306 0
4330 8291 -4315 0
-4331 4332 4362 0
4331 -4332 0
4331 -4362 0
-4332 4333 4348 0
4332 -4333 0
4332 -4348 0
-4333 4334 4342 0
4333 -4334 0
4333 -4342 0
-4334 4335 4340 0
4334 -4335 0
4334 -4340 0
4335 -8306 4336 0
4335 8306 -4336 0
-4335 8306 4336 0
-4335 -8306 -4336 0
-4336 4077 -4046 0
-4336 4076 4046 4337 0
-4336 -4076 4046 -4337 0
4336 -4077 -4046 0
4336 4076 4046 -4337 0
4336 -4076 4046 4337 0
4337 -4084 4153 0
4337 4153 -4338 0
-4337 -4153 0
-4337 4084 4338 0
4338 -4090 4147 0
4338 4147 -4339 0
-4338 -4147 0
-4338 4090 4339 0
4339 -4047 4136 0
4339 -4104 4136 0
-4339 -4136 0
-4339 4047 4104 0
-4340 4082 -4046 0
-4340 4081 4046 4341 0
-4340 -4081 4046 -4341 0
4340 -4082 -4046 0
4340 4081 4046 -4341 0
4340 -4081 4046 4341 0
4341 -4076 4156 0
4341 4156 -4337 0
-4341 -4156 0
-4341 4076 4337 0
-4342 4343 4345 0
4342 -4343 0
4342 -4345 0
4343 -8304 4344 0
4343 8304 -4344 0
-4343 8304 4344 0
-4343 -8304 -4344 0
-4344 4086 -4046 0
-4344 4085 4046 4338 0
-4344 -4085 4046 -4338 0
4344 -4086 -4046 0
4344 4085 4046 -4338 0
4344 -4085 4046 4338 0
4345 -8305 4346 0
4345 8305 -4346 0
-4345 8305 4346 0
-4345 -8305 -4346 0
-4346 4088 -4046 0
-4346 4087 4046 4347 0
-4346 -4087 4046 -4347 0
4346 -4088 -4046 0
4346 4087 4046 -4347 0
4346 -4087 4046 4347 0
4347 -4085 4154 0
4347 4154 -4338 0
-4347 -4154 0
-4347 4085 4338 0
-4348 4349 4355 0
4348 -4349 0
4348 -4355 0
-4349 4350 4352 0
4349 -4350 0
4349 -4352 0
4350 -8300 4351 0
4350 8300 -4351 0
-4350 8300 4351 0
-4350 -8300 -4351 0
-4351 4093 -4046 0
-4351 4092 4046 4339 0
-4351 -4092 4046 -4339 0
4351 -4093 -4046 0
4351 4092 4046 -4339 0
4351 -4092 4046 4339 0
4352 -8301 4353 0
4352 8301 -4353 0
-4352 8301 4353 0
-4352 -8301 -4353 0
-4353 4095 -4046 0
-4353 4094 4046 4354 0
-4353 -4094 4046 -4354 0
4353 -4095 -4046 0
4353 4094 4046 -4354 0
4353 -4094 4046 4354 0
4354 -4092 4150 0
4354 4150 -4339 0
-4354 -4150 0
-4354 4092 4339 0
-4355 4356 4359 0
4355 -4356 0
4355 -4359 0
4356 -8302 4357 0
4356 8302 -4357 0
-4356 8302 4357 0
-4356 -8302 -4357 0
-4357 4099 -4046 0
-4357 4098 4046 4358 0
-4357 -4098 4046 -4358 0
4357 -4099 -4046 0
4357 4098 4046 -4358 0
4357 -4098 4046 4358 0
4358 -4091 4149 0
4358 4149 -4339 0
-4358 -4149 0
-4358 4091 4339 0
4359 -8303 4360 0
4359 8303 -4360 0
-4359 8303 4360 0
-4359 -8303 -4360 0
-4360 4102 -4046 0
-4360 4101 4046 4361 0
-4360 -4101 4046 -4361 0
4360 -4102 -4046 0
4360 4101 4046 -4361 0
4360 -4101 4046 4361 0
4361 -4098 4151 0
4361 4151 -4358 0
-4361 -4151 0
-4361 4098 4358 0
-4362 4363 4377 0
4362 -4363 0
4362 -4377 0
-4363 4364 4370 0
4363 -4364 0
4363 -4370 0
-4364 4365 4367 0
4364 -4365 0
4364 -4367 0
4365 -8292 4366 0
4365 8292 -4366 0
-4365 8292 4366 0
-4365 -8292 -4366 0
-4366 4108 -4046 0
-4366 -4047 -4107 4046 0
-4366 4047 4107 4046 0
4366 -4108 -4046 0
4366 -4047 4107 4046 0
4366 4047 -4107 4046 0
4367 -8293 4368 0
4367 8293 -4368 0
-4367 8293 4368 0
-4367 -8293 -4368 0
-4368 4110 -4046 0
-4368 4109 4046 4369 0
-4368 -4109 4046 -4369 0
4368 -4110 -4046 0
4368 4109 4046 -4369 0
4368 -4109 4046 4369 0
4369 -4047 4141 0
4369 -4107 4141 0
-4369 -4141 0
-4369 4047 4107 0
-4370 4371 4374 0
4370 -4371 0
4370 -4374 0
4371 -8294 4372 0
4371 8294 -4372 0
-4371 8294 4372 0
-4371 -8294 -4372 0
-4372 4114 -4046 0
-4372 4113 4046 4373 0
-4372 -4113 4046 -4373 0
4372 -4114 -4046 0
4372 4113 4046 -4373 0
4372 -4113 4046 4373 0
4373 -4047 4140 0
4373 -4106 4140 0
-4373 -4140 0
-4373 4047 4106 0
4374 -8295 4375 0
4374 8295 -4375 0
-4374 8295 4375 0
-4374 -8295 -4375 0
-4375 4117 -4046 0
-4375 4116 4046 4376 0
-4375 -4116 4046 -4376 0
4375 -4117 -4046 0
4375 4116 4046 -4376 0
4375 -4116 4046 4376 0
4376 -4113 4142 0
4376 4142 -4373 0
-4376 -4142 0
-4376 4113 4373 0
-4377 4378 4385 0
4377 -4378 0
4377 -4385 0
-4378 4379 4382 0
4378 -4379 0
4378 -4382 0
4379 -8296 4380 0
4379 8296 -4380 0
-4379 8296 4380 0
-4379 -8296 -4380 0
-4380 4122 -4046 0
-4380 4121 4046 4381 0
-4380 -4121 4046 -4381 0
4380 -4122 -4046 0
4380 4121 4046 -4381 0
4380 -4121 4046 4381 0
4381 -4047 4138 0
4381 -4105 4138 0
-4381 -4138 0
-4381 4047 4105 0
4382 -8297 4383 0
4382 8297 -4383 0
-4382 8297 4383 0
-4382 -8297 -4383 0
-4383 4125 -4046 0
-4383 4124 4046 4384 0
-4383 -4124 4046 -4384 0
4383 -4125 -4046 0
4383 4124 4046 -4384 0
4383 -4124 4046 4384 0
4384 -4121 4144 0
4384 4144 -4381 0
-4384 -4144 0
-4384 4121 4381 0
-4385 4386 4389 0
4385 -4386 0
4385 -4389 0
4386 -8298 4387 0
4386 8298 -4387 0
-4386 8298 4387 0
-4386 -8298 -4387 0
-4387 4129 -4046 0
-4387 4128 4046 4388 0
-4387 -4128 4046 -4388 0
4387 -4129 -4046 0
4387 4128 4046 -4388 0
4387 -4128 4046 4388 0
4388 -4120 4143 0
4388 4143 -4381 0
-4388 -4143 0
-4388 4120 4381 0
4389 -8299 4390 0
4389 8299 -4390 0
-4389 8299 4390 0
-4389 -8299 -4390 0
-4390 4132 -4046 0
-4390 4131 4046 4391 0
-4390 -4131 4046 -4391 0
4390 -4132 -4046 0
4390 4131 4046 -4391 0
4390 -4131 4046 4391 0
4391 -4128 4146 0
4391 4146 -4388 0
-4391 -4146 0
-4391 4128 4388 0
-4392 -4333 4393 4410 0
-4392 4393 4405 4410 0
4392 -4410 0
4392 -4393 0
4392 4333 -4405 0
4393 4332 -4394 0
-4393 -4332 0
-4393 4394 0
-4394 -4385 4395 4403 0
-4394 4395 4401 4403 0
4394 -4403 0
4394 -4395 0
4394 4385 -4401 0
4395 4377 -4396 0
-4395 -4377 0
-4395 4396 0
-4396 -8295 4397 4400 0
-4396 -8295 4375 4397 0
-4396 4375 4397 4400 0
4396 -4375 -4400 0
4396 8295 -4400 0
4396 -4397 0
4396 8295 -4375 0
4397 4370 -4398 0
-4397 -4370 0
-4397 4398 0
-4398 -8293 4368 0
-4398 4368 4399 0
-4398 -8293 4399 0
4398 -4368 -4399 0
4398 8293 -4368 0
4398 8293 -4399 0
4399 8292 -4366 0
-4399 -8292 0
-4399 4366 0
4400 8294 -4372 0
-4400 -8294 0
-4400 4372 0
-4401 -8297 4383 0
-4401 4383 4402 0
-4401 -8297 4402 0
4401 -4383 -4402 0
4401 8297 -4383 0
4401 8297 -4402 0
4402 8296 -4380 0
-4402 -8296 0
-4402 4380 0
-4403 -8299 4390 0
-4403 4390 4404 0
-4403 -8299 4404 0
4403 -4390 -4404 0
4403 8299 -4390 0
4403 8299 -4404 0
4404 8298 -4387 0
-4404 -8298 0
-4404 4387 0
-4405 -8303 4406 4409 0
-4405 -8303 4360 4406 0
-4405 4360 4406 4409 0
4405 -4360 -4409 0
4405 8303 -4409 0
4405 -4406 0
4405 8303 -4360 0
4406 4355 -4407 0
-4406 -4355 0
-4406 4407 0
-4407 -8301 4353 0
-4407 4353 4408 0
-4407 -8301 4408 0
4407 -4353 -4408 0
4407 8301 -4353 0
4407 8301 -4408 0
4408 8300 -4351 0
-4408 -8300 0
-4408 4351 0
4409 8302 -4357 0
-4409 -8302 0
-4409 4357 0
-4410 -4335 4340 4413 0
-4410 4340 4411 4413 0
4410 -4340 0
4410 -4413 0
4410 4335 -4411 0
-4411 -8305 4346 0
-4411 4346 4412 0
-4411 -8305 4412 0
4411 -4346 -4412 0
4411 8305 -4346 0
4411 8305 -4412 0
4412 8304 -4344 0
-4412 -8304 0
-4412 4344 0
4413 8306 -4336 0
-4413 -8306 0
-4413 4336 0
-4414 4415 4317 4422 0
4414 -4415 0
4414 -4317 0
4414 -4422 0
-4415 4416 4419 0
4415 -4416 0
4415 -4419 0
-4416 4417 4418 0
4416 -4417 0
4416 -4418 0
-4417 3879 0
4417 -3879 0
-4418 4161 0
4418 -4161 0
-4419 4420 4421 0
4419 -4420 0
4419 -4421 0
-4420 4163 0
4420 -4163 0
-4421 4164 0
4421 -4164 0
-4422 3169 3171 4423 4424 0
4422 -4424 0
4422 -3169 0
4422 -4423 0
4422 -3171 0
-4423 3407 0
4423 -3407 0
-4424 3408 0
4424 -3408 0
4425 -4453 4514 0
4425 -4426 4514 -4536 0
-4425 -4514 0
-4425 4453 4536 0
-4425 4426 4453 0
4426 -4427 -4439 4452 0
4426 -4439 4451 4452 0
-4426 -4452 0
-4426 4439 0
-4426 4427 -4451 0
-4427 4428 4433 0
4427 -4428 0
4427 -4433 0
-4428 4429 4431 0
4428 -4429 0
4428 -4431 0
-4429 4172 -4169 0
-4429 4172 4430 0
-4429 -4172 4169 -4430 0
4429 -4172 -4169 0
4429 -4172 4430 0
4429 4172 4169 -4430 0
4430 -4182 4194 0
-4430 4182 0
-4430 -4194 0
-4431 4174 -4169 0
-4431 4174 4432 0
-4431 -4174 4169 -4432 0
4431 -4174 -4169 0
4431 -4174 4432 0
4431 4174 4169 -4432 0
4432 4172 -4430 0
-4432 -4172 0
-4432 4430 0
-4433 4434 4436 0
4433 -4434 0
4433 -4436 0
-4434 4177 -4169 0
-4434 4177 4435 0
-4434 -4177 4169 -4435 0
4434 -4177 -4169 0
4434 -4177 4435 0
4434 4177 4169 -4435 0
4435 4171 -4430 0
-4435 -4171 0
-4435 4430 0
4436 -8291 4437 0
4436 8291 -4437 0
-4436 8291 4437 0
-4436 -8291 -4437 0
-4437 4179 -4169 0
-4437 4179 4438 0
-4437 -4179 4169 -4438 0
4437 -4179 -4169 0
4437 -4179 4438 0
4437 4179 4169 -4438 0
4438 4177 -4435 0
-4438 -4177 0
-4438 4435 0
-4439 4440 4427 0
4439 -4440 0
4439 -4427 0
-4440 4441 4446 0
4440 -4441 0
4440 -4446 0
-4441 4442 4444 0
4441 -4442 0
4441 -4444 0
-4442 4184 -4169 0
-4442 4169 4443 0
4442 -4184 -4169 0
4442 4169 -4443 0
4443 -4184 0
-4443 4184 0
-4444 4186 -4169 0
-4444 4169 4445 0
4444 -4186 -4169 0
4444 4169 -4445 0
4445 -4186 0
-4445 4186 0
-4446 4447 4449 0
4446 -4447 0
4446 -4449 0
-4447 4189 -4169 0
-4447 4169 4448 0
4447 -4189 -4169 0
4447 4169 -4448 0
4448 -4189 0
-4448 4189 0
-4449 4191 -4169 0
-4449 4169 4450 0
4449 -4191 -4169 0
4449 4169 -4450 0
4450 -4191 0
-4450 4191 0
-4451 4441 4446 0
4451 -4441 0
4451 -4446 0
-4452 -8291 4437 0
-4452 -8291 4428 4434 0
-4452 4428 4434 4437 0
4452 -4428 -4437 0
4452 8291 -4434 0
4452 -4434 -4437 0
4452 8291 -4428 0
4452 8291 -4437 0
-4453 4454 4484 0
4453 -4454 0
4453 -4484 0
-4454 4455 4470 0
4454 -4455 0
4454 -4470 0
-4455 4456 4464 0
4455 -4456 0
4455 -4464 0
-4456 4457 4462 0
4456 -4457 0
4456 -4462 0
4457 -8306 4458 0
4457 8306 -4458 0
-4457 8306 4458 0
-4457 -8306 -4458 0
-4458 4200 -4169 0
-4458 4199 4169 4459 0
-4458 -4199 4169 -4459 0
4458 -4200 -4169 0
4458 4199 4169 -4459 0
4458 -4199 4169 4459 0
4459 -4207 4276 0
4459 4276 -4460 0
-4459 -4276 0
-4459 4207 4460 0
4460 -4213 4270 0
4460 4270 -4461 0
-4460 -4270 0
-4460 4213 4461 0
4461 -4170 4259 0
4461 -4227 4259 0
-4461 -4259 0
-4461 4170 4227 0
-4462 4205 -4169 0
-4462 4204 4169 4463 0
-4462 -4204 4169 -4463 0
4462 -4205 -4169 0
4462 4204 4169 -4463 0
4462 -4204 4169 4463 0
4463 -4199 4279 0
4463 4279 -4459 0
-4463 -4279 0
-4463 4199 4459 0
-4464 4465 4467 0
4464 -4465 0
4464 -4467 0
4465 -8304 4466 0
4465 8304 -4466 0
-4465 8304 4466 0
-4465 -8304 -4466 0
-4466 4209 -4169 0
-4466 4208 4169 4460 0
-4466 -4208 4169 -4460 0
4466 -4209 -4169 0
4466 4208 4169 -4460 0
4466 -4208 4169 4460 0
4467 -8305 4468 0
4467 8305 -4468 0
-4467 8305 4468 0
-4467 -8305 -4468 0
-4468 4211 -4169 0
-4468 4210 4169 4469 0
-4468 -4210 4169 -4469 0
4468 -4211 -4169 0
4468 4210 4169 -4469 0
4468 -4210 4169 4469 0
4469 -4208 4277 0
4469 4277 -4460 0
-4469 -4277 0
-4469 4208 4460 0
-4470 4471 4477 0
4470 -4471 0
4470 -4477 0
-4471 4472 4474 0
4471 -4472 0
4471 -4474 0
4472 -8300 4473 0
4472 8300 -4473 0
-4472 8300 4473 0
-4472 -8300 -4473 0
-4473 4216 -4169 0
-4473 4215 4169 4461 0
-4473 -4215 4169 -4461 0
4473 -4216 -4169 0
4473 4215 4169 -4461 0
4473 -4215 4169 4461 0
4474 -8301 4475 0
4474 8301 -4475 0
-4474 8301 4475 0
-4474 -8301 -4475 0
-4475 4218 -4169 0
-4475 4217 4169 4476 0
-4475 -4217 4169 -4476 0
4475 -4218 -4169 0
4475 4217 4169 -4476 0
4475 -4217 4169 4476 0
4476 -4215 4273 0
4476 4273 -4461 0
-4476 -4273 0
-4476 4215 4461 0
-4477 4478 4481 0
4477 -4478 0
4477 -4481 0
4478 -8302 4479 0
4478 8302 -4479 0
-4478 8302 4479 0
-4478 -8302 -4479 0
-4479 4222 -4169 0
-4479 4221 4169 4480 0
-4479 -4221 4169 -4480 0
4479 -4222 -4169 0
4479 4221 4169 -4480 0
4479 -4221 4169 4480 0
4480 -4214 4272 0
4480 4272 -4461 0
-4480 -4272 0
-4480 4214 4461 0
4481 -8303 4482 0
4481 8303 -4482 0
-4481 8303 4482 0
-4481 -8303 -4482 0
-4482 4225 -4169 0
-4482 4224 4169 4483 0
-4482 -4224 4169 -4483 0
4482 -4225 -4169 0
4482 4224 4169 -4483 0
4482 -4224 4169 4483 0
4483 -4221 4274 0
4483 4274 -4480 0
-4483 -4274 0
-4483 4221 4480 0
-4484 4485 4499 0
4484 -4485 0
4484 -4499 0
-4485 4486 4492 0
4485 -4486 0
4485 -4492 0
-4486 4487 4489 0
4486 -4487 0
4486 -4489 0
4487 -8292 4488 0
4487 8292 -4488 0
-4487 8292 4488 0
-4487 -8292 -4488 0
-4488 4231 -4169 0
-4488 -4170 -4230 4169 0
-4488 4170 4230 4169 0
4488 -4231 -4169 0
4488 -4170 4230 4169 0
4488 4170 -4230 4169 0
4489 -8293 4490 0
4489 8293 -4490 0
-4489 8293 4490 0
-4489 -8293 -4490 0
-4490 4233 -4169 0
-4490 4232 4169 4491 0
-4490 -4232 4169 -4491 0
4490 -4233 -4169 0
4490 4232 4169 -4491 0
4490 -4232 4169 4491 0
4491 -4170 4264 0
4491 -4230 4264 0
-4491 -4264 0
-4491 4170 4230 0
-4492 4493 4496 0
4492 -4493 0
4492 -4496 0
4493 -8294 4494 0
4493 8294 -4494 0
-4493 8294 4494 0
-4493 -8294 -4494 0
-4494 4237 -4169 0
-4494 4236 4169 4495 0
-4494 -4236 4169 -4495 0
4494 -4237 -4169 0
4494 4236 4169 -4495 0
4494 -4236 4169 4495 0
4495 -4170 4263 0
4495 -4229 4263 0
-4495 -4263 0
-4495 4170 4229 0
4496 -8295 4497 0
4496 8295 -4497 0
-4496 8295 4497 0
-4496 -8295 -4497 0
-4497 4240 -4169 0
-4497 4239 4169 4498 0
-4497 -4239 4169 -4498 0
4497 -4240 -4169 0
4497 4239 4169 -4498 0
4497 -4239 4169 4498 0
4498 -4236 4265 0
4498 4265 -4495 0
-4498 -4265 0
-4498 4236 4495 0
-4499 4500 4507 0
4499 -4500 0
4499 -4507 0
-4500 4501 4504 0
4500 -4501 0
4500 -4504 0
4501 -8296 4502 0
4501 8296 -4502 0
-4501 8296 4502 0
-4501 -8296 -4502 0
-4502 4245 -4169 0
-4502 4244 4169 4503 0
-4502 -4244 4169 -4503 0
4502 -4245 -4169 0
4502 4244 4169 -4503 0
4502 -4244 4169 4503 0
4503 -4170 4261 0
4503 -4228 4261 0
-4503 -4261 0
-4503 4170 4228 0
4504 -8297 4505 0
4504 8297 -4505 0
-4504 8297 4505 0
-4504 -8297 -4505 0
-4505 4248 -4169 0
-4505 4247 4169 4506 0
-4505 -4247 4169 -4506 0
4505 -4248 -4169 0
4505 4247 4169 -4506 0
4505 -4247 4169 4506 0
4506 -4244 4267 0
4506 4267 -4503 0
-4506 -4267 0
-4506 4244 4503 0
-4507 4508 4511 0
4507 -4508 0
4507 -4511 0
4508 -8298 4509 0
4508 8298 -4509 0
-4508 8298 4509 0
-4508 -8298 -4509 0
-4509 4252 -4169 0
-4509 4251 4169 4510 0
-4509 -4251 4169 -4510 0
4509 -4252 -4169 0
4509 4251 4169 -4510 0
4509 -4251 4169 4510 0
4510 -4243 4266 0
4510 4266 -4503 0
-4510 -4266 0
-4510 4243 4503 0
4511 -8299 4512 0
4511 8299 -4512 0
-4511 8299 4512 0
-4511 -8299 -4512 0
-4512 4255 -4169 0
-4512 4254 4169 4513 0
-4512 -4254 4169 -4513 0
4512 -4255 -4169 0
4512 4254 4169 -4513 0
4512 -4254 4169 4513 0
4513 -4251 4269 0
4513 4269 -4510 0
-4513 -4269 0
-4513 4251 4510 0
-4514 -4455 4515 4532 0
-4514 4515 4527 4532 0
4514 -4532 0
4514 -4515 0
4514 4455 -4527 0
4515 4454 -4516 0
-4515 -4454 0
-4515 4516 0
-4516 -4507 4517 4525 0
-4516 4517 4523 4525 0
4516 -4525 0
4516 -4517 0
4516 4507 -4523 0
4517 4499 -4518 0
-4517 -4499 0
-4517 4518 0
-4518 -8295 4519 4522 0
-4518 -8295 4497 4519 0
-4518 4497 4519 4522 0
4518 -4497 -4522 0
4518 8295 -4522 0
4518 -4519 0
4518 8295 -4497 0
4519 4492 -4520 0
-4519 -4492 0
-4519 4520 0
-4520 -8293 4490 0
-4520 4490 4521 0
-4520 -8293 4521 0
4520 -4490 -4521 0
4520 8293 -4490 0
4520 8293 -4521 0
4521 8292 -4488 0
-4521 -8292 0
-4521 4488 0
4522 8294 -4494 0
-4522 -8294 0
-4522 4494 0
-4523 -8297 4505 0
-4523 4505 4524 0
-4523 -8297 4524 0
4523 -4505 -4524 0
4523 8297 -4505 0
4523 8297 -4524 0
4524 8296 -4502 0
-4524 -8296 0
-4524 4502 0
-4525 -8299 4512 0
-4525 4512 4526 0
-4525 -8299 4526 0
4525 -4512 -4526 0
4525 8299 -4512 0
4525 8299 -4526 0
4526 8298 -4509 0
-4526 -8298 0
-4526 4509 0
-4527 -8303 4528 4531 0
-4527 -8303 4482 4528 0
-4527 4482 4528 4531 0
4527 -4482 -4531 0
4527 8303 -4531 0
4527 -4528 0
4527 8303 -4482 0
4528 4477 -4529 0
-4528 -4477 0
-4528 4529 0
-4529 -8301 4475 0
-4529 4475 4530 0
-4529 -8301 4530 0
4529 -4475 -4530 0
4529 8301 -4475 0
4529 8301 -4530 0
4530 8300 -4473 0
-4530 -8300 0
-4530 4473 0
4531 8302 -4479 0
-4531 -8302 0
-4531 4479 0
-4532 -4457 4462 4535 0
-4532 4462 4533 4535 0
4532 -4462 0
4532 -4535 0
4532 4457 -4533 0
-4533 -8305 4468 0
-4533 4468 4534 0
-4533 -8305 4534 0
4533 -4468 -4534 0
4533 8305 -4468 0
4533 8305 -4534 0
4534 8304 -4466 0
-4534 -8304 0
-4534 4466 0
4535 8306 -4458 0
-4535 -8306 0
-4535 4458 0
-4536 4537 4439 4544 0
4536 -4537 0
4536 -4439 0
4536 -4544 0
-4537 4538 4541 0
4537 -4538 0
4537 -4541 0
-4538 4539 4540 0
4538 -4539 0
4538 -4540 0
-4539 3998 0
4539 -3998 0
-4540 4284 0
4540 -4284 0
-4541 4542 4543 0
4541 -4542 0
4541 -4543 0
-4542 4286 0
4542 -4286 0
-4543 4287 0
4543 -4287 0
-4544 3523 3524 4545 4546 0
4544 -4546 0
4544 -3523 0
4544 -4545 0
4544 -3524 0
-4545 2607 0
4545 -2607 0
-4546 2609 0
4546 -2609 0
-4547 -1162 -4548 0
-4547 1162 -4009 -4293 0
-4547 1162 4009 4293 0
4547 -1162 4548 0
4547 1162 4009 -4293 0
4547 1162 -4009 4293 0
4548 1115 -4549 0
4548 -1115 1121 4297 0
4548 -1115 -1121 -4297 0
-4548 1115 4549 0
-4548 -1115 -1121 4297 0
-4548 -1115 1121 -4297 0
4549 1092 -4550 0
4549 -760 -1092 -4301 0
4549 760 -1092 4301 0
-4549 1092 4550 0
-4549 -760 -1092 4301 0
-4549 760 -1092 -4301 0
4550 -4581 4641 0
4550 -4551 4641 -4661 0
-4550 -4641 0
-4550 4581 4661 0
-4550 4551 4581 0
4551 -4552 -4565 4578 0
4551 -4565 4577 4578 0
-4551 -4578 0
-4551 4565 0
-4551 4552 -4577 0
-4552 4553 4558 0
4552 -4553 0
4552 -4558 0
-4553 4554 4556 0
4553 -4554 0
4553 -4556 0
-4554 4307 -4303 0
-4554 4307 4555 0
-4554 -4307 4303 -4555 0
4554 -4307 -4303 0
4554 -4307 4555 0
4554 4307 4303 -4555 0
4555 -4318 4329 0
-4555 4318 0
-4555 -4329 0
-4556 4309 -4303 0
-4556 4309 4557 0
-4556 -4309 4303 -4557 0
4556 -4309 -4303 0
4556 -4309 4557 0
4556 4309 4303 -4557 0
4557 4307 -4555 0
-4557 -4307 0
-4557 4555 0
-4558 4559 4562 0
4558 -4559 0
4558 -4562 0
4559 -8291 4560 0
4559 8291 -4560 0
-4559 8291 4560 0
-4559 -8291 -4560 0
-4560 4312 -4303 0
-4560 4312 4561 0
-4560 -4312 4303 -4561 0
4560 -4312 -4303 0
4560 -4312 4561 0
4560 4312 4303 -4561 0
4561 4306 -4555 0
-4561 -4306 0
-4561 4555 0
4562 -8292 4563 0
4562 8292 -4563 0
-4562 8292 4563 0
-4562 -8292 -4563 0
-4563 4315 -4303 0
-4563 4314 4303 4564 0
-4563 -4314 4303 -4564 0
4563 -4315 -4303 0
4563 4314 4303 -4564 0
4563 -4314 4303 4564 0
4564 4312 -4561 0
-4564 -4312 0
-4564 4561 0
-4565 4566 4552 0
4565 -4566 0
4565 -4552 0
-4566 4567 4572 0
4566 -4567 0
4566 -4572 0
-4567 4568 4570 0
4567 -4568 0
4567 -4570 0
-4568 4320 -4303 0
-4568 4303 4569 0
4568 -4320 -4303 0
4568 4303 -4569 0
4569 -4320 0
-4569 4320 0
-4570 4322 -4303 0
-4570 4303 4571 0
4570 -4322 -4303 0
4570 4303 -4571 0
4571 -4322 0
-4571 4322 0
-4572 4573 4575 0
4572 -4573 0
4572 -4575 0
-4573 4325 -4303 0
-4573 4303 4574 0
4573 -4325 -4303 0
4573 4303 -4574 0
4574 -4325 0
-4574 4325 0
-4575 4327 -4303 0
-4575 4303 4576 0
4575 -4327 -4303 0
4575 4303 -4576 0
4576 -4327 0
-4576 4327 0
-4577 4567 4572 0
4577 -4567 0
4577 -4572 0
-4578 -8292 4579 4580 0
-4578 -8292 4563 4579 0
-4578 4563 4579 4580 0
4578 -4563 -4580 0
4578 8292 -4580 0
4578 -4579 0
4578 8292 -4563 0
4579 -4553 4558 0
-4579 4553 0
-4579 -4558 0
4580 8291 -4560 0
-4580 -8291 0
-4580 4560 0
-4581 4582 4611 0
4581 -4582 0
4581 -4611 0
-4582 4583 4597 0
4582 -4583 0
4582 -4597 0
-4583 4584 4591 0
4583 -4584 0
4583 -4591 0
-4584 4585 4589 0
4584 -4585 0
4584 -4589 0
-4585 4336 -4303 0
-4585 4335 4303 4586 0
-4585 -4335 4303 -4586 0
4585 -4336 -4303 0
4585 4335 4303 -4586 0
4585 -4335 4303 4586 0
4586 -4342 4411 0
4586 4411 -4587 0
-4586 -4411 0
-4586 4342 4587 0
4587 -4348 4405 0
4587 4405 -4588 0
-4587 -4405 0
-4587 4348 4588 0
4588 -4304 4394 0
4588 -4362 4394 0
-4588 -4394 0
-4588 4304 4362 0
-4589 4340 -4303 0
-4589 4340 4590 0
-4589 -4340 4303 -4590 0
4589 -4340 -4303 0
4589 -4340 4590 0
4589 4340 4303 -4590 0
4590 -4335 4413 0
4590 4413 -4586 0
-4590 -4413 0
-4590 4335 4586 0
-4591 4592 4594 0
4591 -4592 0
4591 -4594 0
4592 -8305 4593 0
4592 8305 -4593 0
-4592 8305 4593 0
-4592 -8305 -4593 0
-4593 4344 -4303 0
-4593 4343 4303 4587 0
-4593 -4343 4303 -4587 0
4593 -4344 -4303 0
4593 4343 4303 -4587 0
4593 -4343 4303 4587 0
4594 -8306 4595 0
4594 8306 -4595 0
-4594 8306 4595 0
-4594 -8306 -4595 0
-4595 4346 -4303 0
-4595 4345 4303 4596 0
-4595 -4345 4303 -4596 0
4595 -4346 -4303 0
4595 4345 4303 -4596 0
4595 -4345 4303 4596 0
4596 -4343 4412 0
4596 4412 -4587 0
-4596 -4412 0
-4596 4343 4587 0
-4597 4598 4604 0
4597 -4598 0
4597 -4604 0
-4598 4599 4601 0
4598 -4599 0
4598 -4601 0
4599 -8301 4600 0
4599 8301 -4600 0
-4599 8301 4600 0
-4599 -8301 -4600 0
-4600 4351 -4303 0
-4600 4350 4303 4588 0
-4600 -4350 4303 -4588 0
4600 -4351 -4303 0
4600 4350 4303 -4588 0
4600 -4350 4303 4588 0
4601 -8302 4602 0
4601 8302 -4602 0
-4601 8302 4602 0
-4601 -8302 -4602 0
-4602 4353 -4303 0
-4602 4352 4303 4603 0
-4602 -4352 4303 -4603 0
4602 -4353 -4303 0
4602 4352 4303 -4603 0
4602 -4352 4303 4603 0
4603 -4350 4408 0
4603 4408 -4588 0
-4603 -4408 0
-4603 4350 4588 0
-4604 4605 4608 0
4604 -4605 0
4604 -4608 0
4605 -8303 4606 0
4605 8303 -4606 0
-4605 8303 4606 0
-4605 -8303 -4606 0
-4606 4357 -4303 0
-4606 4356 4303 4607 0
-4606 -4356 4303 -4607 0
4606 -4357 -4303 0
4606 4356 4303 -4607 0
4606 -4356 4303 4607 0
4607 -4349 4407 0
4607 4407 -4588 0
-4607 -4407 0
-4607 4349 4588 0
4608 -8304 4609 0
4608 8304 -4609 0
-4608 8304 4609 0
-4608 -8304 -4609 0
-4609 4360 -4303 0
-4609 4359 4303 4610 0
-4609 -4359 4303 -4610 0
4609 -4360 -4303 0
4609 4359 4303 -4610 0
4609 -4359 4303 4610 0
4610 -4356 4409 0
4610 4409 -4607 0
-4610 -4409 0
-4610 4356 4607 0
-4611 4612 4626 0
4611 -4612 0
4611 -4626 0
-4612 4613 4619 0
4612 -4613 0
4612 -4619 0
-4613 4614 4616 0
4613 -4614 0
4613 -4616 0
4614 -8293 4615 0
4614 8293 -4615 0
-4614 8293 4615 0
-4614 -8293 -4615 0
-4615 4366 -4303 0
-4615 -4304 -4365 4303 0
-4615 4304 4365 4303 0
4615 -4366 -4303 0
4615 -4304 4365 4303 0
4615 4304 -4365 4303 0
4616 -8294 4617 0
4616 8294 -4617 0
-4616 8294 4617 0
-4616 -8294 -4617 0
-4617 4368 -4303 0
-4617 4367 4303 4618 0
-4617 -4367 4303 -4618 0
4617 -4368 -4303 0
4617 4367 4303 -4618 0
4617 -4367 4303 4618 0
4618 -4304 4399 0
4618 -4365 4399 0
-4618 -4399 0
-4618 4304 4365 0
-4619 4620 4623 0
4619 -4620 0
4619 -4623 0
4620 -8295 4621 0
4620 8295 -4621 0
-4620 8295 4621 0
-4620 -8295 -4621 0
-4621 4372 -4303 0
-4621 4371 4303 4622 0
-4621 -4371 4303 -4622 0
4621 -4372 -4303 0
4621 4371 4303 -4622 0
4621 -4371 4303 4622 0
4622 -4304 4398 0
4622 -4364 4398 0
-4622 -4398 0
-4622 4304 4364 0
4623 -8296 4624 0
4623 8296 -4624 0
-4623 8296 4624 0
-4623 -8296 -4624 0
-4624 4375 -4303 0
-4624 4374 4303 4625 0
-4624 -4374 4303 -4625 0
4624 -4375 -4303 0
4624 4374 4303 -4625 0
4624 -4374 4303 4625 0
4625 -4371 4400 0
4625 4400 -4622 0
-4625 -4400 0
-4625 4371 4622 0
-4626 4627 4634 0
4626 -4627 0
4626 -4634 0
-4627 4628 4631 0
4627 -4628 0
4627 -4631 0
4628 -8297 4629 0
4628 8297 -4629 0
-4628 8297 4629 0
-4628 -8297 -4629 0
-4629 4380 -4303 0
-4629 4379 4303 4630 0
-4629 -4379 4303 -4630 0
4629 -4380 -4303 0
4629 4379 4303 -4630 0
4629 -4379 4303 4630 0
4630 -4304 4396 0
4630 -4363 4396 0
-4630 -4396 0
-4630 4304 4363 0
4631 -8298 4632 0
4631 8298 -4632 0
-4631 8298 4632 0
-4631 -8298 -4632 0
-4632 4383 -4303 0
-4632 4382 4303 4633 0
-4632 -4382 4303 -4633 0
4632 -4383 -4303 0
4632 4382 4303 -4633 0
4632 -4382 4303 4633 0
4633 -4379 4402 0
4633 4402 -4630 0
-4633 -4402 0
-4633 4379 4630 0
-4634 4635 4638 0
4634 -4635 0
4634 -4638 0
4635 -8299 4636 0
4635 8299 -4636 0
-4635 8299 4636 0
-4635 -8299 -4636 0
-4636 4387 -4303 0
-4636 4386 4303 4637 0
-4636 -4386 4303 -4637 0
4636 -4387 -4303 0
4636 4386 4303 -4637 0
4636 -4386 4303 4637 0
4637 -4378 4401 0
4637 4401 -4630 0
-4637 -4401 0
-4637 4378 4630 0
4638 -8300 4639 0
4638 8300 -4639 0
-4638 8300 4639 0
-4638 -8300 -4639 0
-4639 4390 -4303 0
-4639 4389 4303 4640 0
-4639 -4389 4303 -4640 0
4639 -4390 -4303 0
4639 4389 4303 -4640 0
4639 -4389 4303 4640 0
4640 -4386 4404 0
4640 4404 -4637 0
-4640 -4404 0
-4640 4386 4637 0
-4641 4642 4653 0
-4641 -4582 4653 0
4641 -4653 0
4641 4582 -4642 0
-4642 -4634 4643 4651 0
-4642 4643 4649 4651 0
4642 -4651 0
4642 -4643 0
4642 4634 -4649 0
4643 4626 -4644 0
-4643 -4626 0
-4643 4644 0
-4644 -8296 4645 4648 0
-4644 -8296 4624 4645 0
-4644 4624 4645 4648 0
4644 -4624 -4648 0
4644 8296 -4648 0
4644 -4645 0
4644 8296 -4624 0
4645 4619 -4646 0
-4645 -4619 0
-4645 4646 0
-4646 -8294 4617 0
-4646 4617 4647 0
-4646 -8294 4647 0
4646 -4617 -4647 0
4646 8294 -4617 0
4646 8294 -4647 0
4647 8293 -4615 0
-4647 -8293 0
-4647 4615 0
4648 8295 -4621 0
-4648 -8295 0
-4648 4621 0
-4649 -8298 4632 0
-4649 4632 4650 0
-4649 -8298 4650 0
4649 -4632 -4650 0
4649 8298 -4632 0
4649 8298 -4650 0
4650 8297 -4629 0
-4650 -8297 0
-4650 4629 0
-4651 -8300 4639 0
-4651 4639 4652 0
-4651 -8300 4652 0
4651 -4639 -4652 0
4651 8300 -4639 0
4651 8300 -4652 0
4652 8299 -4636 0
-4652 -8299 0
-4652 4636 0
-4653 4584 -4591 4659 0
-4653 4584 4654 4659 0
4653 -4659 0
4653 -4584 0
4653 4591 -4654 0
-4654 -8304 4655 4658 0
-4654 -8304 4609 4655 0
-4654 4609 4655 4658 0
4654 -4609 -4658 0
4654 8304 -4658 0
4654 -4655 0
4654 8304 -4609 0
4655 4604 -4656 0
-4655 -4604 0
-4655 4656 0
-4656 -8302 4602 0
-4656 4602 4657 0
-4656 -8302 4657 0
4656 -4602 -4657 0
4656 8302 -4602 0
4656 8302 -4657 0
4657 8301 -4600 0
-4657 -8301 0
-4657 4600 0
4658 8303 -4606 0
-4658 -8303 0
-4658 4606 0
-4659 -8306 4595 0
-4659 4595 4660 0
-4659 -8306 4660 0
4659 -4595 -4660 0
4659 8306 -4595 0
4659 8306 -4660 0
4660 8305 -4593 0
-4660 -8305 0
-4660 4593 0
-4661 4662 4565 4669 0
4661 -4662 0
4661 -4565 0
4661 -4669 0
-4662 4663 4666 0
4662 -4663 0
4662 -4666 0
-4663 4664 4665 0
4663 -4664 0
4663 -4665 0
-4664 4160 0
4664 -4160 0
-4665 4418 0
4665 -4418 0
-4666 4667 4668 0
4666 -4667 0
4666 -4668 0
-4667 4420 0
4667 -4420 0
-4668 4421 0
4668 -4421 0
-4669 3169 3171 4670 4671 0
4669 -4671 0
4669 -3169 0
4669 -4670 0
4669 -3171 0
-4670 3407 0
4670 -3407 0
-4671 3408 0
4671 -3408 0
4672 -4703 4763 0
4672 -4673 4763 -4783 0
-4672 -4763 0
-4672 4703 4783 0
-4672 4673 4703 0
4673 -4674 -4687 4700 0
4673 -4687 4699 4700 0
-4673 -4700 0
-4673 4687 0
-4673 4674 -4699 0
-4674 4675 4680 0
4674 -4675 0
4674 -4680 0
-4675 4676 4678 0
4675 -4676 0
4675 -4678 0
-4676 4429 -4425 0
-4676 4429 4677 0
-4676 -4429 4425 -4677 0
4676 -4429 -4425 0
4676 -4429 4677 0
4676 4429 4425 -4677 0
4677 -4440 4451 0
-4677 4440 0
-4677 -4451 0
-4678 4431 -4425 0
-4678 4431 4679 0
-4678 -4431 4425 -4679 0
4678 -4431 -4425 0
4678 -4431 4679 0
4678 4431 4425 -4679 0
4679 4429 -4677 0
-4679 -4429 0
-4679 4677 0
-4680 4681 4684 0
4680 -4681 0
4680 -4684 0
4681 -8291 4682 0
4681 8291 -4682 0
-4681 8291 4682 0
-4681 -8291 -4682 0
-4682 4434 -4425 0
-4682 4434 4683 0
-4682 -4434 4425 -4683 0
4682 -4434 -4425 0
4682 -4434 4683 0
4682 4434 4425 -4683 0
4683 4428 -4677 0
-4683 -4428 0
-4683 4677 0
4684 -8292 4685 0
4684 8292 -4685 0
-4684 8292 4685 0
-4684 -8292 -4685 0
-4685 4437 -4425 0
-4685 4436 4425 4686 0
-4685 -4436 4425 -4686 0
4685 -4437 -4425 0
4685 4436 4425 -4686 0
4685 -4436 4425 4686 0
4686 4434 -4683 0
-4686 -4434 0
-4686 4683 0
-4687 4688 4674 0
4687 -4688 0
4687 -4674 0
-4688 4689 4694 0
4688 -4689 0
4688 -4694 0
-4689 4690 4692 0
4689 -4690 0
4689 -4692 0
-4690 4442 -4425 0
-4690 4425 4691 0
4690 -4442 -4425 0
4690 4425 -4691 0
4691 -4442 0
-4691 4442 0
-4692 4444 -4425 0
-4692 4425 4693 0
4692 -4444 -4425 0
4692 4425 -4693 0
4693 -4444 0
-4693 4444 0
-4694 4695 4697 0
4694 -4695 0
4694 -4697 0
-4695 4447 -4425 0
-4695 4425 4696 0
4695 -4447 -4425 0
4695 4425 -4696 0
4696 -4447 0
-4696 4447 0
-4697 4449 -4425 0
-4697 4425 4698 0
4697 -4449 -4425 0
4697 4425 -4698 0
4698 -4449 0
-4698 4449 0
-4699 4689 4694 0
4699 -4689 0
4699 -4694 0
-4700 -8292 4701 4702 0
-4700 -8292 4685 4701 0
-4700 4685 4701 4702 0
4700 -4685 -4702 0
4700 8292 -4702 0
4700 -4701 0
4700 8292 -4685 0
4701 -4675 4680 0
-4701 4675 0
-4701 -4680 0
4702 8291 -4682 0
-4702 -8291 0
-4702 4682 0
-4703 4704 4733 0
4703 -4704 0
4703 -4733 0
-4704 4705 4719 0
4704 -4705 0
4704 -4719 0
-4705 4706 4713 0
4705 -4706 0
4705 -4713 0
-4706 4707 4711 0
4706 -4707 0
4706 -4711 0
-4707 4458 -4425 0
-4707 4457 4425 4708 0
-4707 -4457 4425 -4708 0
4707 -4458 -4425 0
4707 4457 4425 -4708 0
4707 -4457 4425 4708 0
4708 -4464 4533 0
4708 4533 -4709 0
-4708 -4533 0
-4708 4464 4709 0
4709 -4470 4527 0
4709 4527 -4710 0
-4709 -4527 0
-4709 4470 4710 0
4710 -4426 4516 0
4710 -4484 4516 0
-4710 -4516 0
-4710 4426 4484 0
-4711 4462 -4425 0
-4711 4462 4712 0
-4711 -4462 4425 -4712 0
4711 -4462 -4425 0
4711 -4462 4712 0
4711 4462 4425 -4712 0
4712 -4457 4535 0
4712 4535 -4708 0
-4712 -4535 0
-4712 4457 4708 0
-4713 4714 4716 0
4713 -4714 0
4713 -4716 0
4714 -8305 4715 0
4714 8305 -4715 0
-4714 8305 4715 0
-4714 -8305 -4715 0
-4715 4466 -4425 0
-4715 4465 4425 4709 0
-4715 -4465 4425 -4709 0
4715 -4466 -4425 0
4715 4465 4425 -4709 0
4715 -4465 4425 4709 0
4716 -8306 4717 0
4716 8306 -4717 0
-4716 8306 4717 0
-4716 -8306 -4717 0
-4717 4468 -4425 0
-4717 4467 4425 4718 0
-4717 -4467 4425 -4718 0
4717 -4468 -4425 0
4717 4467 4425 -4718 0
4717 -4467 4425 4718 0
4718 -4465 4534 0
4718 4534 -4709 0
-4718 -4534 0
-4718 4465 4709 0
-4719 4720 4726 0
4719 -4720 0
4719 -4726 0
-4720 4721 4723 0
4720 -4721 0
4720 -4723 0
4721 -8301 4722 0
4721 8301 -4722 0
-4721 8301 4722 0
-4721 -8301 -4722 0
-4722 4473 -4425 0
-4722 4472 4425 4710 0
-4722 -4472 4425 -4710 0
4722 -4473 -4425 0
4722 4472 4425 -4710 0
4722 -4472 4425 4710 0
4723 -8302 4724 0
4723 8302 -4724 0
-4723 8302 4724 0
-4723 -8302 -4724 0
-4724 4475 -4425 0
-4724 4474 4425 4725 0
-4724 -4474 4425 -4725 0
4724 -4475 -4425 0
4724 4474 4425 -4725 0
4724 -4474 4425 4725 0
4725 -4472 4530 0
4725 4530 -4710 0
-4725 -4530 0
-4725 4472 4710 0
-4726 4727 4730 0
4726 -4727 0
4726 -4730 0
4727 -8303 4728 0
4727 8303 -4728 0
-4727 8303 4728 0
-4727 -8303 -4728 0
-4728 4479 -4425 0
-4728 4478 4425 4729 0
-4728 -4478 4425 -4729 0
4728 -4479 -4425 0
4728 4478 4425 -4729 0
4728 -4478 4425 4729 0
4729 -4471 4529 0
4729 4529 -4710 0
-4729 -4529 0
-4729 4471 4710 0
4730 -8304 4731 0
4730 8304 -4731 0
-4730 8304 4731 0
-4730 -8304 -4731 0
-4731 4482 -4425 0
-4731 4481 4425 4732 0
-4731 -4481 4425 -4732 0
4731 -4482 -4425 0
4731 4481 4425 -4732 0
4731 -4481 4425 4732 0
4732 -4478 4531 0
4732 4531 -4729 0
-4732 -4531 0
-4732 4478 4729 0
-4733 4734 4748 0
4733 -4734 0
4733 -4748 0
-4734 4735 4741 0
4734 -4735 0
4734 -4741 0
-4735 4736 4738 0
4735 -4736 0
4735 -4738 0
4736 -8293 4737 0
4736 8293 -4737 0
-4736 8293 4737 0
-4736 -8293 -4737 0
-4737 4488 -4425 0
-4737 -4426 -4487 4425 0
-4737 4426 4487 4425 0
4737 -4488 -4425 0
4737 -4426 4487 4425 0
4737 4426 -4487 4425 0
4738 -8294 4739 0
4738 8294 -4739 0
-4738 8294 4739 0
-4738 -8294 -4739 0
-4739 4490 -4425 0
-4739 4489 4425 4740 0
-4739 -4489 4425 -4740 0
4739 -4490 -4425 0
4739 4489 4425 -4740 0
4739 -4489 4425 4740 0
4740 -4426 4521 0
4740 -4487 4521 0
-4740 -4521 0
-4740 4426 4487 0
-4741 4742 4745 0
4741 -4742 0
4741 -4745 0
4742 -8295 4743 0
4742 8295 -4743 0
-4742 8295 4743 0
-4742 -8295 -4743 0
-4743 4494 -4425 0
-4743 4493 4425 4744 0
-4743 -4493 4425 -4744 0
4743 -4494 -4425 0
4743 4493 4425 -4744 0
4743 -4493 4425 4744 0
4744 -4426 4520 0
4744 -4486 4520 0
-4744 -4520 0
-4744 4426 4486 0
4745 -8296 4746 0
4745 8296 -4746 0
-4745 8296 4746 0
-4745 -8296 -4746 0
-4746 4497 -4425 0
-4746 4496 4425 4747 0
-4746 -4496 4425 -4747 0
4746 -4497 -4425 0
4746 4496 4425 -4747 0
4746 -4496 4425 4747 0
4747 -4493 4522 0
4747 4522 -4744 0
-4747 -4522 0
-4747 4493 4744 0
-4748 4749 4756 0
4748 -4749 0
4748 -4756 0
-4749 4750 4753 0
4749 -4750 0
4749 -4753 0
4750 -8297 4751 0
4750 8297 -4751 0
-4750 8297 4751 0
-4750 -8297 -4751 0
-4751 4502 -4425 0
-4751 4501 4425 4752 0
-4751 -4501 4425 -4752 0
4751 -4502 -4425 0
4751 4501 4425 -4752 0
4751 -4501 4425 4752 0
4752 -4426 4518 0
4752 -4485 4518 0
-4752 -4518 0
-4752 4426 4485 0
4753 -8298 4754 0
4753 8298 -4754 0
-4753 8298 4754 0
-4753 -8298 -4754 0
-4754 4505 -4425 0
-4754 4504 4425 4755 0
-4754 -4504 4425 -4755 0
4754 -4505 -4425 0
4754 4504 4425 -4755 0
4754 -4504 4425 4755 0
4755 -4501 4524 0
4755 4524 -4752 0
-4755 -4524 0
-4755 4501 4752 0
-4756 4757 4760 0
4756 -4757 0
4756 -4760 0
4757 -8299 4758 0
4757 8299 -4758 0
-4757 8299 4758 0
-4757 -8299 -4758 0
-4758 4509 -4425 0
-4758 4508 4425 4759 0
-4758 -4508 4425 -4759 0
4758 -4509 -4425 0
4758 4508 4425 -4759 0
4758 -4508 4425 4759 0
4759 -4500 4523 0
4759 4523 -4752 0
-4759 -4523 0
-4759 4500 4752 0
4760 -8300 4761 0
4760 8300 -4761 0
-4760 8300 4761 0
-4760 -8300 -4761 0
-4761 4512 -4425 0
-4761 4511 4425 4762 0
-4761 -4511 4425 -4762 0
4761 -4512 -4425 0
4761 4511 4425 -4762 0
4761 -4511 4425 4762 0
4762 -4508 4526 0
4762 4526 -4759 0
-4762 -4526 0
-4762 4508 4759 0
-4763 4764 4775 0
-4763 -4704 4775 0
4763 -4775 0
4763 4704 -4764 0
-4764 -4756 4765 4773 0
-4764 4765 4771 4773 0
4764 -4773 0
4764 -4765 0
4764 4756 -4771 0
4765 4748 -4766 0
-4765 -4748 0
-4765 4766 0
-4766 -8296 4767 4770 0
-4766 -8296 4746 4767 0
-4766 4746 4767 4770 0
4766 -4746 -4770 0
4766 8296 -4770 0
4766 -4767 0
4766 8296 -4746 0
4767 4741 -4768 0
-4767 -4741 0
-4767 4768 0
-4768 -8294 4739 0
-4768 4739 4769 0
-4768 -8294 4769 0
4768 -4739 -4769 0
4768 8294 -4739 0
4768 8294 -4769 0
4769 8293 -4737 0
-4769 -8293 0
-4769 4737 0
4770 8295 -4743 0
-4770 -8295 0
-4770 4743 0
-4771 -8298 4754 0
-4771 4754 4772 0
-4771 -8298 4772 0
4771 -4754 -4772 0
4771 8298 -4754 0
4771 8298 -4772 0
4772 8297 -4751 0
-4772 -8297 0
-4772 4751 0
-4773 -8300 4761 0
-4773 4761 4774 0
-4773 -8300 4774 0
4773 -4761 -4774 0
4773 8300 -4761 0
4773 8300 -4774 0
4774 8299 -4758 0
-4774 -8299 0
-4774 4758 0
-4775 4706 -4713 4781 0
-4775 4706 4776 4781 0
4775 -4781 0
4775 -4706 0
4775 4713 -4776 0
-4776 -8304 4777 4780 0
-4776 -8304 4731 4777 0
-4776 4731 4777 4780 0
4776 -4731 -4780 0
4776 8304 -4780 0
4776 -4777 0
4776 8304 -4731 0
4777 4726 -4778 0
-4777 -4726 0
-4777 4778 0
-4778 -8302 4724 0
-4778 4724 4779 0
-4778 -8302 4779 0
4778 -4724 -4779 0
4778 8302 -4724 0
4778 8302 -4779 0
4779 8301 -4722 0
-4779 -8301 0
-4779 4722 0
4780 8303 -4728 0
-4780 -8303 0
-4780 4728 0
-4781 -8306 4717 0
-4781 4717 4782 0
-4781 -8306 4782 0
4781 -4717 -4782 0
4781 8306 -4717 0
4781 8306 -4782 0
4782 8305 -4715 0
-4782 -8305 0
-4782 4715 0
-4783 4784 4687 4791 0
4783 -4784 0
4783 -4687 0
4783 -4791 0
-4784 4785 4788 0
4784 -4785 0
4784 -4788 0
-4785 4786 4787 0
4785 -4786 0
4785 -4787 0
-4786 4283 0
4786 -4283 0
-4787 4540 0
4787 -4540 0
-4788 4789 4790 0
4788 -4789 0
4788 -4790 0
-4789 4542 0
4789 -4542 0
-4790 4543 0
4790 -4543 0
-4791 3523 3524 4792 4793 0
4791 -4793 0
4791 -3523 0
4791 -4792 0
4791 -3524 0
-4792 2607 0
4792 -2607 0
-4793 2609 0
4793 -2609 0
4794 -4795 4927 5053 -5179 0
4794 4795 -4927 5053 -5179 0
4794 -4795 4927 -5053 5179 0
4794 4795 -4927 -5053 5179 0
-4794 -4795 -4927 0
-4794 4795 4927 0
-4794 -5053 -5179 0
-4794 5053 5179 0
-4795 -1162 -4797 0
-4795 1162 -4011 -4796 0
-4795 1162 4011 4796 0
4795 -1162 4797 0
4795 1162 4011 -4796 0
4795 1162 -4011 4796 0
-4796 19 4012 0
-4796 19 4294 0
4796 -19 0
4796 -4012 -4294 0
4797 1115 -4799 0
4797 -1115 1123 4798 0
4797 -1115 -1123 -4798 0
-4797 1115 4799 0
-4797 -1115 -1123 4798 0
-4797 -1115 1123 -4798 0
4798 -1124 1159 0
4798 1159 -4298 0
-4798 -1159 0
-4798 1124 4298 0
4799 1092 -4801 0
4799 -804 -1092 -4800 0
4799 804 -1092 4800 0
-4799 1092 4801 0
-4799 -804 -1092 4800 0
-4799 804 -1092 -4800 0
-4800 843 1052 0
-4800 1052 4302 0
4800 -1052 0
4800 -843 -4302 0
4801 -4834 4893 0
4801 -4802 4893 -4913 0
-4801 -4893 0
-4801 4834 4913 0
-4801 4802 4834 0
4802 -4803 -4817 4830 0
4802 -4817 4829 4830 0
-4802 -4830 0
-4802 4817 0
-4802 4803 -4829 0
-4803 4804 4810 0
4803 -4804 0
4803 -4810 0
-4804 4805 4807 0
4804 -4805 0
4804 -4807 0
-4805 4554 -4550 0
-4805 4554 4806 0
-4805 -4554 4550 -4806 0
4805 -4554 -4550 0
4805 -4554 4806 0
4805 4554 4550 -4806 0
4806 -4566 4577 0
-4806 4566 0
-4806 -4577 0
4807 -8291 4808 0
4807 8291 -4808 0
-4807 8291 4808 0
-4807 -8291 -4808 0
-4808 4556 -4550 0
-4808 4556 4809 0
-4808 -4556 4550 -4809 0
4808 -4556 -4550 0
4808 -4556 4809 0
4808 4556 4550 -4809 0
4809 4554 -4806 0
-4809 -4554 0
-4809 4806 0
-4810 4811 4814 0
4810 -4811 0
4810 -4814 0
4811 -8292 4812 0
4811 8292 -4812 0
-4811 8292 4812 0
-4811 -8292 -4812 0
-4812 4560 -4550 0
-4812 4559 4550 4813 0
-4812 -4559 4550 -4813 0
4812 -4560 -4550 0
4812 4559 4550 -4813 0
4812 -4559 4550 4813 0
4813 4553 -4806 0
-4813 -4553 0
-4813 4806 0
4814 -8293 4815 0
4814 8293 -4815 0
-4814 8293 4815 0
-4814 -8293 -4815 0
-4815 4563 -4550 0
-4815 4562 4550 4816 0
-4815 -4562 4550 -4816 0
4815 -4563 -4550 0
4815 4562 4550 -4816 0
4815 -4562 4550 4816 0
4816 -4559 4580 0
4816 4580 -4813 0
-4816 -4580 0
-4816 4559 4813 0
-4817 4818 4803 0
4817 -4818 0
4817 -4803 0
-4818 4819 4824 0
4818 -4819 0
4818 -4824 0
-4819 4820 4822 0
4819 -4820 0
4819 -4822 0
-4820 4568 -4550 0
-4820 4550 4821 0
4820 -4568 -4550 0
4820 4550 -4821 0
4821 -4568 0
-4821 4568 0
-4822 4570 -4550 0
-4822 4550 4823 0
4822 -4570 -4550 0
4822 4550 -4823 0
4823 -4570 0
-4823 4570 0
-4824 4825 4827 0
4824 -4825 0
4824 -4827 0
-4825 4573 -4550 0
-4825 4550 4826 0
4825 -4573 -4550 0
4825 4550 -4826 0
4826 -4573 0
-4826 4573 0
-4827 4575 -4550 0
-4827 4550 4828 0
4827 -4575 -4550 0
4827 4550 -4828 0
4828 -4575 0
-4828 4575 0
-4829 4819 4824 0
4829 -4819 0
4829 -4824 0
-4830 -8293 4831 4833 0
-4830 -8293 4815 4831 0
-4830 4815 4831 4833 0
4830 -4815 -4833 0
4830 8293 -4833 0
4830 -4831 0
4830 8293 -4815 0
4831 4810 -4832 0
-4831 -4810 0
-4831 4832 0
-4832 -8291 4805 0
-4832 4805 4808 0
-4832 -8291 4808 0
4832 8291 -4808 0
4832 -4805 -4808 0
4832 8291 -4805 0
4833 8292 -4812 0
-4833 -8292 0
-4833 4812 0
-4834 4835 4863 0
4834 -4835 0
4834 -4863 0
-4835 4836 4849 0
4835 -4836 0
4835 -4849 0
-4836 4837 4844 0
4836 -4837 0
4836 -4844 0
-4837 4838 4842 0
4837 -4838 0
4837 -4842 0
-4838 4585 -4550 0
-4838 4585 4839 0
-4838 -4585 4550 -4839 0
4838 -4585 -4550 0
4838 -4585 4839 0
4838 4585 4550 -4839 0
4839 -4591 4659 0
4839 4659 -4840 0
-4839 -4659 0
-4839 4591 4840 0
4840 -4597 4654 0
4840 4654 -4841 0
-4840 -4654 0
-4840 4597 4841 0
4841 -4551 4642 0
4841 -4611 4642 0
-4841 -4642 0
-4841 4551 4611 0
-4842 4589 -4550 0
-4842 4589 4843 0
-4842 -4589 4550 -4843 0
4842 -4589 -4550 0
4842 -4589 4843 0
4842 4589 4550 -4843 0
4843 4585 -4839 0
-4843 -4585 0
-4843 4839 0
-4844 4845 4847 0
4844 -4845 0
4844 -4847 0
4845 -8306 4846 0
4845 8306 -4846 0
-4845 8306 4846 0
-4845 -8306 -4846 0
-4846 4593 -4550 0
-4846 4592 4550 4840 0
-4846 -4592 4550 -4840 0
4846 -4593 -4550 0
4846 4592 4550 -4840 0
4846 -4592 4550 4840 0
-4847 4595 -4550 0
-4847 4594 4550 4848 0
-4847 -4594 4550 -4848 0
4847 -4595 -4550 0
4847 4594 4550 -4848 0
4847 -4594 4550 4848 0
4848 -4592 4660 0
4848 4660 -4840 0
-4848 -4660 0
-4848 4592 4840 0
-4849 4850 4856 0
4849 -4850 0
4849 -4856 0
-4850 4851 4853 0
4850 -4851 0
4850 -4853 0
4851 -8302 4852 0
4851 8302 -4852 0
-4851 8302 4852 0
-4851 -8302 -4852 0
-4852 4600 -4550 0
-4852 4599 4550 4841 0
-4852 -4599 4550 -4841 0
4852 -4600 -4550 0
4852 4599 4550 -4841 0
4852 -4599 4550 4841 0
4853 -8303 4854 0
4853 8303 -4854 0
-4853 8303 4854 0
-4853 -8303 -4854 0
-4854 4602 -4550 0
-4854 4601 4550 4855 0
-4854 -4601 4550 -4855 0
4854 -4602 -4550 0
4854 4601 4550 -4855 0
4854 -4601 4550 4855 0
4855 -4599 4657 0
4855 4657 -4841 0
-4855 -4657 0
-4855 4599 4841 0
-4856 4857 4860 0
4856 -4857 0
4856 -4860 0
4857 -8304 4858 0
4857 8304 -4858 0
-4857 8304 4858 0
-4857 -8304 -4858 0
-4858 4606 -4550 0
-4858 4605 4550 4859 0
-4858 -4605 4550 -4859 0
4858 -4606 -4550 0
4858 4605 4550 -4859 0
4858 -4605 4550 4859 0
4859 -4598 4656 0
4859 4656 -4841 0
-4859 -4656 0
-4859 4598 4841 0
4860 -8305 4861 0
4860 8305 -4861 0
-4860 8305 4861 0
-4860 -8305 -4861 0
-4861 4609 -4550 0
-4861 4608 4550 4862 0
-4861 -4608 4550 -4862 0
4861 -4609 -4550 0
4861 4608 4550 -4862 0
4861 -4608 4550 4862 0
4862 -4605 4658 0
4862 4658 -4859 0
-4862 -4658 0
-4862 4605 4859 0
-4863 4864 4878 0
4863 -4864 0
4863 -4878 0
-4864 4865 4871 0
4864 -4865 0
4864 -4871 0
-4865 4866 4868 0
4865 -4866 0
4865 -4868 0
4866 -8294 4867 0
4866 8294 -4867 0
-4866 8294 4867 0
-4866 -8294 -4867 0
-4867 4615 -4550 0
-4867 -4551 -4614 4550 0
-4867 4551 4614 4550 0
4867 -4615 -4550 0
4867 -4551 4614 4550 0
4867 4551 -4614 4550 0
4868 -8295 4869 0
4868 8295 -4869 0
-4868 8295 4869 0
-4868 -8295 -4869 0
-4869 4617 -4550 0
-4869 4616 4550 4870 0
-4869 -4616 4550 -4870 0
4869 -4617 -4550 0
4869 4616 4550 -4870 0
4869 -4616 4550 4870 0
4870 -4551 4647 0
4870 -4614 4647 0
-4870 -4647 0
-4870 4551 4614 0
-4871 4872 4875 0
4871 -4872 0
4871 -4875 0
4872 -8296 4873 0
4872 8296 -4873 0
-4872 8296 4873 0
-4872 -8296 -4873 0
-4873 4621 -4550 0
-4873 4620 4550 4874 0
-4873 -4620 4550 -4874 0
4873 -4621 -4550 0
4873 4620 4550 -4874 0
4873 -4620 4550 4874 0
4874 -4551 4646 0
4874 -4613 4646 0
-4874 -4646 0
-4874 4551 4613 0
4875 -8297 4876 0
4875 8297 -4876 0
-4875 8297 4876 0
-4875 -8297 -4876 0
-4876 4624 -4550 0
-4876 4623 4550 4877 0
-4876 -4623 4550 -4877 0
4876 -4624 -4550 0
4876 4623 4550 -4877 0
4876 -4623 4550 4877 0
4877 -4620 4648 0
4877 4648 -4874 0
-4877 -4648 0
-4877 4620 4874 0
-4878 4879 4886 0
4878 -4879 0
4878 -4886 0
-4879 4880 4883 0
4879 -4880 0
4879 -4883 0
4880 -8298 4881 0
4880 8298 -4881 0
-4880 8298 4881 0
-4880 -8298 -4881 0
-4881 4629 -4550 0
-4881 4628 4550 4882 0
-4881 -4628 4550 -4882 0
4881 -4629 -4550 0
4881 4628 4550 -4882 0
4881 -4628 4550 4882 0
4882 -4551 4644 0
4882 -4612 4644 0
-4882 -4644 0
-4882 4551 4612 0
4883 -8299 4884 0
4883 8299 -4884 0
-4883 8299 4884 0
-4883 -8299 -4884 0
-4884 4632 -4550 0
-4884 4631 4550 4885 0
-4884 -4631 4550 -4885 0
4884 -4632 -4550 0
4884 4631 4550 -4885 0
4884 -4631 4550 4885 0
4885 -4628 4650 0
4885 4650 -4882 0
-4885 -4650 0
-4885 4628 4882 0
-4886 4887 4890 0
4886 -4887 0
4886 -4890 0
4887 -8300 4888 0
4887 8300 -4888 0
-4887 8300 4888 0
-4887 -8300 -4888 0
-4888 4636 -4550 0
-4888 4635 4550 4889 0
-4888 -4635 4550 -4889 0
4888 -4636 -4550 0
4888 4635 4550 -4889 0
4888 -4635 4550 4889 0
4889 -4627 4649 0
4889 4649 -4882 0
-4889 -4649 0
-4889 4627 4882 0
4890 -8301 4891 0
4890 8301 -4891 0
-4890 8301 4891 0
-4890 -8301 -4891 0
-4891 4639 -4550 0
-4891 4638 4550 4892 0
-4891 -4638 4550 -4892 0
4891 -4639 -4550 0
4891 4638 4550 -4892 0
4891 -4638 4550 4892 0
4892 -4635 4652 0
4892 4652 -4889 0
-4892 -4652 0
-4892 4635 4889 0
-4893 4894 4905 0
-4893 -4835 4905 0
4893 -4905 0
4893 4835 -4894 0
-4894 -4886 4895 4903 0
-4894 4895 4901 4903 0
4894 -4903 0
4894 -4895 0
4894 4886 -4901 0
4895 4878 -4896 0
-4895 -4878 0
-4895 4896 0
-4896 -8297 4897 4900 0
-4896 -8297 4876 4897 0
-4896 4876 4897 4900 0
4896 -4876 -4900 0
4896 8297 -4900 0
4896 -4897 0
4896 8297 -4876 0
4897 4871 -4898 0
-4897 -4871 0
-4897 4898 0
-4898 -8295 4869 0
-4898 4869 4899 0
-4898 -8295 4899 0
4898 -4869 -4899 0
4898 8295 -4869 0
4898 8295 -4899 0
4899 8294 -4867 0
-4899 -8294 0
-4899 4867 0
4900 8296 -4873 0
-4900 -8296 0
-4900 4873 0
-4901 -8299 4884 0
-4901 4884 4902 0
-4901 -8299 4902 0
4901 -4884 -4902 0
4901 8299 -4884 0
4901 8299 -4902 0
4902 8298 -4881 0
-4902 -8298 0
-4902 4881 0
-4903 -8301 4891 0
-4903 4891 4904 0
-4903 -8301 4904 0
4903 -4891 -4904 0
4903 8301 -4891 0
4903 8301 -4904 0
4904 8300 -4888 0
-4904 -8300 0
-4904 4888 0
-4905 4837 -4844 4911 0
-4905 4837 4906 4911 0
4905 -4911 0
4905 -4837 0
4905 4844 -4906 0
-4906 -8305 4907 4910 0
-4906 -8305 4861 4907 0
-4906 4861 4907 4910 0
4906 -4861 -4910 0
4906 8305 -4910 0
4906 -4907 0
4906 8305 -4861 0
4907 4856 -4908 0
-4907 -4856 0
-4907 4908 0
-4908 -8303 4854 0
-4908 4854 4909 0
-4908 -8303 4909 0
4908 -4854 -4909 0
4908 8303 -4854 0
4908 8303 -4909 0
4909 8302 -4852 0
-4909 -8302 0
-4909 4852 0
4910 8304 -4858 0
-4910 -8304 0
-4910 4858 0
-4911 4847 4912 0
4911 -4847 0
4911 -4912 0
4912 8306 -4846 0
-4912 -8306 0
-4912 4846 0
-4913 4914 4817 4921 4924 0
4913 -4924 0
4913 -4914 0
4913 -4921 0
4913 -4817 0
-4914 4915 4918 0
4914 -4915 0
4914 -4918 0
-4915 4916 4917 0
4915 -4916 0
4915 -4917 0
-4916 4417 0
4916 -4417 0
-4917 4665 0
4917 -4665 0
-4918 4919 4920 0
4918 -4919 0
4918 -4920 0
-4919 4667 0
4919 -4667 0
-4920 4668 0
4920 -4668 0
-4921 4922 4923 0
4921 -4922 0
4921 -4923 0
-4922 3169 0
4922 -3169 0
-4923 3171 0
4923 -3171 0
-4924 4925 4926 0
4924 -4925 0
4924 -4926 0
-4925 3407 0
4925 -3407 0
-4926 3408 0
4926 -3408 0
4927 -4960 5019 0
4927 -4928 5019 -5039 0
-4927 -5019 0
-4927 4960 5039 0
-4927 4928 4960 0
4928 -4929 -4943 4956 0
4928 -4943 4955 4956 0
-4928 -4956 0
-4928 4943 0
-4928 4929 -4955 0
-4929 4930 4936 0
4929 -4930 0
4929 -4936 0
-4930 4931 4933 0
4930 -4931 0
4930 -4933 0
-4931 4676 -4672 0
-4931 4676 4932 0
-4931 -4676 4672 -4932 0
4931 -4676 -4672 0
4931 -4676 4932 0
4931 4676 4672 -4932 0
4932 -4688 4699 0
-4932 4688 0
-4932 -4699 0
4933 -8291 4934 0
4933 8291 -4934 0
-4933 8291 4934 0
-4933 -8291 -4934 0
-4934 4678 -4672 0
-4934 4678 4935 0
-4934 -4678 4672 -4935 0
4934 -4678 -4672 0
4934 -4678 4935 0
4934 4678 4672 -4935 0
4935 4676 -4932 0
-4935 -4676 0
-4935 4932 0
-4936 4937 4940 0
4936 -4937 0
4936 -4940 0
4937 -8292 4938 0
4937 8292 -4938 0
-4937 8292 4938 0
-4937 -8292 -4938 0
-4938 4682 -4672 0
-4938 4681 4672 4939 0
-4938 -4681 4672 -4939 0
4938 -4682 -4672 0
4938 4681 4672 -4939 0
4938 -4681 4672 4939 0
4939 4675 -4932 0
-4939 -4675 0
-4939 4932 0
4940 -8293 4941 0
4940 8293 -4941 0
-4940 8293 4941 0
-4940 -8293 -4941 0
-4941 4685 -4672 0
-4941 4684 4672 4942 0
-4941 -4684 4672 -4942 0
4941 -4685 -4672 0
4941 4684 4672 -4942 0
4941 -4684 4672 4942 0
4942 -4681 4702 0
4942 4702 -4939 0
-4942 -4702 0
-4942 4681 4939 0
-4943 4944 4929 0
4943 -4944 0
4943 -4929 0
-4944 4945 4950 0
4944 -4945 0
4944 -4950 0
-4945 4946 4948 0
4945 -4946 0
4945 -4948 0
-4946 4690 -4672 0
-4946 4672 4947 0
4946 -4690 -4672 0
4946 4672 -4947 0
4947 -4690 0
-4947 4690 0
-4948 4692 -4672 0
-4948 4672 4949 0
4948 -4692 -4672 0
4948 4672 -4949 0
4949 -4692 0
-4949 4692 0
-4950 4951 4953 0
4950 -4951 0
4950 -4953 0
-4951 4695 -4672 0
-4951 4672 4952 0
4951 -4695 -4672 0
4951 4672 -4952 0
4952 -4695 0
-4952 4695 0
-4953 4697 -4672 0
-4953 4672 4954 0
4953 -4697 -4672 0
4953 4672 -4954 0
4954 -4697 0
-4954 4697 0
-4955 4945 4950 0
4955 -4945 0
4955 -4950 0
-4956 -8293 4957 4959 0
-4956 -8293 4941 4957 0
-4956 4941 4957 4959 0
4956 -4941 -4959 0
4956 8293 -4959 0
4956 -4957 0
4956 8293 -4941 0
4957 4936 -4958 0
-4957 -4936 0
-4957 4958 0
-4958 -8291 4931 0
-4958 4931 4934 0
-4958 -8291 4934 0
4958 8291 -4934 0
4958 -4931 -4934 0
4958 8291 -4931 0
4959 8292 -4938 0
-4959 -8292 0
-4959 4938 0
-4960 4961 4989 0
4960 -4961 0
4960 -4989 0
-4961 4962 4975 0
4961 -4962 0
4961 -4975 0
-4962 4963 4970 0
4962 -4963 0
4962 -4970 0
-4963 4964 4968 0
4963 -4964 0
4963 -4968 0
-4964 4707 -4672 0
-4964 4707 4965 0
-4964 -4707 4672 -4965 0
4964 -4707 -4672 0
4964 -4707 4965 0
4964 4707 4672 -4965 0
4965 -4713 4781 0
4965 4781 -4966 0
-4965 -4781 0
-4965 4713 4966 0
4966 -4719 4776 0
4966 4776 -4967 0
-4966 -4776 0
-4966 4719 4967 0
4967 -4673 4764 0
4967 -4733 4764 0
-4967 -4764 0
-4967 4673 4733 0
-4968 4711 -4672 0
-4968 4711 4969 0
-4968 -4711 4672 -4969 0
4968 -4711 -4672 0
4968 -4711 4969 0
4968 4711 4672 -4969 0
4969 4707 -4965 0
-4969 -4707 0
-4969 4965 0
-4970 4971 4973 0
4970 -4971 0
4970 -4973 0
4971 -8306 4972 0
4971 8306 -4972 0
-4971 8306 4972 0
-4971 -8306 -4972 0
-4972 4715 -4672 0
-4972 4714 4672 4966 0
-4972 -4714 4672 -4966 0
4972 -4715 -4672 0
4972 4714 4672 -4966 0
4972 -4714 4672 4966 0
-4973 4717 -4672 0
-4973 4716 4672 4974 0
-4973 -4716 4672 -4974 0
4973 -4717 -4672 0
4973 4716 4672 -4974 0
4973 -4716 4672 4974 0
4974 -4714 4782 0
4974 4782 -4966 0
-4974 -4782 0
-4974 4714 4966 0
-4975 4976 4982 0
4975 -4976 0
4975 -4982 0
-4976 4977 4979 0
4976 -4977 0
4976 -4979 0
4977 -8302 4978 0
4977 8302 -4978 0
-4977 8302 4978 0
-4977 -8302 -4978 0
-4978 4722 -4672 0
-4978 4721 4672 4967 0
-4978 -4721 4672 -4967 0
4978 -4722 -4672 0
4978 4721 4672 -4967 0
4978 -4721 4672 4967 0
4979 -8303 4980 0
4979 8303 -4980 0
-4979 8303 4980 0
-4979 -8303 -4980 0
-4980 4724 -4672 0
-4980 4723 4672 4981 0
-4980 -4723 4672 -4981 0
4980 -4724 -4672 0
4980 4723 4672 -4981 0
4980 -4723 4672 4981 0
4981 -4721 4779 0
4981 4779 -4967 0
-4981 -4779 0
-4981 4721 4967 0
-4982 4983 4986 0
4982 -4983 0
4982 -4986 0
4983 -8304 4984 0
4983 8304 -4984 0
-4983 8304 4984 0
-4983 -8304 -4984 0
-4984 4728 -4672 0
-4984 4727 4672 4985 0
-4984 -4727 4672 -4985 0
4984 -4728 -4672 0
4984 4727 4672 -4985 0
4984 -4727 4672 4985 0
4985 -4720 4778 0
4985 4778 -4967 0
-4985 -4778 0
-4985 4720 4967 0
4986 -8305 4987 0
4986 8305 -4987 0
-4986 8305 4987 0
-4986 -8305 -4987 0
-4987 4731 -4672 0
-4987 4730 4672 4988 0
-4987 -4730 4672 -4988 0
4987 -4731 -4672 0
4987 4730 4672 -4988 0
4987 -4730 4672 4988 0
4988 -4727 4780 0
4988 4780 -4985 0
-4988 -4780 0
-4988 4727 4985 0
-4989 4990 5004 0
4989 -4990 0
4989 -5004 0
-4990 4991 4997 0
4990 -4991 0
4990 -4997 0
-4991 4992 4994 0
4991 -4992 0
4991 -4994 0
4992 -8294 4993 0
4992 8294 -4993 0
-4992 8294 4993 0
-4992 -8294 -4993 0
-4993 4737 -4672 0
-4993 -4673 -4736 4672 0
-4993 4673 4736 4672 0
4993 -4737 -4672 0
4993 -4673 4736 4672 0
4993 4673 -4736 4672 0
4994 -8295 4995 0
4994 8295 -4995 0
-4994 8295 4995 0
-4994 -8295 -4995 0
-4995 4739 -4672 0
-4995 4738 4672 4996 0
-4995 -4738 4672 -4996 0
4995 -4739 -4672 0
4995 4738 4672 -4996 0
4995 -4738 4672 4996 0
4996 -4673 4769 0
4996 -4736 4769 0
-4996 -4769 0
-4996 4673 4736 0
-4997 4998 5001 0
4997 -4998 0
4997 -5001 0
4998 -8296 4999 0
4998 8296 -4999 0
-4998 8296 4999 0
-4998 -8296 -4999 0
-4999 4743 -4672 0
-4999 4742 4672 5000 0
-4999 -4742 4672 -5000 0
4999 -4743 -4672 0
4999 4742 4672 -5000 0
4999 -4742 4672 5000 0
5000 -4673 4768 0
5000 -4735 4768 0
-5000 -4768 0
-5000 4673 4735 0
5001 -8297 5002 0
5001 8297 -5002 0
-5001 8297 5002 0
-5001 -8297 -5002 0
-5002 4746 -4672 0
-5002 4745 4672 5003 0
-5002 -4745 4672 -5003 0
5002 -4746 -4672 0
5002 4745 4672 -5003 0
5002 -4745 4672 5003 0
5003 -4742 4770 0
5003 4770 -5000 0
-5003 -4770 0
-5003 4742 5000 0
-5004 5005 5012 0
5004 -5005 0
5004 -5012 0
-5005 5006 5009 0
5005 -5006 0
5005 -5009 0
5006 -8298 5007 0
5006 8298 -5007 0
-5006 8298 5007 0
-5006 -8298 -5007 0
-5007 4751 -4672 0
-5007 4750 4672 5008 0
-5007 -4750 4672 -5008 0
5007 -4751 -4672 0
5007 4750 4672 -5008 0
5007 -4750 4672 5008 0
5008 -4673 4766 0
5008 -4734 4766 0
-5008 -4766 0
-5008 4673 4734 0
5009 -8299 5010 0
5009 8299 -5010 0
-5009 8299 5010 0
-5009 -8299 -5010 0
-5010 4754 -4672 0
-5010 4753 4672 5011 0
-5010 -4753 4672 -5011 0
5010 -4754 -4672 0
5010 4753 4672 -5011 0
5010 -4753 4672 5011 0
5011 -4750 4772 0
5011 4772 -5008 0
-5011 -4772 0
-5011 4750 5008 0
-5012 5013 5016 0
5012 -5013 0
5012 -5016 0
5013 -8300 5014 0
5013 8300 -5014 0
-5013 8300 5014 0
-5013 -8300 -5014 0
-5014 4758 -4672 0
-5014 4757 4672 5015 0
-5014 -4757 4672 -5015 0
5014 -4758 -4672 0
5014 4757 4672 -5015 0
5014 -4757 4672 5015 0
5015 -4749 4771 0
5015 4771 -5008 0
-5015 -4771 0
-5015 4749 5008 0
5016 -8301 5017 0
5016 8301 -5017 0
-5016 8301 5017 0
-5016 -8301 -5017 0
-5017 4761 -4672 0
-5017 4760 4672 5018 0
-5017 -4760 4672 -5018 0
5017 -4761 -4672 0
5017 4760 4672 -5018 0
5017 -4760 4672 5018 0
5018 -4757 4774 0
5018 4774 -5015 0
-5018 -4774 0
-5018 4757 5015 0
-5019 5020 5031 0
-5019 -4961 5031 0
5019 -5031 0
5019 4961 -5020 0
-5020 -5012 5021 5029 0
-5020 5021 5027 5029 0
5020 -5029 0
5020 -5021 0
5020 5012 -5027 0
5021 5004 -5022 0
-5021 -5004 0
-5021 5022 0
-5022 -8297 5023 5026 0
-5022 -8297 5002 5023 0
-5022 5002 5023 5026 0
5022 -5002 -5026 0
5022 8297 -5026 0
5022 -5023 0
5022 8297 -5002 0
5023 4997 -5024 0
-5023 -4997 0
-5023 5024 0
-5024 -8295 4995 0
-5024 4995 5025 0
-5024 -8295 5025 0
5024 -4995 -5025 0
5024 8295 -4995 0
5024 8295 -5025 0
5025 8294 -4993 0
-5025 -8294 0
-5025 4993 0
5026 8296 -4999 0
-5026 -8296 0
-5026 4999 0
-5027 -8299 5010 0
-5027 5010 5028 0
-5027 -8299 5028 0
5027 -5010 -5028 0
5027 8299 -5010 0
5027 8299 -5028 0
5028 8298 -5007 0
-5028 -8298 0
-5028 5007 0
-5029 -8301 5017 0
-5029 5017 5030 0
-5029 -8301 5030 0
5029 -5017 -5030 0
5029 8301 -5017 0
5029 8301 -5030 0
5030 8300 -5014 0
-5030 -8300 0
-5030 5014 0
-5031 4963 -4970 5037 0
-5031 4963 5032 5037 0
5031 -5037 0
5031 -4963 0
5031 4970 -5032 0
-5032 -8305 5033 5036 0
-5032 -8305 4987 5033 0
-5032 4987 5033 5036 0
5032 -4987 -5036 0
5032 8305 -5036 0
5032 -5033 0
5032 8305 -4987 0
5033 4982 -5034 0
-5033 -4982 0
-5033 5034 0
-5034 -8303 4980 0
-5034 4980 5035 0
-5034 -8303 5035 0
5034 -4980 -5035 0
5034 8303 -4980 0
5034 8303 -5035 0
5035 8302 -4978 0
-5035 -8302 0
-5035 4978 0
5036 8304 -4984 0
-5036 -8304 0
-5036 4984 0
-5037 4973 5038 0
5037 -4973 0
5037 -5038 0
5038 8306 -4972 0
-5038 -8306 0
-5038 4972 0
-5039 5040 4943 5047 5050 0
5039 -5050 0
5039 -5040 0
5039 -5047 0
5039 -4943 0
-5040 5041 5044 0
5040 -5041 0
5040 -5044 0
-5041 5042 5043 0
5041 -5042 0
5041 -5043 0
-5042 4539 0
5042 -4539 0
-5043 4787 0
5043 -4787 0
-5044 5045 5046 0
5044 -5045 0
5044 -5046 0
-5045 4789 0
5045 -4789 0
-5046 4790 0
5046 -4790 0
-5047 5048 5049 0
5047 -5048 0
5047 -5049 0
-5048 2603 0
5048 -2603 0
-5049 2605 0
5049 -2605 0
-5050 5051 5052 0
5050 -5051 0
5050 -5052 0
-5051 2607 0
5051 -2607 0
-5052 2609 0
5052 -2609 0
-5053 -1162 -5054 0
-5053 1162 -4012 -4294 0
-5053 1162 4012 4294 0
5053 -1162 5054 0
5053 1162 4012 -4294 0
5053 1162 -4012 4294 0
5054 1115 -5055 0
5054 -1115 1124 4298 0
5054 -1115 -1124 -4298 0
-5054 1115 5055 0
-5054 -1115 -1124 4298 0
-5054 -1115 1124 -4298 0
5055 1092 -5056 0
5055 -843 -1092 -4302 0
5055 843 -1092 4302 0
-5055 1092 5056 0
-5055 -843 -1092 4302 0
-5055 843 -1092 -4302 0
5056 -5091 5149 0
5056 -5057 5149 -5167 0
-5056 -5149 0
-5056 5091 5167 0
-5056 5057 5091 0
5057 -5058 -5073 5086 0
5057 -5073 5085 5086 0
-5057 -5086 0
-5057 5073 0
-5057 5058 -5085 0
-5058 5059 5066 0
5058 -5059 0
5058 -5066 0
-5059 5060 5063 0
5059 -5060 0
5059 -5063 0
5060 -8291 5061 0
5060 8291 -5061 0
-5060 8291 5061 0
-5060 -8291 -5061 0
-5061 4805 -4801 0
-5061 4805 5062 0
-5061 -4805 4801 -5062 0
5061 -4805 -4801 0
5061 -4805 5062 0
5061 4805 4801 -5062 0
5062 -4818 4829 0
-5062 4818 0
-5062 -4829 0
5063 -8292 5064 0
5063 8292 -5064 0
-5063 8292 5064 0
-5063 -8292 -5064 0
-5064 4808 -4801 0
-5064 4807 4801 5065 0
-5064 -4807 4801 -5065 0
5064 -4808 -4801 0
5064 4807 4801 -5065 0
5064 -4807 4801 5065 0
5065 4805 -5062 0
-5065 -4805 0
-5065 5062 0
-5066 5067 5070 0
5066 -5067 0
5066 -5070 0
5067 -8293 5068 0
5067 8293 -5068 0
-5067 8293 5068 0
-5067 -8293 -5068 0
-5068 4812 -4801 0
-5068 4811 4801 5069 0
-5068 -4811 4801 -5069 0
5068 -4812 -4801 0
5068 4811 4801 -5069 0
5068 -4811 4801 5069 0
5069 -8291 4808 0
5069 -8291 4805 -5062 0
5069 4805 4808 -5062 0
-5069 -4808 5062 0
-5069 8291 -4805 0
-5069 8291 -4808 0
-5069 -4805 -4808 0
-5069 8291 5062 0
5070 -8294 5071 0
5070 8294 -5071 0
-5070 8294 5071 0
-5070 -8294 -5071 0
-5071 4815 -4801 0
-5071 4814 4801 5072 0
-5071 -4814 4801 -5072 0
5071 -4815 -4801 0
5071 4814 4801 -5072 0
5071 -4814 4801 5072 0
5072 -4811 4833 0
5072 4833 -5069 0
-5072 -4833 0
-5072 4811 5069 0
-5073 5074 5058 0
5073 -5074 0
5073 -5058 0
-5074 5075 5080 0
5074 -5075 0
5074 -5080 0
-5075 5076 5078 0
5075 -5076 0
5075 -5078 0
-5076 4820 -4801 0
-5076 4801 5077 0
5076 -4820 -4801 0
5076 4801 -5077 0
5077 -4820 0
-5077 4820 0
-5078 4822 -4801 0
-5078 4801 5079 0
5078 -4822 -4801 0
5078 4801 -5079 0
5079 -4822 0
-5079 4822 0
-5080 5081 5083 0
5080 -5081 0
5080 -5083 0
-5081 4825 -4801 0
-5081 4801 5082 0
5081 -4825 -4801 0
5081 4801 -5082 0
5082 -4825 0
-5082 4825 0
-5083 4827 -4801 0
-5083 4801 5084 0
5083 -4827 -4801 0
5083 4801 -5084 0
5084 -4827 0
-5084 4827 0
-5085 5075 5080 0
5085 -5075 0
5085 -5080 0
-5086 -8294 5087 5090 0
-5086 -8294 5071 5087 0
-5086 5071 5087 5090 0
5086 -5071 -5090 0
5086 8294 -5090 0
5086 -5087 0
5086 8294 -5071 0
5087 5066 -5088 0
-5087 -5066 0
-5087 5088 0
-5088 -8292 5064 0
-5088 5064 5089 0
-5088 -8292 5089 0
5088 -5064 -5089 0
5088 8292 -5064 0
5088 8292 -5089 0
5089 8291 -5061 0
-5089 -8291 0
-5089 5061 0
5090 8293 -5068 0
-5090 -8293 0
-5090 5068 0
-5091 5092 5119 0
5091 -5092 0
5091 -5119 0
-5092 5093 5105 0
5092 -5093 0
5092 -5105 0
-5093 5094 5101 0
5093 -5094 0
5093 -5101 0
-5094 5095 5099 0
5094 -5095 0
5094 -5099 0
-5095 4838 -4801 0
-5095 4838 5096 0
-5095 -4838 4801 -5096 0
5095 -4838 -4801 0
5095 -4838 5096 0
5095 4838 4801 -5096 0
5096 -4844 4911 0
5096 4911 -5097 0
-5096 -4911 0
-5096 4844 5097 0
5097 -4849 4906 0
5097 4906 -5098 0
-5097 -4906 0
-5097 4849 5098 0
5098 -4802 4894 0
5098 -4863 4894 0
-5098 -4894 0
-5098 4802 4863 0
-5099 4842 -4801 0
-5099 4842 5100 0
-5099 -4842 4801 -5100 0
5099 -4842 -4801 0
5099 -4842 5100 0
5099 4842 4801 -5100 0
5100 4838 -5096 0
-5100 -4838 0
-5100 5096 0
-5101 5102 5103 0
5101 -5102 0
5101 -5103 0
-5102 4846 -4801 0
-5102 4845 4801 5097 0
-5102 -4845 4801 -5097 0
5102 -4846 -4801 0
5102 4845 4801 -5097 0
5102 -4845 4801 5097 0
-5103 4847 -4801 0
-5103 4847 5104 0
-5103 -4847 4801 -5104 0
5103 -4847 -4801 0
5103 -4847 5104 0
5103 4847 4801 -5104 0
5104 -4845 4912 0
5104 4912 -5097 0
-5104 -4912 0
-5104 4845 5097 0
-5105 5106 5112 0
5105 -5106 0
5105 -5112 0
-5106 5107 5109 0
5106 -5107 0
5106 -5109 0
5107 -8303 5108 0
5107 8303 -5108 0
-5107 8303 5108 0
-5107 -8303 -5108 0
-5108 4852 -4801 0
-5108 4851 4801 5098 0
-5108 -4851 4801 -5098 0
5108 -4852 -4801 0
5108 4851 4801 -5098 0
5108 -4851 4801 5098 0
5109 -8304 5110 0
5109 8304 -5110 0
-5109 8304 5110 0
-5109 -8304 -5110 0
-5110 4854 -4801 0
-5110 4853 4801 5111 0
-5110 -4853 4801 -5111 0
5110 -4854 -4801 0
5110 4853 4801 -5111 0
5110 -4853 4801 5111 0
5111 -4851 4909 0
5111 4909 -5098 0
-5111 -4909 0
-5111 4851 5098 0
-5112 5113 5116 0
5112 -5113 0
5112 -5116 0
5113 -8305 5114 0
5113 8305 -5114 0
-5113 8305 5114 0
-5113 -8305 -5114 0
-5114 4858 -4801 0
-5114 4857 4801 5115 0
-5114 -4857 4801 -5115 0
5114 -4858 -4801 0
5114 4857 4801 -5115 0
5114 -4857 4801 5115 0
5115 -4850 4908 0
5115 4908 -5098 0
-5115 -4908 0
-5115 4850 5098 0
5116 -8306 5117 0
5116 8306 -5117 0
-5116 8306 5117 0
-5116 -8306 -5117 0
-5117 4861 -4801 0
-5117 4860 4801 5118 0
-5117 -4860 4801 -5118 0
5117 -4861 -4801 0
5117 4860 4801 -5118 0
5117 -4860 4801 5118 0
5118 -4857 4910 0
5118 4910 -5115 0
-5118 -4910 0
-5118 4857 5115 0
-5119 5120 5134 0
5119 -5120 0
5119 -5134 0
-5120 5121 5127 0
5120 -5121 0
5120 -5127 0
-5121 5122 5124 0
5121 -5122 0
5121 -5124 0
5122 -8295 5123 0
5122 8295 -5123 0
-5122 8295 5123 0
-5122 -8295 -5123 0
-5123 4867 -4801 0
-5123 -4802 -4866 4801 0
-5123 4802 4866 4801 0
5123 -4867 -4801 0
5123 -4802 4866 4801 0
5123 4802 -4866 4801 0
5124 -8296 5125 0
5124 8296 -5125 0
-5124 8296 5125 0
-5124 -8296 -5125 0
-5125 4869 -4801 0
-5125 4868 4801 5126 0
-5125 -4868 4801 -5126 0
5125 -4869 -4801 0
5125 4868 4801 -5126 0
5125 -4868 4801 5126 0
5126 -4802 4899 0
5126 -4866 4899 0
-5126 -4899 0
-5126 4802 4866 0
-5127 5128 5131 0
5127 -5128 0
5127 -5131 0
5128 -8297 5129 0
5128 8297 -5129 0
-5128 8297 5129 0
-5128 -8297 -5129 0
-5129 4873 -4801 0
-5129 4872 4801 5130 0
-5129 -4872 4801 -5130 0
5129 -4873 -4801 0
5129 4872 4801 -5130 0
5129 -4872 4801 5130 0
5130 -4802 4898 0
5130 -4865 4898 0
-5130 -4898 0
-5130 4802 4865 0
5131 -8298 5132 0
5131 8298 -5132 0
-5131 8298 5132 0
-5131 -8298 -5132 0
-5132 4876 -4801 0
-5132 4875 4801 5133 0
-5132 -4875 4801 -5133 0
5132 -4876 -4801 0
5132 4875 4801 -5133 0
5132 -4875 4801 5133 0
5133 -4872 4900 0
5133 4900 -5130 0
-5133 -4900 0
-5133 4872 5130 0
-5134 5135 5142 0
5134 -5135 0
5134 -5142 0
-5135 5136 5139 0
5135 -5136 0
5135 -5139 0
5136 -8299 5137 0
5136 8299 -5137 0
-5136 8299 5137 0
-5136 -8299 -5137 0
-5137 4881 -4801 0
-5137 4880 4801 5138 0
-5137 -4880 4801 -5138 0
5137 -4881 -4801 0
5137 4880 4801 -5138 0
5137 -4880 4801 5138 0
5138 -4802 4896 0
5138 -4864 4896 0
-5138 -4896 0
-5138 4802 4864 0
5139 -8300 5140 0
5139 8300 -5140 0
-5139 8300 5140 0
-5139 -8300 -5140 0
-5140 4884 -4801 0
-5140 4883 4801 5141 0
-5140 -4883 4801 -5141 0
5140 -4884 -4801 0
5140 4883 4801 -5141 0
5140 -4883 4801 5141 0
5141 -4880 4902 0
5141 4902 -5138 0
-5141 -4902 0
-5141 4880 5138 0
-5142 5143 5146 0
5142 -5143 0
5142 -5146 0
5143 -8301 5144 0
5143 8301 -5144 0
-5143 8301 5144 0
-5143 -8301 -5144 0
-5144 4888 -4801 0
-5144 4887 4801 5145 0
-5144 -4887 4801 -5145 0
5144 -4888 -4801 0
5144 4887 4801 -5145 0
5144 -4887 4801 5145 0
5145 -4879 4901 0
5145 4901 -5138 0
-5145 -4901 0
-5145 4879 5138 0
5146 -8302 5147 0
5146 8302 -5147 0
-5146 8302 5147 0
-5146 -8302 -5147 0
-5147 4891 -4801 0
-5147 4890 4801 5148 0
-5147 -4890 4801 -5148 0
5147 -4891 -4801 0
5147 4890 4801 -5148 0
5147 -4890 4801 5148 0
5148 -4887 4904 0
5148 4904 -5145 0
-5148 -4904 0
-5148 4887 5145 0
-5149 5094 5101 5150 5162 0
5149 -5162 0
5149 -5094 0
5149 -5101 0
5149 -5150 0
5150 5092 -5151 0
-5150 -5092 0
-5150 5151 0
-5151 -5142 5152 5160 0
-5151 5152 5158 5160 0
5151 -5160 0
5151 -5152 0
5151 5142 -5158 0
5152 5134 -5153 0
-5152 -5134 0
-5152 5153 0
-5153 -8298 5154 5157 0
-5153 -8298 5132 5154 0
-5153 5132 5154 5157 0
5153 -5132 -5157 0
5153 8298 -5157 0
5153 -5154 0
5153 8298 -5132 0
5154 5127 -5155 0
-5154 -5127 0
-5154 5155 0
-5155 -8296 5125 0
-5155 5125 5156 0
-5155 -8296 5156 0
5155 -5125 -5156 0
5155 8296 -5125 0
5155 8296 -5156 0
5156 8295 -5123 0
-5156 -8295 0
-5156 5123 0
5157 8297 -5129 0
-5157 -8297 0
-5157 5129 0
-5158 -8300 5140 0
-5158 5140 5159 0
-5158 -8300 5159 0
5158 -5140 -5159 0
5158 8300 -5140 0
5158 8300 -5159 0
5159 8299 -5137 0
-5159 -8299 0
-5159 5137 0
-5160 -8302 5147 0
-5160 5147 5161 0
-5160 -8302 5161 0
5160 -5147 -5161 0
5160 8302 -5147 0
5160 8302 -5161 0
5161 8301 -5144 0
-5161 -8301 0
-5161 5144 0
-5162 -8306 5163 5166 0
-5162 -8306 5117 5163 0
-5162 5117 5163 5166 0
5162 -5117 -5166 0
5162 8306 -5166 0
5162 -5163 0
5162 8306 -5117 0
5163 5112 -5164 0
-5163 -5112 0
-5163 5164 0
-5164 -8304 5110 0
-5164 5110 5165 0
-5164 -8304 5165 0
5164 -5110 -5165 0
5164 8304 -5110 0
5164 8304 -5165 0
5165 8303 -5108 0
-5165 -8303 0
-5165 5108 0
5166 8305 -5114 0
-5166 -8305 0
-5166 5114 0
-5167 4921 5168 5073 5175 0
5167 -5175 0
5167 -4921 0
5167 -5073 0
5167 -5168 0
-5168 5169 5172 0
5168 -5169 0
5168 -5172 0
-5169 5170 5171 0
5169 -5170 0
5169 -5171 0
-5170 4664 0
5170 -4664 0
-5171 4917 0
5171 -4917 0
-5172 5173 5174 0
5172 -5173 0
5172 -5174 0
-5173 4919 0
5173 -4919 0
-5174 4920 0
5174 -4920 0
-5175 5176 5178 0
5175 -5176 0
5175 -5178 0
-5176 5177 0
5176 -5177 0
-5177 4166 0
5177 -4166 0
-5178 4167 0
5178 -4167 0
5179 -5214 5272 0
5179 -5180 5272 -5290 0
-5179 -5272 0
-5179 5214 5290 0
-5179 5180 5214 0
5180 -5181 -5196 5209 0
5180 -5196 5208 5209 0
-5180 -5209 0
-5180 5196 0
-5180 5181 -5208 0
-5181 5182 5189 0
5181 -5182 0
5181 -5189 0
-5182 5183 5186 0
5182 -5183 0
5182 -5186 0
5183 -8291 5184 0
5183 8291 -5184 0
-5183 8291 5184 0
-5183 -8291 -5184 0
-5184 4931 -4927 0
-5184 4931 5185 0
-5184 -4931 4927 -5185 0
5184 -4931 -4927 0
5184 -4931 5185 0
5184 4931 4927 -5185 0
5185 -4944 4955 0
-5185 4944 0
-5185 -4955 0
5186 -8292 5187 0
5186 8292 -5187 0
-5186 8292 5187 0
-5186 -8292 -5187 0
-5187 4934 -4927 0
-5187 4933 4927 5188 0
-5187 -4933 4927 -5188 0
5187 -4934 -4927 0
5187 4933 4927 -5188 0
5187 -4933 4927 5188 0
5188 4931 -5185 0
-5188 -4931 0
-5188 5185 0
-5189 5190 5193 0
5189 -5190 0
5189 -5193 0
5190 -8293 5191 0
5190 8293 -5191 0
-5190 8293 5191 0
-5190 -8293 -5191 0
-5191 4938 -4927 0
-5191 4937 4927 5192 0
-5191 -4937 4927 -5192 0
5191 -4938 -4927 0
5191 4937 4927 -5192 0
5191 -4937 4927 5192 0
5192 -8291 4934 0
5192 -8291 4931 -5185 0
5192 4931 4934 -5185 0
-5192 -4934 5185 0
-5192 8291 -4931 0
-5192 8291 -4934 0
-5192 -4931 -4934 0
-5192 8291 5185 0
5193 -8294 5194 0
5193 8294 -5194 0
-5193 8294 5194 0
-5193 -8294 -5194 0
-5194 4941 -4927 0
-5194 4940 4927 5195 0
-5194 -4940 4927 -5195 0
5194 -4941 -4927 0
5194 4940 4927 -5195 0
5194 -4940 4927 5195 0
5195 -4937 4959 0
5195 4959 -5192 0
-5195 -4959 0
-5195 4937 5192 0
-5196 5197 5181 0
5196 -5197 0
5196 -5181 0
-5197 5198 5203 0
5197 -5198 0
5197 -5203 0
-5198 5199 5201 0
5198 -5199 0
5198 -5201 0
-5199 4946 -4927 0
-5199 4927 5200 0
5199 -4946 -4927 0
5199 4927 -5200 0
5200 -4946 0
-5200 4946 0
-5201 4948 -4927 0
-5201 4927 5202 0
5201 -4948 -4927 0
5201 4927 -5202 0
5202 -4948 0
-5202 4948 0
-5203 5204 5206 0
5203 -5204 0
5203 -5206 0
-5204 4951 -4927 0
-5204 4927 5205 0
5204 -4951 -4927 0
5204 4927 -5205 0
5205 -4951 0
-5205 4951 0
-5206 4953 -4927 0
-5206 4927 5207 0
5206 -4953 -4927 0
5206 4927 -5207 0
5207 -4953 0
-5207 4953 0
-5208 5198 5203 0
5208 -5198 0
5208 -5203 0
-5209 -8294 5210 5213 0
-5209 -8294 5194 5210 0
-5209 5194 5210 5213 0
5209 -5194 -5213 0
5209 8294 -5213 0
5209 -5210 0
5209 8294 -5194 0
5210 5189 -5211 0
-5210 -5189 0
-5210 5211 0
-5211 -8292 5187 0
-5211 5187 5212 0
-5211 -8292 5212 0
5211 -5187 -5212 0
5211 8292 -5187 0
5211 8292 -5212 0
5212 8291 -5184 0
-5212 -8291 0
-5212 5184 0
5213 8293 -5191 0
-5213 -8293 0
-5213 5191 0
-5214 5215 5242 0
5214 -5215 0
5214 -5242 0
-5215 5216 5228 0
5215 -5216 0
5215 -5228 0
-5216 5217 5224 0
5216 -5217 0
5216 -5224 0
-5217 5218 5222 0
5217 -5218 0
5217 -5222 0
-5218 4964 -4927 0
-5218 4964 5219 0
-5218 -4964 4927 -5219 0
5218 -4964 -4927 0
5218 -4964 5219 0
5218 4964 4927 -5219 0
5219 -4970 5037 0
5219 5037 -5220 0
-5219 -5037 0
-5219 4970 5220 0
5220 -4975 5032 0
5220 5032 -5221 0
-5220 -5032 0
-5220 4975 5221 0
5221 -4928 5020 0
5221 -4989 5020 0
-5221 -5020 0
-5221 4928 4989 0
-5222 4968 -4927 0
-5222 4968 5223 0
-5222 -4968 4927 -5223 0
5222 -4968 -4927 0
5222 -4968 5223 0
5222 4968 4927 -5223 0
5223 4964 -5219 0
-5223 -4964 0
-5223 5219 0
-5224 5225 5226 0
5224 -5225 0
5224 -5226 0
-5225 4972 -4927 0
-5225 4971 4927 5220 0
-5225 -4971 4927 -5220 0
5225 -4972 -4927 0
5225 4971 4927 -5220 0
5225 -4971 4927 5220 0
-5226 4973 -4927 0
-5226 4973 5227 0
-5226 -4973 4927 -5227 0
5226 -4973 -4927 0
5226 -4973 5227 0
5226 4973 4927 -5227 0
5227 -4971 5038 0
5227 5038 -5220 0
-5227 -5038 0
-5227 4971 5220 0
-5228 5229 5235 0
5228 -5229 0
5228 -5235 0
-5229 5230 5232 0
5229 -5230 0
5229 -5232 0
5230 -8303 5231 0
5230 8303 -5231 0
-5230 8303 5231 0
-5230 -8303 -5231 0
-5231 4978 -4927 0
-5231 4977 4927 5221 0
-5231 -4977 4927 -5221 0
5231 -4978 -4927 0
5231 4977 4927 -5221 0
5231 -4977 4927 5221 0
5232 -8304 5233 0
5232 8304 -5233 0
-5232 8304 5233 0
-5232 -8304 -5233 0
-5233 4980 -4927 0
-5233 4979 4927 5234 0
-5233 -4979 4927 -5234 0
5233 -4980 -4927 0
5233 4979 4927 -5234 0
5233 -4979 4927 5234 0
5234 -4977 5035 0
5234 5035 -5221 0
-5234 -5035 0
-5234 4977 5221 0
-5235 5236 5239 0
5235 -5236 0
5235 -5239 0
5236 -8305 5237 0
5236 8305 -5237 0
-5236 8305 5237 0
-5236 -8305 -5237 0
-5237 4984 -4927 0
-5237 4983 4927 5238 0
-5237 -4983 4927 -5238 0
5237 -4984 -4927 0
5237 4983 4927 -5238 0
5237 -4983 4927 5238 0
5238 -4976 5034 0
5238 5034 -5221 0
-5238 -5034 0
-5238 4976 5221 0
5239 -8306 5240 0
5239 8306 -5240 0
-5239 8306 5240 0
-5239 -8306 -5240 0
-5240 4987 -4927 0
-5240 4986 4927 5241 0
-5240 -4986 4927 -5241 0
5240 -4987 -4927 0
5240 4986 4927 -5241 0
5240 -4986 4927 5241 0
5241 -4983 5036 0
5241 5036 -5238 0
-5241 -5036 0
-5241 4983 5238 0
-5242 5243 5257 0
5242 -5243 0
5242 -5257 0
-5243 5244 5250 0
5243 -5244 0
5243 -5250 0
-5244 5245 5247 0
5244 -5245 0
5244 -5247 0
5245 -8295 5246 0
5245 8295 -5246 0
-5245 8295 5246 0
-5245 -8295 -5246 0
-5246 4993 -4927 0
-5246 -4928 -4992 4927 0
-5246 4928 4992 4927 0
5246 -4993 -4927 0
5246 -4928 4992 4927 0
5246 4928 -4992 4927 0
5247 -8296 5248 0
5247 8296 -5248 0
-5247 8296 5248 0
-5247 -8296 -5248 0
-5248 4995 -4927 0
-5248 4994 4927 5249 0
-5248 -4994 4927 -5249 0
5248 -4995 -4927 0
5248 4994 4927 -5249 0
5248 -4994 4927 5249 0
5249 -4928 5025 0
5249 -4992 5025 0
-5249 -5025 0
-5249 4928 4992 0
-5250 5251 5254 0
5250 -5251 0
5250 -5254 0
5251 -8297 5252 0
5251 8297 -5252 0
-5251 8297 5252 0
-5251 -8297 -5252 0
-5252 4999 -4927 0
-5252 4998 4927 5253 0
-5252 -4998 4927 -5253 0
5252 -4999 -4927 0
5252 4998 4927 -5253 0
5252 -4998 4927 5253 0
5253 -4928 5024 0
5253 -4991 5024 0
-5253 -5024 0
-5253 4928 4991 0
5254 -8298 5255 0
5254 8298 -5255 0
-5254 8298 5255 0
-5254 -8298 -5255 0
-5255 5002 -4927 0
-5255 5001 4927 5256 0
-5255 -5001 4927 -5256 0
5255 -5002 -4927 0
5255 5001 4927 -5256 0
5255 -5001 4927 5256 0
5256 -4998 5026 0
5256 5026 -5253 0
-5256 -5026 0
-5256 4998 5253 0
-5257 5258 5265 0
5257 -5258 0
5257 -5265 0
-5258 5259 5262 0
5258 -5259 0
5258 -5262 0
5259 -8299 5260 0
5259 8299 -5260 0
-5259 8299 5260 0
-5259 -8299 -5260 0
-5260 5007 -4927 0
-5260 5006 4927 5261 0
-5260 -5006 4927 -5261 0
5260 -5007 -4927 0
5260 5006 4927 -5261 0
5260 -5006 4927 5261 0
5261 -4928 5022 0
5261 -4990 5022 0
-5261 -5022 0
-5261 4928 4990 0
5262 -8300 5263 0
5262 8300 -5263 0
-5262 8300 5263 0
-5262 -8300 -5263 0
-5263 5010 -4927 0
-5263 5009 4927 5264 0
-5263 -5009 4927 -5264 0
5263 -5010 -4927 0
5263 5009 4927 -5264 0
5263 -5009 4927 5264 0
5264 -5006 5028 0
5264 5028 -5261 0
-5264 -5028 0
-5264 5006 5261 0
-5265 5266 5269 0
5265 -5266 0
5265 -5269 0
5266 -8301 5267 0
5266 8301 -5267 0
-5266 8301 5267 0
-5266 -8301 -5267 0
-5267 5014 -4927 0
-5267 5013 4927 5268 0
-5267 -5013 4927 -5268 0
5267 -5014 -4927 0
5267 5013 4927 -5268 0
5267 -5013 4927 5268 0
5268 -5005 5027 0
5268 5027 -5261 0
-5268 -5027 0
-5268 5005 5261 0
5269 -8302 5270 0
5269 8302 -5270 0
-5269 8302 5270 0
-5269 -8302 -5270 0
-5270 5017 -4927 0
-5270 5016 4927 5271 0
-5270 -5016 4927 -5271 0
5270 -5017 -4927 0
5270 5016 4927 -5271 0
5270 -5016 4927 5271 0
5271 -5013 5030 0
5271 5030 -5268 0
-5271 -5030 0
-5271 5013 5268 0
-5272 5217 5224 5273 5285 0
5272 -5285 0
5272 -5217 0
5272 -5224 0
5272 -5273 0
5273 5215 -5274 0
-5273 -5215 0
-5273 5274 0
-5274 -5265 5275 5283 0
-5274 5275 5281 5283 0
5274 -5283 0
5274 -5275 0
5274 5265 -5281 0
5275 5257 -5276 0
-5275 -5257 0
-5275 5276 0
-5276 -8298 5277 5280 0
-5276 -8298 5255 5277 0
-5276 5255 5277 5280 0
5276 -5255 -5280 0
5276 8298 -5280 0
5276 -5277 0
5276 8298 -5255 0
5277 5250 -5278 0
-5277 -5250 0
-5277 5278 0
-5278 -8296 5248 0
-5278 5248 5279 0
-5278 -8296 5279 0
5278 -5248 -5279 0
5278 8296 -5248 0
5278 8296 -5279 0
5279 8295 -5246 0
-5279 -8295 0
-5279 5246 0
5280 8297 -5252 0
-5280 -8297 0
-5280 5252 0
-5281 -8300 5263 0
-5281 5263 5282 0
-5281 -8300 5282 0
5281 -5263 -5282 0
5281 8300 -5263 0
5281 8300 -5282 0
5282 8299 -5260 0
-5282 -8299 0
-5282 5260 0
-5283 -8302 5270 0
-5283 5270 5284 0
-5283 -8302 5284 0
5283 -5270 -5284 0
5283 8302 -5270 0
5283 8302 -5284 0
5284 8301 -5267 0
-5284 -8301 0
-5284 5267 0
-5285 -8306 5286 5289 0
-5285 -8306 5240 5286 0
-5285 5240 5286 5289 0
5285 -5240 -5289 0
5285 8306 -5289 0
5285 -5286 0
5285 8306 -5240 0
5286 5235 -5287 0
-5286 -5235 0
-5286 5287 0
-5287 -8304 5233 0
-5287 5233 5288 0
-5287 -8304 5288 0
5287 -5233 -5288 0
5287 8304 -5233 0
5287 8304 -5288 0
5288 8303 -5231 0
-5288 -8303 0
-5288 5231 0
5289 8305 -5237 0
-5289 -8305 0
-5289 5237 0
-5290 5047 5291 5196 5298 0
5290 -5298 0
5290 -5047 0
5290 -5196 0
5290 -5291 0
-5291 5292 5295 0
5291 -5292 0
5291 -5295 0
-5292 5293 5294 0
5292 -5293 0
5292 -5294 0
-5293 4786 0
5293 -4786 0
-5294 5043 0
5294 -5043 0
-5295 5296 5297 0
5295 -5296 0
5295 -5297 0
-5296 5045 0
5296 -5045 0
-5297 5046 0
5297 -5046 0
-5298 5299 5300 0
5298 -5299 0
5298 -5300 0
-5299 2607 0
5299 -2607 0
-5300 2609 0
5300 -2609 0
5301 -5302 5437 5563 -5689 0
5301 5302 -5437 5563 -5689 0
5301 -5302 5437 -5563 5689 0
5301 5302 -5437 -5563 5689 0
-5301 -5302 -5437 0
-5301 5302 5437 0
-5301 -5563 -5689 0
-5301 5563 5689 0
-5302 -1162 -5305 0
-5302 1162 -4015 -5303 0
-5302 1162 4015 5303 0
5302 -1162 5305 0
5302 1162 4015 -5303 0
5302 1162 -4015 5303 0
-5303 227 4016 0
-5303 227 5304 0
5303 -227 0
5303 -4016 -5304 0
-5304 4020 4041 0
-5304 4017 4041 0
5304 -4041 0
5304 -4017 -4020 0
5305 1115 -5308 0
5305 -1115 1127 5306 0
5305 -1115 -1127 -5306 0
-5305 1115 5308 0
-5305 -1115 -1127 5306 0
-5305 -1115 1127 -5306 0
5306 8285 -8301 0
5306 25 -5307 0
5306 -8301 -5307 0
-5306 -8285 5307 0
-5306 8301 -25 0
-5306 8301 5307 0
5307 -1132 1154 0
5307 -1129 1154 0
-5307 -1154 0
-5307 1129 1132 0
5308 1092 -5311 0
5308 -876 -1092 -5309 0
5308 876 -1092 5309 0
-5308 1092 5311 0
-5308 -876 -1092 5309 0
-5308 876 -1092 -5309 0
-5309 907 1050 0
-5309 1050 5310 0
5309 -1050 0
5309 -907 -5310 0
-5310 982 1048 0
-5310 937 1048 0
5310 -1048 0
5310 -937 -982 0
5311 -5347 5404 0
5311 -5312 5404 -5421 0
-5311 -5404 0
-5311 5347 5421 0
-5311 5312 5347 0
5312 -5313 -5328 5342 0
5312 -5328 5341 5342 0
-5312 -5342 0
-5312 5328 0
-5312 5313 -5341 0
-5313 5314 5321 0
5313 -5314 0
5313 -5321 0
-5314 5315 5318 0
5314 -5315 0
5314 -5318 0
5315 -8292 5316 0
5315 8292 -5316 0
-5315 8292 5316 0
-5315 -8292 -5316 0
-5316 5061 -5056 0
-5316 5060 5056 5317 0
-5316 -5060 5056 -5317 0
5316 -5061 -5056 0
5316 5060 5056 -5317 0
5316 -5060 5056 5317 0
5317 -5074 5085 0
-5317 5074 0
-5317 -5085 0
5318 -8293 5319 0
5318 8293 -5319 0
-5318 8293 5319 0
-5318 -8293 -5319 0
-5319 5064 -5056 0
-5319 5063 5056 5320 0
-5319 -5063 5056 -5320 0
5319 -5064 -5056 0
5319 5063 5056 -5320 0
5319 -5063 5056 5320 0
5320 -8291 5061 0
5320 5061 -5317 0
5320 -8291 -5317 0
-5320 8291 5317 0
-5320 -5061 5317 0
-5320 8291 -5061 0
-5321 5322 5325 0
5321 -5322 0
5321 -5325 0
5322 -8294 5323 0
5322 8294 -5323 0
-5322 8294 5323 0
-5322 -8294 -5323 0
-5323 5068 -5056 0
-5323 5067 5056 5324 0
-5323 -5067 5056 -5324 0
5323 -5068 -5056 0
5323 5067 5056 -5324 0
5323 -5067 5056 5324 0
5324 -5059 5088 0
5324 5088 -5317 0
-5324 -5088 0
-5324 5059 5317 0
5325 -8295 5326 0
5325 8295 -5326 0
-5325 8295 5326 0
-5325 -8295 -5326 0
-5326 5071 -5056 0
-5326 5070 5056 5327 0
-5326 -5070 5056 -5327 0
5326 -5071 -5056 0
5326 5070 5056 -5327 0
5326 -5070 5056 5327 0
5327 -5067 5090 0
5327 5090 -5324 0
-5327 -5090 0
-5327 5067 5324 0
-5328 5329 5313 0
5328 -5329 0
5328 -5313 0
-5329 5330 5335 0
5329 -5330 0
5329 -5335 0
-5330 5331 5333 0
5330 -5331 0
5330 -5333 0
-5331 5076 -5056 0
-5331 5056 5332 0
5331 -5076 -5056 0
5331 5056 -5332 0
5332 -5076 0
-5332 5076 0
-5333 5078 -5056 0
-5333 5056 5334 0
5333 -5078 -5056 0
5333 5056 -5334 0
5334 -5078 0
-5334 5078 0
-5335 5336 5338 0
5335 -5336 0
5335 -5338 0
-5336 5081 -5056 0
-5336 5056 5337 0
5336 -5081 -5056 0
5336 5056 -5337 0
5337 -5081 0
-5337 5081 0
5338 -8291 5339 0
5338 8291 -5339 0
-5338 8291 5339 0
-5338 -8291 -5339 0
-5339 5083 -5056 0
-5339 5056 5340 0
5339 -5083 -5056 0
5339 5056 -5340 0
5340 -5083 0
-5340 5083 0
-5341 -8291 5339 0
-5341 -8291 5330 5336 0
-5341 5330 5336 5339 0
5341 -5330 -5339 0
5341 8291 -5336 0
5341 -5336 -5339 0
5341 8291 -5330 0
5341 8291 -5339 0
-5342 -8295 5343 5346 0
-5342 -8295 5326 5343 0
-5342 5326 5343 5346 0
5342 -5326 -5346 0
5342 8295 -5346 0
5342 -5343 0
5342 8295 -5326 0
5343 5321 -5344 0
-5343 -5321 0
-5343 5344 0
-5344 -8293 5319 0
-5344 5319 5345 0
-5344 -8293 5345 0
5344 -5319 -5345 0
5344 8293 -5319 0
5344 8293 -5345 0
5345 8292 -5316 0
-5345 -8292 0
-5345 5316 0
5346 8294 -5323 0
-5346 -8294 0
-5346 5323 0
-5347 5348 5374 0
5347 -5348 0
5347 -5374 0
-5348 5349 5361 0
5348 -5349 0
5348 -5361 0
-5349 5350 5357 0
5349 -5350 0
5349 -5357 0
-5350 5351 5355 0
5350 -5351 0
5350 -5355 0
-5351 5095 -5056 0
-5351 5095 5352 0
-5351 -5095 5056 -5352 0
5351 -5095 -5056 0
5351 -5095 5352 0
5351 5095 5056 -5352 0
5352 5101 -5353 0
-5352 -5101 0
-5352 5353 0
5353 -5105 5162 0
5353 5162 -5354 0
-5353 -5162 0
-5353 5105 5354 0
5354 -5057 5151 0
5354 -5119 5151 0
-5354 -5151 0
-5354 5057 5119 0
-5355 5099 -5056 0
-5355 5099 5356 0
-5355 -5099 5056 -5356 0
5355 -5099 -5056 0
5355 -5099 5356 0
5355 5099 5056 -5356 0
5356 5095 -5352 0
-5356 -5095 0
-5356 5352 0
-5357 5358 5359 0
5357 -5358 0
5357 -5359 0
-5358 5102 -5056 0
-5358 5102 5353 0
-5358 -5102 5056 -5353 0
5358 -5102 -5056 0
5358 -5102 5353 0
5358 5102 5056 -5353 0
-5359 5103 -5056 0
-5359 5103 5360 0
-5359 -5103 5056 -5360 0
5359 -5103 -5056 0
5359 -5103 5360 0
5359 5103 5056 -5360 0
5360 5102 -5353 0
-5360 -5102 0
-5360 5353 0
-5361 5362 5368 0
5361 -5362 0
5361 -5368 0
-5362 5363 5365 0
5362 -5363 0
5362 -5365 0
5363 -8304 5364 0
5363 8304 -5364 0
-5363 8304 5364 0
-5363 -8304 -5364 0
-5364 5108 -5056 0
-5364 5107 5056 5354 0
-5364 -5107 5056 -5354 0
5364 -5108 -5056 0
5364 5107 5056 -5354 0
5364 -5107 5056 5354 0
5365 -8305 5366 0
5365 8305 -5366 0
-5365 8305 5366 0
-5365 -8305 -5366 0
-5366 5110 -5056 0
-5366 5109 5056 5367 0
-5366 -5109 5056 -5367 0
5366 -5110 -5056 0
5366 5109 5056 -5367 0
5366 -5109 5056 5367 0
5367 -5107 5165 0
5367 5165 -5354 0
-5367 -5165 0
-5367 5107 5354 0
-5368 5369 5372 0
5368 -5369 0
5368 -5372 0
5369 -8306 5370 0
5369 8306 -5370 0
-5369 8306 5370 0
-5369 -8306 -5370 0
-5370 5114 -5056 0
-5370 5113 5056 5371 0
-5370 -5113 5056 -5371 0
5370 -5114 -5056 0
5370 5113 5056 -5371 0
5370 -5113 5056 5371 0
5371 -5106 5164 0
5371 5164 -5354 0
-5371 -5164 0
-5371 5106 5354 0
-5372 5117 -5056 0
-5372 5116 5056 5373 0
-5372 -5116 5056 -5373 0
5372 -5117 -5056 0
5372 5116 5056 -5373 0
5372 -5116 5056 5373 0
5373 -5113 5166 0
5373 5166 -5371 0
-5373 -5166 0
-5373 5113 5371 0
-5374 5375 5389 0
5374 -5375 0
5374 -5389 0
-5375 5376 5382 0
5375 -5376 0
5375 -5382 0
-5376 5377 5379 0
5376 -5377 0
5376 -5379 0
5377 -8296 5378 0
5377 8296 -5378 0
-5377 8296 5378 0
-5377 -8296 -5378 0
-5378 5123 -5056 0
-5378 -5057 -5122 5056 0
-5378 5057 5122 5056 0
5378 -5123 -5056 0
5378 -5057 5122 5056 0
5378 5057 -5122 5056 0
5379 -8297 5380 0
5379 8297 -5380 0
-5379 8297 5380 0
-5379 -8297 -5380 0
-5380 5125 -5056 0
-5380 5124 5056 5381 0
-5380 -5124 5056 -5381 0
5380 -5125 -5056 0
5380 5124 5056 -5381 0
5380 -5124 5056 5381 0
5381 -5057 5156 0
5381 -5122 5156 0
-5381 -5156 0
-5381 5057 5122 0
-5382 5383 5386 0
5382 -5383 0
5382 -5386 0
5383 -8298 5384 0
5383 8298 -5384 0
-5383 8298 5384 0
-5383 -8298 -5384 0
-5384 5129 -5056 0
-5384 5128 5056 5385 0
-5384 -5128 5056 -5385 0
5384 -5129 -5056 0
5384 5128 5056 -5385 0
5384 -5128 5056 5385 0
5385 -5057 5155 0
5385 -5121 5155 0
-5385 -5155 0
-5385 5057 5121 0
5386 -8299 5387 0
5386 8299 -5387 0
-5386 8299 5387 0
-5386 -8299 -5387 0
-5387 5132 -5056 0
-5387 5131 5056 5388 0
-5387 -5131 5056 -5388 0
5387 -5132 -5056 0
5387 5131 5056 -5388 0
5387 -5131 5056 5388 0
5388 -5128 5157 0
5388 5157 -5385 0
-5388 -5157 0
-5388 5128 5385 0
-5389 5390 5397 0
5389 -5390 0
5389 -5397 0
-5390 5391 5394 0
5390 -5391 0
5390 -5394 0
5391 -8300 5392 0
5391 8300 -5392 0
-5391 8300 5392 0
-5391 -8300 -5392 0
-5392 5137 -5056 0
-5392 5136 5056 5393 0
-5392 -5136 5056 -5393 0
5392 -5137 -5056 0
5392 5136 5056 -5393 0
5392 -5136 5056 5393 0
5393 -5057 5153 0
5393 -5120 5153 0
-5393 -5153 0
-5393 5057 5120 0
5394 -8301 5395 0
5394 8301 -5395 0
-5394 8301 5395 0
-5394 -8301 -5395 0
-5395 5140 -5056 0
-5395 5139 5056 5396 0
-5395 -5139 5056 -5396 0
5395 -5140 -5056 0
5395 5139 5056 -5396 0
5395 -5139 5056 5396 0
5396 -5136 5159 0
5396 5159 -5393 0
-5396 -5159 0
-5396 5136 5393 0
-5397 5398 5401 0
5397 -5398 0
5397 -5401 0
5398 -8302 5399 0
5398 8302 -5399 0
-5398 8302 5399 0
-5398 -8302 -5399 0
-5399 5144 -5056 0
-5399 5143 5056 5400 0
-5399 -5143 5056 -5400 0
5399 -5144 -5056 0
5399 5143 5056 -5400 0
5399 -5143 5056 5400 0
5400 -5135 5158 0
5400 5158 -5393 0
-5400 -5158 0
-5400 5135 5393 0
5401 -8303 5402 0
5401 8303 -5402 0
-5401 8303 5402 0
-5401 -8303 -5402 0
-5402 5147 -5056 0
-5402 5146 5056 5403 0
-5402 -5146 5056 -5403 0
5402 -5147 -5056 0
5402 5146 5056 -5403 0
5402 -5146 5056 5403 0
5403 -5143 5161 0
5403 5161 -5400 0
-5403 -5161 0
-5403 5143 5400 0
-5404 5350 5357 5405 5417 0
5404 -5417 0
5404 -5350 0
5404 -5357 0
5404 -5405 0
5405 5348 -5406 0
-5405 -5348 0
-5405 5406 0
-5406 -5397 5407 5415 0
-5406 5407 5413 5415 0
5406 -5415 0
5406 -5407 0
5406 5397 -5413 0
5407 5389 -5408 0
-5407 -5389 0
-5407 5408 0
-5408 -8299 5409 5412 0
-5408 -8299 5387 5409 0
-5408 5387 5409 5412 0
5408 -5387 -5412 0
5408 8299 -5412 0
5408 -5409 0
5408 8299 -5387 0
5409 5382 -5410 0
-5409 -5382 0
-5409 5410 0
-5410 -8297 5380 0
-5410 5380 5411 0
-5410 -8297 5411 0
5410 -5380 -5411 0
5410 8297 -5380 0
5410 8297 -5411 0
5411 8296 -5378 0
-5411 -8296 0
-5411 5378 0
5412 8298 -5384 0
-5412 -8298 0
-5412 5384 0
-5413 -8301 5395 0
-5413 5395 5414 0
-5413 -8301 5414 0
5413 -5395 -5414 0
5413 8301 -5395 0
5413 8301 -5414 0
5414 8300 -5392 0
-5414 -8300 0
-5414 5392 0
-5415 -8303 5402 0
-5415 5402 5416 0
-5415 -8303 5416 0
5415 -5402 -5416 0
5415 8303 -5402 0
5415 8303 -5416 0
5416 8302 -5399 0
-5416 -8302 0
-5416 5399 0
-5417 -5369 5372 5420 0
-5417 5372 5418 5420 0
5417 -5372 0
5417 -5420 0
5417 5369 -5418 0
-5418 -8305 5366 0
-5418 5366 5419 0
-5418 -8305 5419 0
5418 -5366 -5419 0
5418 8305 -5366 0
5418 8305 -5419 0
5419 8304 -5364 0
-5419 -8304 0
-5419 5364 0
5420 8306 -5370 0
-5420 -8306 0
-5420 5370 0
-5421 5422 5328 5429 5432 0
5421 -5432 0
5421 -5422 0
5421 -5429 0
5421 -5328 0
-5422 5423 5426 0
5422 -5423 0
5422 -5426 0
-5423 5424 5425 0
5423 -5424 0
5423 -5425 0
-5424 4916 0
5424 -4916 0
-5425 5171 0
5425 -5171 0
-5426 5427 5428 0
5426 -5427 0
5426 -5428 0
-5427 5173 0
5427 -5173 0
-5428 5174 0
5428 -5174 0
-5429 5430 5431 0
5429 -5430 0
5429 -5431 0
-5430 3169 0
5430 -3169 0
-5431 3171 0
5431 -3171 0
-5432 5433 5435 0
5432 -5433 0
5432 -5435 0
-5433 5434 0
5433 -5434 0
-5434 4423 0
5434 -4423 0
-5435 5436 0
5435 -5436 0
-5436 4424 0
5436 -4424 0
5437 -5473 5530 0
5437 -5438 5530 -5547 0
-5437 -5530 0
-5437 5473 5547 0
-5437 5438 5473 0
5438 -5439 -5454 5468 0
5438 -5454 5467 5468 0
-5438 -5468 0
-5438 5454 0
-5438 5439 -5467 0
-5439 5440 5447 0
5439 -5440 0
5439 -5447 0
-5440 5441 5444 0
5440 -5441 0
5440 -5444 0
5441 -8292 5442 0
5441 8292 -5442 0
-5441 8292 5442 0
-5441 -8292 -5442 0
-5442 5184 -5179 0
-5442 5183 5179 5443 0
-5442 -5183 5179 -5443 0
5442 -5184 -5179 0
5442 5183 5179 -5443 0
5442 -5183 5179 5443 0
5443 -5197 5208 0
-5443 5197 0
-5443 -5208 0
5444 -8293 5445 0
5444 8293 -5445 0
-5444 8293 5445 0
-5444 -8293 -5445 0
-5445 5187 -5179 0
-5445 5186 5179 5446 0
-5445 -5186 5179 -5446 0
5445 -5187 -5179 0
5445 5186 5179 -5446 0
5445 -5186 5179 5446 0
5446 -5183 5212 0
5446 5212 -5443 0
-5446 -5212 0
-5446 5183 5443 0
-5447 5448 5451 0
5447 -5448 0
5447 -5451 0
5448 -8294 5449 0
5448 8294 -5449 0
-5448 8294 5449 0
-5448 -8294 -5449 0
-5449 5191 -5179 0
-5449 5190 5179 5450 0
-5449 -5190 5179 -5450 0
5449 -5191 -5179 0
5449 5190 5179 -5450 0
5449 -5190 5179 5450 0
5450 -5182 5211 0
5450 5211 -5443 0
-5450 -5211 0
-5450 5182 5443 0
5451 -8295 5452 0
5451 8295 -5452 0
-5451 8295 5452 0
-5451 -8295 -5452 0
-5452 5194 -5179 0
-5452 5193 5179 5453 0
-5452 -5193 5179 -5453 0
5452 -5194 -5179 0
5452 5193 5179 -5453 0
5452 -5193 5179 5453 0
5453 -5190 5213 0
5453 5213 -5450 0
-5453 -5213 0
-5453 5190 5450 0
-5454 5455 5439 0
5454 -5455 0
5454 -5439 0
-5455 5456 5461 0
5455 -5456 0
5455 -5461 0
-5456 5457 5459 0
5456 -5457 0
5456 -5459 0
-5457 5199 -5179 0
-5457 5179 5458 0
5457 -5199 -5179 0
5457 5179 -5458 0
5458 -5199 0
-5458 5199 0
-5459 5201 -5179 0
-5459 5179 5460 0
5459 -5201 -5179 0
5459 5179 -5460 0
5460 -5201 0
-5460 5201 0
-5461 5462 5464 0
5461 -5462 0
5461 -5464 0
-5462 5204 -5179 0
-5462 5179 5463 0
5462 -5204 -5179 0
5462 5179 -5463 0
5463 -5204 0
-5463 5204 0
5464 -8291 5465 0
5464 8291 -5465 0
-5464 8291 5465 0
-5464 -8291 -5465 0
-5465 5206 -5179 0
-5465 5179 5466 0
5465 -5206 -5179 0
5465 5179 -5466 0
5466 -5206 0
-5466 5206 0
-5467 -8291 5465 0
-5467 -8291 5456 5462 0
-5467 5456 5462 5465 0
5467 -5456 -5465 0
5467 8291 -5462 0
5467 -5462 -5465 0
5467 8291 -5456 0
5467 8291 -5465 0
-5468 -8295 5469 5472 0
-5468 -8295 5452 5469 0
-5468 5452 5469 5472 0
5468 -5452 -5472 0
5468 8295 -5472 0
5468 -5469 0
5468 8295 -5452 0
5469 5447 -5470 0
-5469 -5447 0
-5469 5470 0
-5470 -8293 5445 0
-5470 5445 5471 0
-5470 -8293 5471 0
5470 -5445 -5471 0
5470 8293 -5445 0
5470 8293 -5471 0
5471 8292 -5442 0
-5471 -8292 0
-5471 5442 0
5472 8294 -5449 0
-5472 -8294 0
-5472 5449 0
-5473 5474 5500 0
5473 -5474 0
5473 -5500 0
-5474 5475 5487 0
5474 -5475 0
5474 -5487 0
-5475 5476 5483 0
5475 -5476 0
5475 -5483 0
-5476 5477 5481 0
5476 -5477 0
5476 -5481 0
-5477 5218 -5179 0
-5477 5218 5478 0
-5477 -5218 5179 -5478 0
5477 -5218 -5179 0
5477 -5218 5478 0
5477 5218 5179 -5478 0
5478 5224 -5479 0
-5478 -5224 0
-5478 5479 0
5479 -5228 5285 0
5479 5285 -5480 0
-5479 -5285 0
-5479 5228 5480 0
5480 -5180 5274 0
5480 -5242 5274 0
-5480 -5274 0
-5480 5180 5242 0
-5481 5222 -5179 0
-5481 5222 5482 0
-5481 -5222 5179 -5482 0
5481 -5222 -5179 0
5481 -5222 5482 0
5481 5222 5179 -5482 0
5482 5218 -5478 0
-5482 -5218 0
-5482 5478 0
-5483 5484 5485 0
5483 -5484 0
5483 -5485 0
-5484 5225 -5179 0
-5484 5225 5479 0
-5484 -5225 5179 -5479 0
5484 -5225 -5179 0
5484 -5225 5479 0
5484 5225 5179 -5479 0
-5485 5226 -5179 0
-5485 5226 5486 0
-5485 -5226 5179 -5486 0
5485 -5226 -5179 0
5485 -5226 5486 0
5485 5226 5179 -5486 0
5486 5225 -5479 0
-5486 -5225 0
-5486 5479 0
-5487 5488 5494 0
5487 -5488 0
5487 -5494 0
-5488 5489 5491 0
5488 -5489 0
5488 -5491 0
5489 -8304 5490 0
5489 8304 -5490 0
-5489 8304 5490 0
-5489 -8304 -5490 0
-5490 5231 -5179 0
-5490 5230 5179 5480 0
-5490 -5230 5179 -5480 0
5490 -5231 -5179 0
5490 5230 5179 -5480 0
5490 -5230 5179 5480 0
5491 -8305 5492 0
5491 8305 -5492 0
-5491 8305 5492 0
-5491 -8305 -5492 0
-5492 5233 -5179 0
-5492 5232 5179 5493 0
-5492 -5232 5179 -5493 0
5492 -5233 -5179 0
5492 5232 5179 -5493 0
5492 -5232 5179 5493 0
5493 -5230 5288 0
5493 5288 -5480 0
-5493 -5288 0
-5493 5230 5480 0
-5494 5495 5498 0
5494 -5495 0
5494 -5498 0
5495 -8306 5496 0
5495 8306 -5496 0
-5495 8306 5496 0
-5495 -8306 -5496 0
-5496 5237 -5179 0
-5496 5236 5179 5497 0
-5496 -5236 5179 -5497 0
5496 -5237 -5179 0
5496 5236 5179 -5497 0
5496 -5236 5179 5497 0
5497 -5229 5287 0
5497 5287 -5480 0
-5497 -5287 0
-5497 5229 5480 0
-5498 5240 -5179 0
-5498 5239 5179 5499 0
-5498 -5239 5179 -5499 0
5498 -5240 -5179 0
5498 5239 5179 -5499 0
5498 -5239 5179 5499 0
5499 -5236 5289 0
5499 5289 -5497 0
-5499 -5289 0
-5499 5236 5497 0
-5500 5501 5515 0
5500 -5501 0
5500 -5515 0
-5501 5502 5508 0
5501 -5502 0
5501 -5508 0
-5502 5503 5505 0
5502 -5503 0
5502 -5505 0
5503 -8296 5504 0
5503 8296 -5504 0
-5503 8296 5504 0
-5503 -8296 -5504 0
-5504 5246 -5179 0
-5504 -5180 -5245 5179 0
-5504 5180 5245 5179 0
5504 -5246 -5179 0
5504 -5180 5245 5179 0
5504 5180 -5245 5179 0
5505 -8297 5506 0
5505 8297 -5506 0
-5505 8297 5506 0
-5505 -8297 -5506 0
-5506 5248 -5179 0
-5506 5247 5179 5507 0
-5506 -5247 5179 -5507 0
5506 -5248 -5179 0
5506 5247 5179 -5507 0
5506 -5247 5179 5507 0
5507 -5180 5279 0
5507 -5245 5279 0
-5507 -5279 0
-5507 5180 5245 0
-5508 5509 5512 0
5508 -5509 0
5508 -5512 0
5509 -8298 5510 0
5509 8298 -5510 0
-5509 8298 5510 0
-5509 -8298 -5510 0
-5510 5252 -5179 0
-5510 5251 5179 5511 0
-5510 -5251 5179 -5511 0
5510 -5252 -5179 0
5510 5251 5179 -5511 0
5510 -5251 5179 5511 0
5511 -5180 5278 0
5511 -5244 5278 0
-5511 -5278 0
-5511 5180 5244 0
5512 -8299 5513 0
5512 8299 -5513 0
-5512 8299 5513 0
-5512 -8299 -5513 0
-5513 5255 -5179 0
-5513 5254 5179 5514 0
-5513 -5254 5179 -5514 0
5513 -5255 -5179 0
5513 5254 5179 -5514 0
5513 -5254 5179 5514 0
5514 -5251 5280 0
5514 5280 -5511 0
-5514 -5280 0
-5514 5251 5511 0
-5515 5516 5523 0
5515 -5516 0
5515 -5523 0
-5516 5517 5520 0
5516 -5517 0
5516 -5520 0
5517 -8300 5518 0
5517 8300 -5518 0
-5517 8300 5518 0
-5517 -8300 -5518 0
-5518 5260 -5179 0
-5518 5259 5179 5519 0
-5518 -5259 5179 -5519 0
5518 -5260 -5179 0
5518 5259 5179 -5519 0
5518 -5259 5179 5519 0
5519 -5180 5276 0
5519 -5243 5276 0
-5519 -5276 0
-5519 5180 5243 0
5520 -8301 5521 0
5520 8301 -5521 0
-5520 8301 5521 0
-5520 -8301 -5521 0
-5521 5263 -5179 0
-5521 5262 5179 5522 0
-5521 -5262 5179 -5522 0
5521 -5263 -5179 0
5521 5262 5179 -5522 0
5521 -5262 5179 5522 0
5522 -5259 5282 0
5522 5282 -5519 0
-5522 -5282 0
-5522 5259 5519 0
-5523 5524 5527 0
5523 -5524 0
5523 -5527 0
5524 -8302 5525 0
5524 8302 -5525 0
-5524 8302 5525 0
-5524 -8302 -5525 0
-5525 5267 -5179 0
-5525 5266 5179 5526 0
-5525 -5266 5179 -5526 0
5525 -5267 -5179 0
5525 5266 5179 -5526 0
5525 -5266 5179 5526 0
5526 -5258 5281 0
5526 5281 -5519 0
-5526 -5281 0
-5526 5258 5519 0
5527 -8303 5528 0
5527 8303 -5528 0
-5527 8303 5528 0
-5527 -8303 -5528 0
-5528 5270 -5179 0
-5528 5269 5179 5529 0
-5528 -5269 5179 -5529 0
5528 -5270 -5179 0
5528 5269 5179 -5529 0
5528 -5269 5179 5529 0
5529 -5266 5284 0
5529 5284 -5526 0
-5529 -5284 0
-5529 5266 5526 0
-5530 5476 5483 5531 5543 0
5530 -5543 0
5530 -5476 0
5530 -5483 0
5530 -5531 0
5531 5474 -5532 0
-5531 -5474 0
-5531 5532 0
-5532 -5523 5533 5541 0
-5532 5533 5539 5541 0
5532 -5541 0
5532 -5533 0
5532 5523 -5539 0
5533 5515 -5534 0
-5533 -5515 0
-5533 5534 0
-5534 -8299 5535 5538 0
-5534 -8299 5513 5535 0
-5534 5513 5535 5538 0
5534 -5513 -5538 0
5534 8299 -5538 0
5534 -5535 0
5534 8299 -5513 0
5535 5508 -5536 0
-5535 -5508 0
-5535 5536 0
-5536 -8297 5506 0
-5536 5506 5537 0
-5536 -8297 5537 0
5536 -5506 -5537 0
5536 8297 -5506 0
5536 8297 -5537 0
5537 8296 -5504 0
-5537 -8296 0
-5537 5504 0
5538 8298 -5510 0
-5538 -8298 0
-5538 5510 0
-5539 -8301 5521 0
-5539 5521 5540 0
-5539 -8301 5540 0
5539 -5521 -5540 0
5539 8301 -5521 0
5539 8301 -5540 0
5540 8300 -5518 0
-5540 -8300 0
-5540 5518 0
-5541 -8303 5528 0
-5541 5528 5542 0
-5541 -8303 5542 0
5541 -5528 -5542 0
5541 8303 -5528 0
5541 8303 -5542 0
5542 8302 -5525 0
-5542 -8302 0
-5542 5525 0
-5543 -5495 5498 5546 0
-5543 5498 5544 5546 0
5543 -5498 0
5543 -5546 0
5543 5495 -5544 0
-5544 -8305 5492 0
-5544 5492 5545 0
-5544 -8305 5545 0
5544 -5492 -5545 0
5544 8305 -5492 0
5544 8305 -5545 0
5545 8304 -5490 0
-5545 -8304 0
-5545 5490 0
5546 8306 -5496 0
-5546 -8306 0
-5546 5496 0
-5547 5548 5454 5555 5558 0
5547 -5558 0
5547 -5548 0
5547 -5555 0
5547 -5454 0
-5548 5549 5552 0
5548 -5549 0
5548 -5552 0
-5549 5550 5551 0
5549 -5550 0
5549 -5551 0
-5550 5042 0
5550 -5042 0
-5551 5294 0
5551 -5294 0
-5552 5553 5554 0
5552 -5553 0
5552 -5554 0
-5553 5296 0
5553 -5296 0
-5554 5297 0
5554 -5297 0
-5555 5556 5557 0
5555 -5556 0
5555 -5557 0
-5556 3523 0
5556 -3523 0
-5557 3524 0
5557 -3524 0
-5558 5559 5561 0
5558 -5559 0
5558 -5561 0
-5559 5560 0
5559 -5560 0
-5560 4545 0
5560 -4545 0
-5561 5562 0
5561 -5562 0
-5562 4546 0
5562 -4546 0
-5563 -1162 -5564 0
-5563 1162 -4016 -5304 0
-5563 1162 4016 5304 0
5563 -1162 5564 0
5563 1162 4016 -5304 0
5563 1162 -4016 5304 0
5564 1115 -5565 0
5564 -1115 1128 5307 0
5564 -1115 -1128 -5307 0
-5564 1115 5565 0
-5564 -1115 -1128 5307 0
-5564 -1115 1128 -5307 0
5565 1092 -5566 0
5565 -907 -1092 -5310 0
5565 907 -1092 5310 0
-5565 1092 5566 0
-5565 -907 -1092 5310 0
-5565 907 -1092 -5310 0
5566 -5605 5661 0
5566 -5567 5661 -5677 0
-5566 -5661 0
-5566 5605 5677 0
-5566 5567 5605 0
5567 -5568 -5583 5600 0
5567 -5583 5597 5600 0
-5567 -5600 0
-5567 5583 0
-5567 5568 -5597 0
-5568 5569 5576 0
5568 -5569 0
5568 -5576 0
-5569 5570 5573 0
5569 -5570 0
5569 -5573 0
5570 -8293 5571 0
5570 8293 -5571 0
-5570 8293 5571 0
-5570 -8293 -5571 0
-5571 5316 -5311 0
-5571 5315 5311 5572 0
-5571 -5315 5311 -5572 0
5571 -5316 -5311 0
5571 5315 5311 -5572 0
5571 -5315 5311 5572 0
5572 -5329 5341 0
-5572 5329 0
-5572 -5341 0
5573 -8294 5574 0
5573 8294 -5574 0
-5573 8294 5574 0
-5573 -8294 -5574 0
-5574 5319 -5311 0
-5574 5318 5311 5575 0
-5574 -5318 5311 -5575 0
5574 -5319 -5311 0
5574 5318 5311 -5575 0
5574 -5318 5311 5575 0
5575 -5315 5345 0
5575 5345 -5572 0
-5575 -5345 0
-5575 5315 5572 0
-5576 5577 5580 0
5576 -5577 0
5576 -5580 0
5577 -8295 5578 0
5577 8295 -5578 0
-5577 8295 5578 0
-5577 -8295 -5578 0
-5578 5323 -5311 0
-5578 5322 5311 5579 0
-5578 -5322 5311 -5579 0
5578 -5323 -5311 0
5578 5322 5311 -5579 0
5578 -5322 5311 5579 0
5579 -5314 5344 0
5579 5344 -5572 0
-5579 -5344 0
-5579 5314 5572 0
5580 -8296 5581 0
5580 8296 -5581 0
-5580 8296 5581 0
-5580 -8296 -5581 0
-5581 5326 -5311 0
-5581 5325 5311 5582 0
-5581 -5325 5311 -5582 0
5581 -5326 -5311 0
5581 5325 5311 -5582 0
5581 -5325 5311 5582 0
5582 -5322 5346 0
5582 5346 -5579 0
-5582 -5346 0
-5582 5322 5579 0
-5583 5584 5568 0
5583 -5584 0
5583 -5568 0
-5584 5585 5590 0
5584 -5585 0
5584 -5590 0
-5585 5586 5588 0
5585 -5586 0
5585 -5588 0
-5586 5331 -5311 0
-5586 5311 5587 0
5586 -5331 -5311 0
5586 5311 -5587 0
5587 -5331 0
-5587 5331 0
-5588 5333 -5311 0
-5588 5311 5589 0
5588 -5333 -5311 0
5588 5311 -5589 0
5589 -5333 0
-5589 5333 0
-5590 5591 5594 0
5590 -5591 0
5590 -5594 0
5591 -8291 5592 0
5591 8291 -5592 0
-5591 8291 5592 0
-5591 -8291 -5592 0
-5592 5336 -5311 0
-5592 5311 5593 0
5592 -5336 -5311 0
5592 5311 -5593 0
5593 -5336 0
-5593 5336 0
5594 -8292 5595 0
5594 8292 -5595 0
-5594 8292 5595 0
-5594 -8292 -5595 0
-5595 5339 -5311 0
-5595 5311 5596 0
5595 -5339 -5311 0
5595 5311 -5596 0
5596 -5338 0
-5596 5338 0
-5597 -8292 5598 5599 0
-5597 -8292 5595 5598 0
-5597 5595 5598 5599 0
5597 -5595 -5599 0
5597 8292 -5599 0
5597 -5598 0
5597 8292 -5595 0
5598 -5585 5590 0
-5598 5585 0
-5598 -5590 0
5599 8291 -5592 0
-5599 -8291 0
-5599 5592 0
-5600 -8296 5601 5604 0
-5600 -8296 5581 5601 0
-5600 5581 5601 5604 0
5600 -5581 -5604 0
5600 8296 -5604 0
5600 -5601 0
5600 8296 -5581 0
5601 5576 -5602 0
-5601 -5576 0
-5601 5602 0
-5602 -8294 5574 0
-5602 5574 5603 0
-5602 -8294 5603 0
5602 -5574 -5603 0
5602 8294 -5574 0
5602 8294 -5603 0
5603 8293 -5571 0
-5603 -8293 0
-5603 5571 0
5604 8295 -5578 0
-5604 -8295 0
-5604 5578 0
-5605 5606 5631 0
5605 -5606 0
5605 -5631 0
-5606 5607 5619 0
5606 -5607 0
5606 -5619 0
-5607 5608 5615 0
5607 -5608 0
5607 -5615 0
-5608 5609 5613 0
5608 -5609 0
5608 -5613 0
-5609 5351 -5311 0
-5609 5351 5610 0
-5609 -5351 5311 -5610 0
5609 -5351 -5311 0
5609 -5351 5610 0
5609 5351 5311 -5610 0
5610 5357 -5611 0
-5610 -5357 0
-5610 5611 0
5611 -5361 5417 0
5611 5417 -5612 0
-5611 -5417 0
-5611 5361 5612 0
5612 -5312 5406 0
5612 -5374 5406 0
-5612 -5406 0
-5612 5312 5374 0
-5613 5355 -5311 0
-5613 5355 5614 0
-5613 -5355 5311 -5614 0
5613 -5355 -5311 0
5613 -5355 5614 0
5613 5355 5311 -5614 0
5614 5351 -5610 0
-5614 -5351 0
-5614 5610 0
-5615 5616 5617 0
5615 -5616 0
5615 -5617 0
-5616 5358 -5311 0
-5616 5358 5611 0
-5616 -5358 5311 -5611 0
5616 -5358 -5311 0
5616 -5358 5611 0
5616 5358 5311 -5611 0
-5617 5359 -5311 0
-5617 5359 5618 0
-5617 -5359 5311 -5618 0
5617 -5359 -5311 0
5617 -5359 5618 0
5617 5359 5311 -5618 0
5618 5358 -5611 0
-5618 -5358 0
-5618 5611 0
-5619 5620 5626 0
5619 -5620 0
5619 -5626 0
-5620 5621 5623 0
5620 -5621 0
5620 -5623 0
5621 -8305 5622 0
5621 8305 -5622 0
-5621 8305 5622 0
-5621 -8305 -5622 0
-5622 5364 -5311 0
-5622 5363 5311 5612 0
-5622 -5363 5311 -5612 0
5622 -5364 -5311 0
5622 5363 5311 -5612 0
5622 -5363 5311 5612 0
5623 -8306 5624 0
5623 8306 -5624 0
-5623 8306 5624 0
-5623 -8306 -5624 0
-5624 5366 -5311 0
-5624 5365 5311 5625 0
-5624 -5365 5311 -5625 0
5624 -5366 -5311 0
5624 5365 5311 -5625 0
5624 -5365 5311 5625 0
5625 -5363 5419 0
5625 5419 -5612 0
-5625 -5419 0
-5625 5363 5612 0
-5626 5627 5629 0
5626 -5627 0
5626 -5629 0
-5627 5370 -5311 0
-5627 5369 5311 5628 0
-5627 -5369 5311 -5628 0
5627 -5370 -5311 0
5627 5369 5311 -5628 0
5627 -5369 5311 5628 0
5628 -5362 5418 0
5628 5418 -5612 0
-5628 -5418 0
-5628 5362 5612 0
-5629 5372 -5311 0
-5629 5372 5630 0
-5629 -5372 5311 -5630 0
5629 -5372 -5311 0
5629 -5372 5630 0
5629 5372 5311 -5630 0
5630 -5369 5420 0
5630 5420 -5628 0
-5630 -5420 0
-5630 5369 5628 0
-5631 5632 5646 0
5631 -5632 0
5631 -5646 0
-5632 5633 5639 0
5632 -5633 0
5632 -5639 0
-5633 5634 5636 0
5633 -5634 0
5633 -5636 0
5634 -8297 5635 0
5634 8297 -5635 0
-5634 8297 5635 0
-5634 -8297 -5635 0
-5635 5378 -5311 0
-5635 -5312 -5377 5311 0
-5635 5312 5377 5311 0
5635 -5378 -5311 0
5635 -5312 5377 5311 0
5635 5312 -5377 5311 0
5636 -8298 5637 0
5636 8298 -5637 0
-5636 8298 5637 0
-5636 -8298 -5637 0
-5637 5380 -5311 0
-5637 5379 5311 5638 0
-5637 -5379 5311 -5638 0
5637 -5380 -5311 0
5637 5379 5311 -5638 0
5637 -5379 5311 5638 0
5638 -5312 5411 0
5638 -5377 5411 0
-5638 -5411 0
-5638 5312 5377 0
-5639 5640 5643 0
5639 -5640 0
5639 -5643 0
5640 -8299 5641 0
5640 8299 -5641 0
-5640 8299 5641 0
-5640 -8299 -5641 0
-5641 5384 -5311 0
-5641 5383 5311 5642 0
-5641 -5383 5311 -5642 0
5641 -5384 -5311 0
5641 5383 5311 -5642 0
5641 -5383 5311 5642 0
5642 -5312 5410 0
5642 -5376 5410 0
-5642 -5410 0
-5642 5312 5376 0
5643 -8300 5644 0
5643 8300 -5644 0
-5643 8300 5644 0
-5643 -8300 -5644 0
-5644 5387 -5311 0
-5644 5386 5311 5645 0
-5644 -5386 5311 -5645 0
5644 -5387 -5311 0
5644 5386 5311 -5645 0
5644 -5386 5311 5645 0
5645 -5383 5412 0
5645 5412 -5642 0
-5645 -5412 0
-5645 5383 5642 0
-5646 5647 5654 0
5646 -5647 0
5646 -5654 0
-5647 5648 5651 0
5647 -5648 0
5647 -5651 0
5648 -8301 5649 0
5648 8301 -5649 0
-5648 8301 5649 0
-5648 -8301 -5649 0
-5649 5392 -5311 0
-5649 5391 5311 5650 0
-5649 -5391 5311 -5650 0
5649 -5392 -5311 0
5649 5391 5311 -5650 0
5649 -5391 5311 5650 0
5650 -5312 5408 0
5650 -5375 5408 0
-5650 -5408 0
-5650 5312 5375 0
5651 -8302 5652 0
5651 8302 -5652 0
-5651 8302 5652 0
-5651 -8302 -5652 0
-5652 5395 -5311 0
-5652 5394 5311 5653 0
-5652 -5394 5311 -5653 0
5652 -5395 -5311 0
5652 5394 5311 -5653 0
5652 -5394 5311 5653 0
5653 -5391 5414 0
5653 5414 -5650 0
-5653 -5414 0
-5653 5391 5650 0
-5654 5655 5658 0
5654 -5655 0
5654 -5658 0
5655 -8303 5656 0
5655 8303 -5656 0
-5655 8303 5656 0
-5655 -8303 -5656 0
-5656 5399 -5311 0
-5656 5398 5311 5657 0
-5656 -5398 5311 -5657 0
5656 -5399 -5311 0
5656 5398 5311 -5657 0
5656 -5398 5311 5657 0
5657 -5390 5413 0
5657 5413 -5650 0
-5657 -5413 0
-5657 5390 5650 0
5658 -8304 5659 0
5658 8304 -5659 0
-5658 8304 5659 0
-5658 -8304 -5659 0
-5659 5402 -5311 0
-5659 5401 5311 5660 0
-5659 -5401 5311 -5660 0
5659 -5402 -5311 0
5659 5401 5311 -5660 0
5659 -5401 5311 5660 0
5660 -5398 5416 0
5660 5416 -5657 0
-5660 -5416 0
-5660 5398 5657 0
-5661 5608 5615 5662 5674 0
5661 -5674 0
5661 -5608 0
5661 -5615 0
5661 -5662 0
5662 5606 -5663 0
-5662 -5606 0
-5662 5663 0
-5663 -5654 5664 5672 0
-5663 5664 5670 5672 0
5663 -5672 0
5663 -5664 0
5663 5654 -5670 0
5664 5646 -5665 0
-5664 -5646 0
-5664 5665 0
-5665 -8300 5666 5669 0
-5665 -8300 5644 5666 0
-5665 5644 5666 5669 0
5665 -5644 -5669 0
5665 8300 -5669 0
5665 -5666 0
5665 8300 -5644 0
5666 5639 -5667 0
-5666 -5639 0
-5666 5667 0
-5667 -8298 5637 0
-5667 5637 5668 0
-5667 -8298 5668 0
5667 -5637 -5668 0
5667 8298 -5637 0
5667 8298 -5668 0
5668 8297 -5635 0
-5668 -8297 0
-5668 5635 0
5669 8299 -5641 0
-5669 -8299 0
-5669 5641 0
-5670 -8302 5652 0
-5670 5652 5671 0
-5670 -8302 5671 0
5670 -5652 -5671 0
5670 8302 -5652 0
5670 8302 -5671 0
5671 8301 -5649 0
-5671 -8301 0
-5671 5649 0
-5672 -8304 5659 0
-5672 5659 5673 0
-5672 -8304 5673 0
5672 -5659 -5673 0
5672 8304 -5659 0
5672 8304 -5673 0
5673 8303 -5656 0
-5673 -8303 0
-5673 5656 0
-5674 5626 5675 0
5674 -5626 0
5674 -5675 0
-5675 -8306 5624 0
-5675 5624 5676 0
-5675 -8306 5676 0
5675 -5624 -5676 0
5675 8306 -5624 0
5675 8306 -5676 0
5676 8305 -5622 0
-5676 -8305 0
-5676 5622 0
-5677 5429 5678 5583 5685 0
5677 -5685 0
5677 -5429 0
5677 -5583 0
5677 -5678 0
-5678 5679 5682 0
5678 -5679 0
5678 -5682 0
-5679 5680 5681 0
5679 -5680 0
5679 -5681 0
-5680 5170 0
5680 -5170 0
-5681 5425 0
5681 -5425 0
-5682 5683 5684 0
5682 -5683 0
5682 -5684 0
-5683 5427 0
5683 -5427 0
-5684 5428 0
5684 -5428 0
-5685 5686 5687 0
5685 -5686 0
5685 -5687 0
-5686 4671 0
5686 -4671 0
-5687 5688 0
5687 -5688 0
-5688 4670 0
5688 -4670 0
5689 -5728 5784 0
5689 -5690 5784 -5800 0
-5689 -5784 0
-5689 5728 5800 0
-5689 5690 5728 0
5690 -5691 -5706 5723 0
5690 -5706 5720 5723 0
-5690 -5723 0
-5690 5706 0
-5690 5691 -5720 0
-5691 5692 5699 0
5691 -5692 0
5691 -5699 0
-5692 5693 5696 0
5692 -5693 0
5692 -5696 0
5693 -8293 5694 0
5693 8293 -5694 0
-5693 8293 5694 0
-5693 -8293 -5694 0
-5694 5442 -5437 0
-5694 5441 5437 5695 0
-5694 -5441 5437 -5695 0
5694 -5442 -5437 0
5694 5441 5437 -5695 0
5694 -5441 5437 5695 0
5695 -5455 5467 0
-5695 5455 0
-5695 -5467 0
5696 -8294 5697 0
5696 8294 -5697 0
-5696 8294 5697 0
-5696 -8294 -5697 0
-5697 5445 -5437 0
-5697 5444 5437 5698 0
-5697 -5444 5437 -5698 0
5697 -5445 -5437 0
5697 5444 5437 -5698 0
5697 -5444 5437 5698 0
5698 -5441 5471 0
5698 5471 -5695 0
-5698 -5471 0
-5698 5441 5695 0
-5699 5700 5703 0
5699 -5700 0
5699 -5703 0
5700 -8295 5701 0
5700 8295 -5701 0
-5700 8295 5701 0
-5700 -8295 -5701 0
-5701 5449 -5437 0
-5701 5448 5437 5702 0
-5701 -5448 5437 -5702 0
5701 -5449 -5437 0
5701 5448 5437 -5702 0
5701 -5448 5437 5702 0
5702 -5440 5470 0
5702 5470 -5695 0
-5702 -5470 0
-5702 5440 5695 0
5703 -8296 5704 0
5703 8296 -5704 0
-5703 8296 5704 0
-5703 -8296 -5704 0
-5704 5452 -5437 0
-5704 5451 5437 5705 0
-5704 -5451 5437 -5705 0
5704 -5452 -5437 0
5704 5451 5437 -5705 0
5704 -5451 5437 5705 0
5705 -5448 5472 0
5705 5472 -5702 0
-5705 -5472 0
-5705 5448 5702 0
-5706 5707 5691 0
5706 -5707 0
5706 -5691 0
-5707 5708 5713 0
5707 -5708 0
5707 -5713 0
-5708 5709 5711 0
5708 -5709 0
5708 -5711 0
-5709 5457 -5437 0
-5709 5437 5710 0
5709 -5457 -5437 0
5709 5437 -5710 0
5710 -5457 0
-5710 5457 0
-5711 5459 -5437 0
-5711 5437 5712 0
5711 -5459 -5437 0
5711 5437 -5712 0
5712 -5459 0
-5712 5459 0
-5713 5714 5717 0
5713 -5714 0
5713 -5717 0
5714 -8291 5715 0
5714 8291 -5715 0
-5714 8291 5715 0
-5714 -8291 -5715 0
-5715 5462 -5437 0
-5715 5437 5716 0
5715 -5462 -5437 0
5715 5437 -5716 0
5716 -5462 0
-5716 5462 0
5717 -8292 5718 0
5717 8292 -5718 0
-5717 8292 5718 0
-5717 -8292 -5718 0
-5718 5465 -5437 0
-5718 5437 5719 0
5718 -5465 -5437 0
5718 5437 -5719 0
5719 -5464 0
-5719 5464 0
-5720 -8292 5721 5722 0
-5720 -8292 5718 5721 0
-5720 5718 5721 5722 0
5720 -5718 -5722 0
5720 8292 -5722 0
5720 -5721 0
5720 8292 -5718 0
5721 -5708 5713 0
-5721 5708 0
-5721 -5713 0
5722 8291 -5715 0
-5722 -8291 0
-5722 5715 0
-5723 -8296 5724 5727 0
-5723 -8296 5704 5724 0
-5723 5704 5724 5727 0
5723 -5704 -5727 0
5723 8296 -5727 0
5723 -5724 0
5723 8296 -5704 0
5724 5699 -5725 0
-5724 -5699 0
-5724 5725 0
-5725 -8294 5697 0
-5725 5697 5726 0
-5725 -8294 5726 0
5725 -5697 -5726 0
5725 8294 -5697 0
5725 8294 -5726 0
5726 8293 -5694 0
-5726 -8293 0
-5726 5694 0
5727 8295 -5701 0
-5727 -8295 0
-5727 5701 0
-5728 5729 5754 0
5728 -5729 0
5728 -5754 0
-5729 5730 5742 0
5729 -5730 0
5729 -5742 0
-5730 5731 5738 0
5730 -5731 0
5730 -5738 0
-5731 5732 5736 0
5731 -5732 0
5731 -5736 0
-5732 5477 -5437 0
-5732 5477 5733 0
-5732 -5477 5437 -5733 0
5732 -5477 -5437 0
5732 -5477 5733 0
5732 5477 5437 -5733 0
5733 5483 -5734 0
-5733 -5483 0
-5733 5734 0
5734 -5487 5543 0
5734 5543 -5735 0
-5734 -5543 0
-5734 5487 5735 0
5735 -5438 5532 0
5735 -5500 5532 0
-5735 -5532 0
-5735 5438 5500 0
-5736 5481 -5437 0
-5736 5481 5737 0
-5736 -5481 5437 -5737 0
5736 -5481 -5437 0
5736 -5481 5737 0
5736 5481 5437 -5737 0
5737 5477 -5733 0
-5737 -5477 0
-5737 5733 0
-5738 5739 5740 0
5738 -5739 0
5738 -5740 0
-5739 5484 -5437 0
-5739 5484 5734 0
-5739 -5484 5437 -5734 0
5739 -5484 -5437 0
5739 -5484 5734 0
5739 5484 5437 -5734 0
-5740 5485 -5437 0
-5740 5485 5741 0
-5740 -5485 5437 -5741 0
5740 -5485 -5437 0
5740 -5485 5741 0
5740 5485 5437 -5741 0
5741 5484 -5734 0
-5741 -5484 0
-5741 5734 0
-5742 5743 5749 0
5742 -5743 0
5742 -5749 0
-5743 5744 5746 0
5743 -5744 0
5743 -5746 0
5744 -8305 5745 0
5744 8305 -5745 0
-5744 8305 5745 0
-5744 -8305 -5745 0
-5745 5490 -5437 0
-5745 5489 5437 5735 0
-5745 -5489 5437 -5735 0
5745 -5490 -5437 0
5745 5489 5437 -5735 0
5745 -5489 5437 5735 0
5746 -8306 5747 0
5746 8306 -5747 0
-5746 8306 5747 0
-5746 -8306 -5747 0
-5747 5492 -5437 0
-5747 5491 5437 5748 0
-5747 -5491 5437 -5748 0
5747 -5492 -5437 0
5747 5491 5437 -5748 0
5747 -5491 5437 5748 0
5748 -5489 5545 0
5748 5545 -5735 0
-5748 -5545 0
-5748 5489 5735 0
-5749 5750 5752 0
5749 -5750 0
5749 -5752 0
-5750 5496 -5437 0
-5750 5495 5437 5751 0
-5750 -5495 5437 -5751 0
5750 -5496 -5437 0
5750 5495 5437 -5751 0
5750 -5495 5437 5751 0
5751 -5488 5544 0
5751 5544 -5735 0
-5751 -5544 0
-5751 5488 5735 0
-5752 5498 -5437 0
-5752 5498 5753 0
-5752 -5498 5437 -5753 0
5752 -5498 -5437 0
5752 -5498 5753 0
5752 5498 5437 -5753 0
5753 -5495 5546 0
5753 5546 -5751 0
-5753 -5546 0
-5753 5495 5751 0
-5754 5755 5769 0
5754 -5755 0
5754 -5769 0
-5755 5756 5762 0
5755 -5756 0
5755 -5762 0
-5756 5757 5759 0
5756 -5757 0
5756 -5759 0
5757 -8297 5758 0
5757 8297 -5758 0
-5757 8297 5758 0
-5757 -8297 -5758 0
-5758 5504 -5437 0
-5758 -5438 -5503 5437 0
-5758 5438 5503 5437 0
5758 -5504 -5437 0
5758 -5438 5503 5437 0
5758 5438 -5503 5437 0
5759 -8298 5760 0
5759 8298 -5760 0
-5759 8298 5760 0
-5759 -8298 -5760 0
-5760 5506 -5437 0
-5760 5505 5437 5761 0
-5760 -5505 5437 -5761 0
5760 -5506 -5437 0
5760 5505 5437 -5761 0
5760 -5505 5437 5761 0
5761 -5438 5537 0
5761 -5503 5537 0
-5761 -5537 0
-5761 5438 5503 0
-5762 5763 5766 0
5762 -5763 0
5762 -5766 0
5763 -8299 5764 0
5763 8299 -5764 0
-5763 8299 5764 0
-5763 -8299 -5764 0
-5764 5510 -5437 0
-5764 5509 5437 5765 0
-5764 -5509 5437 -5765 0
5764 -5510 -5437 0
5764 5509 5437 -5765 0
5764 -5509 5437 5765 0
5765 -5438 5536 0
5765 -5502 5536 0
-5765 -5536 0
-5765 5438 5502 0
5766 -8300 5767 0
5766 8300 -5767 0
-5766 8300 5767 0
-5766 -8300 -5767 0
-5767 5513 -5437 0
-5767 5512 5437 5768 0
-5767 -5512 5437 -5768 0
5767 -5513 -5437 0
5767 5512 5437 -5768 0
5767 -5512 5437 5768 0
5768 -5509 5538 0
5768 5538 -5765 0
-5768 -5538 0
-5768 5509 5765 0
-5769 5770 5777 0
5769 -5770 0
5769 -5777 0
-5770 5771 5774 0
5770 -5771 0
5770 -5774 0
5771 -8301 5772 0
5771 8301 -5772 0
-5771 8301 5772 0
-5771 -8301 -5772 0
-5772 5518 -5437 0
-5772 5517 5437 5773 0
-5772 -5517 5437 -5773 0
5772 -5518 -5437 0
5772 5517 5437 -5773 0
5772 -5517 5437 5773 0
5773 -5438 5534 0
5773 -5501 5534 0
-5773 -5534 0
-5773 5438 5501 0
5774 -8302 5775 0
5774 8302 -5775 0
-5774 8302 5775 0
-5774 -8302 -5775 0
-5775 5521 -5437 0
-5775 5520 5437 5776 0
-5775 -5520 5437 -5776 0
5775 -5521 -5437 0
5775 5520 5437 -5776 0
5775 -5520 5437 5776 0
5776 -5517 5540 0
5776 5540 -5773 0
-5776 -5540 0
-5776 5517 5773 0
-5777 5778 5781 0
5777 -5778 0
5777 -5781 0
5778 -8303 5779 0
5778 8303 -5779 0
-5778 8303 5779 0
-5778 -8303 -5779 0
-5779 5525 -5437 0
-5779 5524 5437 5780 0
-5779 -5524 5437 -5780 0
5779 -5525 -5437 0
5779 5524 5437 -5780 0
5779 -5524 5437 5780 0
5780 -5516 5539 0
5780 5539 -5773 0
-5780 -5539 0
-5780 5516 5773 0
5781 -8304 5782 0
5781 8304 -5782 0
-5781 8304 5782 0
-5781 -8304 -5782 0
-5782 5528 -5437 0
-5782 5527 5437 5783 0
-5782 -5527 5437 -5783 0
5782 -5528 -5437 0
5782 5527 5437 -5783 0
5782 -5527 5437 5783 0
5783 -5524 5542 0
5783 5542 -5780 0
-5783 -5542 0
-5783 5524 5780 0
-5784 5731 5738 5785 5797 0
5784 -5797 0
5784 -5731 0
5784 -5738 0
5784 -5785 0
5785 5729 -5786 0
-5785 -5729 0
-5785 5786 0
-5786 -5777 5787 5795 0
-5786 5787 5793 5795 0
5786 -5795 0
5786 -5787 0
5786 5777 -5793 0
5787 5769 -5788 0
-5787 -5769 0
-5787 5788 0
-5788 -8300 5789 5792 0
-5788 -8300 5767 5789 0
-5788 5767 5789 5792 0
5788 -5767 -5792 0
5788 8300 -5792 0
5788 -5789 0
5788 8300 -5767 0
5789 5762 -5790 0
-5789 -5762 0
-5789 5790 0
-5790 -8298 5760 0
-5790 5760 5791 0
-5790 -8298 5791 0
5790 -5760 -5791 0
5790 8298 -5760 0
5790 8298 -5791 0
5791 8297 -5758 0
-5791 -8297 0
-5791 5758 0
5792 8299 -5764 0
-5792 -8299 0
-5792 5764 0
-5793 -8302 5775 0
-5793 5775 5794 0
-5793 -8302 5794 0
5793 -5775 -5794 0
5793 8302 -5775 0
5793 8302 -5794 0
5794 8301 -5772 0
-5794 -8301 0
-5794 5772 0
-5795 -8304 5782 0
-5795 5782 5796 0
-5795 -8304 5796 0
5795 -5782 -5796 0
5795 8304 -5782 0
5795 8304 -5796 0
5796 8303 -5779 0
-5796 -8303 0
-5796 5779 0
-5797 5749 5798 0
5797 -5749 0
5797 -5798 0
-5798 -8306 5747 0
-5798 5747 5799 0
-5798 -8306 5799 0
5798 -5747 -5799 0
5798 8306 -5747 0
5798 8306 -5799 0
5799 8305 -5745 0
-5799 -8305 0
-5799 5745 0
-5800 5555 5801 5706 5808 0
5800 -5808 0
5800 -5555 0
5800 -5706 0
5800 -5801 0
-5801 5802 5805 0
5801 -5802 0
5801 -5805 0
-5802 5803 5804 0
5802 -5803 0
5802 -5804 0
-5803 5293 0
5803 -5293 0
-5804 5551 0
5804 -5551 0
-5805 5806 5807 0
5805 -5806 0
5805 -5807 0
-5806 5553 0
5806 -5553 0
-5807 5554 0
5807 -5554 0
-5808 5809 5810 0
5808 -5809 0
5808 -5810 0
-5809 4793 0
5809 -4793 0
-5810 5811 0
5810 -5811 0
-5811 4792 0
5811 -4792 0
5812 -5813 5948 6076 -6201 0
5812 5813 -5948 6076 -6201 0
5812 -5813 5948 -6076 6201 0
5812 5813 -5948 -6076 6201 0
-5812 -5813 -5948 0
-5812 5813 5948 0
-5812 -6076 -6201 0
-5812 6076 6201 0
-5813 -1162 -5815 0
-5813 1162 -4018 -5814 0
-5813 1162 4018 5814 0
5813 -1162 5815 0
5813 1162 4018 -5814 0
5813 1162 -4018 5814 0
-5814 422 4019 0
-5814 422 4020 0
5814 -422 0
5814 -4019 -4020 0
5815 1115 -5817 0
5815 -1115 1130 5816 0
5815 -1115 -1130 -5816 0
-5815 1115 5817 0
-5815 -1115 -1130 5816 0
-5815 -1115 1130 -5816 0
5816 -1131 1155 0
5816 -1132 1155 0
-5816 -1155 0
-5816 1131 1132 0
5817 1092 -5819 0
5817 -938 -1092 -5818 0
5817 938 -1092 5818 0
-5817 1092 5819 0
-5817 -938 -1092 5818 0
-5817 938 -1092 -5818 0
-5818 961 1049 0
-5818 982 1049 0
5818 -1049 0
5818 -961 -982 0
5819 -5860 5916 0
5819 -5820 5916 -5932 0
-5819 -5916 0
-5819 5860 5932 0
-5819 5820 5860 0
5820 -5821 -5836 5855 0
5820 -5836 5851 5855 0
-5820 -5855 0
-5820 5836 0
-5820 5821 -5851 0
-5821 5822 5829 0
5821 -5822 0
5821 -5829 0
-5822 5823 5826 0
5822 -5823 0
5822 -5826 0
5823 -8294 5824 0
5823 8294 -5824 0
-5823 8294 5824 0
-5823 -8294 -5824 0
-5824 5571 -5566 0
-5824 5570 5566 5825 0
-5824 -5570 5566 -5825 0
5824 -5571 -5566 0
5824 5570 5566 -5825 0
5824 -5570 5566 5825 0
5825 -5584 5597 0
-5825 5584 0
-5825 -5597 0
5826 -8295 5827 0
5826 8295 -5827 0
-5826 8295 5827 0
-5826 -8295 -5827 0
-5827 5574 -5566 0
-5827 5573 5566 5828 0
-5827 -5573 5566 -5828 0
5827 -5574 -5566 0
5827 5573 5566 -5828 0
5827 -5573 5566 5828 0
5828 -5570 5603 0
5828 5603 -5825 0
-5828 -5603 0
-5828 5570 5825 0
-5829 5830 5833 0
5829 -5830 0
5829 -5833 0
5830 -8296 5831 0
5830 8296 -5831 0
-5830 8296 5831 0
-5830 -8296 -5831 0
-5831 5578 -5566 0
-5831 5577 5566 5832 0
-5831 -5577 5566 -5832 0
5831 -5578 -5566 0
5831 5577 5566 -5832 0
5831 -5577 5566 5832 0
5832 -5569 5602 0
5832 5602 -5825 0
-5832 -5602 0
-5832 5569 5825 0
5833 -8297 5834 0
5833 8297 -5834 0
-5833 8297 5834 0
-5833 -8297 -5834 0
-5834 5581 -5566 0
-5834 5580 5566 5835 0
-5834 -5580 5566 -5835 0
5834 -5581 -5566 0
5834 5580 5566 -5835 0
5834 -5580 5566 5835 0
5835 -5577 5604 0
5835 5604 -5832 0
-5835 -5604 0
-5835 5577 5832 0
-5836 5837 5821 0
5836 -5837 0
5836 -5821 0
-5837 5838 5844 0
5837 -5838 0
5837 -5844 0
-5838 5839 5841 0
5838 -5839 0
5838 -5841 0
-5839 5586 -5566 0
-5839 5566 5840 0
5839 -5586 -5566 0
5839 5566 -5840 0
5840 -5586 0
-5840 5586 0
5841 -8291 5842 0
5841 8291 -5842 0
-5841 8291 5842 0
-5841 -8291 -5842 0
-5842 5588 -5566 0
-5842 5566 5843 0
5842 -5588 -5566 0
5842 5566 -5843 0
5843 -5588 0
-5843 5588 0
-5844 5845 5848 0
5844 -5845 0
5844 -5848 0
5845 -8292 5846 0
5845 8292 -5846 0
-5845 8292 5846 0
-5845 -8292 -5846 0
-5846 5592 -5566 0
-5846 5566 5847 0
5846 -5592 -5566 0
5846 5566 -5847 0
5847 -5591 0
-5847 5591 0
5848 -8293 5849 0
5848 8293 -5849 0
-5848 8293 5849 0
-5848 -8293 -5849 0
-5849 5595 -5566 0
-5849 5594 5566 5850 0
-5849 -5594 5566 -5850 0
5849 -5595 -5566 0
5849 5594 5566 -5850 0
5849 -5594 5566 5850 0
5850 -5591 5599 0
-5850 5591 0
-5850 -5599 0
-5851 -8293 5852 5854 0
-5851 -8293 5849 5852 0
-5851 5849 5852 5854 0
5851 -5849 -5854 0
5851 8293 -5854 0
5851 -5852 0
5851 8293 -5849 0
5852 5844 -5853 0
-5852 -5844 0
-5852 5853 0
-5853 -8291 5839 0
-5853 5839 5842 0
-5853 -8291 5842 0
5853 8291 -5842 0
5853 -5839 -5842 0
5853 8291 -5839 0
5854 8292 -5846 0
-5854 -8292 0
-5854 5846 0
-5855 -8297 5856 5859 0
-5855 -8297 5834 5856 0
-5855 5834 5856 5859 0
5855 -5834 -5859 0
5855 8297 -5859 0
5855 -5856 0
5855 8297 -5834 0
5856 5829 -5857 0
-5856 -5829 0
-5856 5857 0
-5857 -8295 5827 0
-5857 5827 5858 0
-5857 -8295 5858 0
5857 -5827 -5858 0
5857 8295 -5827 0
5857 8295 -5858 0
5858 8294 -5824 0
-5858 -8294 0
-5858 5824 0
5859 8296 -5831 0
-5859 -8296 0
-5859 5831 0
-5860 5861 5886 0
5860 -5861 0
5860 -5886 0
-5861 5862 5875 0
5861 -5862 0
5861 -5875 0
-5862 5863 5871 0
5862 -5863 0
5862 -5871 0
-5863 5864 5869 0
5863 -5864 0
5863 -5869 0
-5864 5609 -5566 0
-5864 5609 5865 0
-5864 -5609 5566 -5865 0
5864 -5609 -5566 0
5864 -5609 5865 0
5864 5609 5566 -5865 0
5865 5615 -5866 0
-5865 -5615 0
-5865 5866 0
5866 5674 -5867 0
-5866 -5674 0
-5866 5867 0
-5867 5619 5868 0
5867 -5619 0
5867 -5868 0
5868 -5567 5663 0
5868 -5631 5663 0
-5868 -5663 0
-5868 5567 5631 0
-5869 5613 -5566 0
-5869 5613 5870 0
-5869 -5613 5566 -5870 0
5869 -5613 -5566 0
5869 -5613 5870 0
5869 5613 5566 -5870 0
5870 5609 -5865 0
-5870 -5609 0
-5870 5865 0
-5871 5872 5873 0
5871 -5872 0
5871 -5873 0
-5872 5616 -5566 0
-5872 5616 5866 0
-5872 -5616 5566 -5866 0
5872 -5616 -5566 0
5872 -5616 5866 0
5872 5616 5566 -5866 0
-5873 5617 -5566 0
-5873 5617 5874 0
-5873 -5617 5566 -5874 0
5873 -5617 -5566 0
5873 -5617 5874 0
5873 5617 5566 -5874 0
5874 5616 -5866 0
-5874 -5616 0
-5874 5866 0
-5875 5876 5881 0
5875 -5876 0
5875 -5881 0
-5876 5877 5879 0
5876 -5877 0
5876 -5879 0
5877 -8306 5878 0
5877 8306 -5878 0
-5877 8306 5878 0
-5877 -8306 -5878 0
-5878 5622 -5566 0
-5878 5621 5566 5868 0
-5878 -5621 5566 -5868 0
5878 -5622 -5566 0
5878 5621 5566 -5868 0
5878 -5621 5566 5868 0
-5879 5624 -5566 0
-5879 5623 5566 5880 0
-5879 -5623 5566 -5880 0
5879 -5624 -5566 0
5879 5623 5566 -5880 0
5879 -5623 5566 5880 0
5880 -5621 5676 0
5880 5676 -5868 0
-5880 -5676 0
-5880 5621 5868 0
-5881 5882 5884 0
5881 -5882 0
5881 -5884 0
-5882 5627 -5566 0
-5882 5627 5883 0
-5882 -5627 5566 -5883 0
5882 -5627 -5566 0
5882 -5627 5883 0
5882 5627 5566 -5883 0
5883 -5620 5675 0
5883 5675 -5868 0
-5883 -5675 0
-5883 5620 5868 0
-5884 5629 -5566 0
-5884 5629 5885 0
-5884 -5629 5566 -5885 0
5884 -5629 -5566 0
5884 -5629 5885 0
5884 5629 5566 -5885 0
5885 5627 -5883 0
-5885 -5627 0
-5885 5883 0
-5886 5887 5901 0
5886 -5887 0
5886 -5901 0
-5887 5888 5894 0
5887 -5888 0
5887 -5894 0
-5888 5889 5891 0
5888 -5889 0
5888 -5891 0
5889 -8298 5890 0
5889 8298 -5890 0
-5889 8298 5890 0
-5889 -8298 -5890 0
-5890 5635 -5566 0
-5890 -5567 -5634 5566 0
-5890 5567 5634 5566 0
5890 -5635 -5566 0
5890 -5567 5634 5566 0
5890 5567 -5634 5566 0
5891 -8299 5892 0
5891 8299 -5892 0
-5891 8299 5892 0
-5891 -8299 -5892 0
-5892 5637 -5566 0
-5892 5636 5566 5893 0
-5892 -5636 5566 -5893 0
5892 -5637 -5566 0
5892 5636 5566 -5893 0
5892 -5636 5566 5893 0
5893 -5567 5668 0
5893 -5634 5668 0
-5893 -5668 0
-5893 5567 5634 0
-5894 5895 5898 0
5894 -5895 0
5894 -5898 0
5895 -8300 5896 0
5895 8300 -5896 0
-5895 8300 5896 0
-5895 -8300 -5896 0
-5896 5641 -5566 0
-5896 5640 5566 5897 0
-5896 -5640 5566 -5897 0
5896 -5641 -5566 0
5896 5640 5566 -5897 0
5896 -5640 5566 5897 0
5897 -5567 5667 0
5897 -5633 5667 0
-5897 -5667 0
-5897 5567 5633 0
5898 -8301 5899 0
5898 8301 -5899 0
-5898 8301 5899 0
-5898 -8301 -5899 0
-5899 5644 -5566 0
-5899 5643 5566 5900 0
-5899 -5643 5566 -5900 0
5899 -5644 -5566 0
5899 5643 5566 -5900 0
5899 -5643 5566 5900 0
5900 -5640 5669 0
5900 5669 -5897 0
-5900 -5669 0
-5900 5640 5897 0
-5901 5902 5909 0
5901 -5902 0
5901 -5909 0
-5902 5903 5906 0
5902 -5903 0
5902 -5906 0
5903 -8302 5904 0
5903 8302 -5904 0
-5903 8302 5904 0
-5903 -8302 -5904 0
-5904 5649 -5566 0
-5904 5648 5566 5905 0
-5904 -5648 5566 -5905 0
5904 -5649 -5566 0
5904 5648 5566 -5905 0
5904 -5648 5566 5905 0
5905 -5567 5665 0
5905 -5632 5665 0
-5905 -5665 0
-5905 5567 5632 0
5906 -8303 5907 0
5906 8303 -5907 0
-5906 8303 5907 0
-5906 -8303 -5907 0
-5907 5652 -5566 0
-5907 5651 5566 5908 0
-5907 -5651 5566 -5908 0
5907 -5652 -5566 0
5907 5651 5566 -5908 0
5907 -5651 5566 5908 0
5908 -5648 5671 0
5908 5671 -5905 0
-5908 -5671 0
-5908 5648 5905 0
-5909 5910 5913 0
5909 -5910 0
5909 -5913 0
5910 -8304 5911 0
5910 8304 -5911 0
-5910 8304 5911 0
-5910 -8304 -5911 0
-5911 5656 -5566 0
-5911 5655 5566 5912 0
-5911 -5655 5566 -5912 0
5911 -5656 -5566 0
5911 5655 5566 -5912 0
5911 -5655 5566 5912 0
5912 -5647 5670 0
5912 5670 -5905 0
-5912 -5670 0
-5912 5647 5905 0
5913 -8305 5914 0
5913 8305 -5914 0
-5913 8305 5914 0
-5913 -8305 -5914 0
-5914 5659 -5566 0
-5914 5658 5566 5915 0
-5914 -5658 5566 -5915 0
5914 -5659 -5566 0
5914 5658 5566 -5915 0
5914 -5658 5566 5915 0
5915 -5655 5673 0
5915 5673 -5912 0
-5915 -5673 0
-5915 5655 5912 0
-5916 5863 5871 5917 5929 0
5916 -5929 0
5916 -5863 0
5916 -5871 0
5916 -5917 0
5917 5861 -5918 0
-5917 -5861 0
-5917 5918 0
-5918 -5909 5919 5927 0
-5918 5919 5925 5927 0
5918 -5927 0
5918 -5919 0
5918 5909 -5925 0
5919 5901 -5920 0
-5919 -5901 0
-5919 5920 0
-5920 -8301 5921 5924 0
-5920 -8301 5899 5921 0
-5920 5899 5921 5924 0
5920 -5899 -5924 0
5920 8301 -5924 0
5920 -5921 0
5920 8301 -5899 0
5921 5894 -5922 0
-5921 -5894 0
-5921 5922 0
-5922 -8299 5892 0
-5922 5892 5923 0
-5922 -8299 5923 0
5922 -5892 -5923 0
5922 8299 -5892 0
5922 8299 -5923 0
5923 8298 -5890 0
-5923 -8298 0
-5923 5890 0
5924 8300 -5896 0
-5924 -8300 0
-5924 5896 0
-5925 -8303 5907 0
-5925 5907 5926 0
-5925 -8303 5926 0
5925 -5907 -5926 0
5925 8303 -5907 0
5925 8303 -5926 0
5926 8302 -5904 0
-5926 -8302 0
-5926 5904 0
-5927 -8305 5914 0
-5927 5914 5928 0
-5927 -8305 5928 0
5927 -5914 -5928 0
5927 8305 -5914 0
5927 8305 -5928 0
5928 8304 -5911 0
-5928 -8304 0
-5928 5911 0
-5929 5881 5930 0
5929 -5881 0
5929 -5930 0
-5930 5879 5931 0
5930 -5879 0
5930 -5931 0
5931 8306 -5878 0
-5931 -8306 0
-5931 5878 0
-5932 5933 5836 5940 5945 0
5932 -5945 0
5932 -5933 0
5932 -5940 0
5932 -5836 0
-5933 5934 5937 0
5933 -5934 0
5933 -5937 0
-5934 5935 5936 0
5934 -5935 0
5934 -5936 0
-5935 5424 0
5935 -5424 0
-5936 5681 0
5936 -5681 0
-5937 5938 5939 0
5937 -5938 0
5937 -5939 0
-5938 5683 0
5938 -5683 0
-5939 5684 0
5939 -5684 0
-5940 5941 5943 0
5940 -5941 0
5940 -5943 0
-5941 5942 0
5941 -5942 0
-5942 5430 0
5942 -5430 0
-5943 5944 0
5943 -5944 0
-5944 5431 0
5944 -5431 0
-5945 5946 5947 0
5945 -5946 0
5945 -5947 0
-5946 4925 0
5946 -4925 0
-5947 4926 0
5947 -4926 0
5948 -5989 6044 0
5948 -5949 6044 -6060 0
-5948 -6044 0
-5948 5989 6060 0
-5948 5949 5989 0
5949 -5950 -5965 5984 0
5949 -5965 5980 5984 0
-5949 -5984 0
-5949 5965 0
-5949 5950 -5980 0
-5950 5951 5958 0
5950 -5951 0
5950 -5958 0
-5951 5952 5955 0
5951 -5952 0
5951 -5955 0
5952 -8294 5953 0
5952 8294 -5953 0
-5952 8294 5953 0
-5952 -8294 -5953 0
-5953 5694 -5689 0
-5953 5693 5689 5954 0
-5953 -5693 5689 -5954 0
5953 -5694 -5689 0
5953 5693 5689 -5954 0
5953 -5693 5689 5954 0
5954 -5707 5720 0
-5954 5707 0
-5954 -5720 0
5955 -8295 5956 0
5955 8295 -5956 0
-5955 8295 5956 0
-5955 -8295 -5956 0
-5956 5697 -5689 0
-5956 5696 5689 5957 0
-5956 -5696 5689 -5957 0
5956 -5697 -5689 0
5956 5696 5689 -5957 0
5956 -5696 5689 5957 0
5957 -8293 5694 0
5957 5694 -5954 0
5957 -8293 -5954 0
-5957 8293 5954 0
-5957 -5694 5954 0
-5957 8293 -5694 0
-5958 5959 5962 0
5958 -5959 0
5958 -5962 0
5959 -8296 5960 0
5959 8296 -5960 0
-5959 8296 5960 0
-5959 -8296 -5960 0
-5960 5701 -5689 0
-5960 5700 5689 5961 0
-5960 -5700 5689 -5961 0
5960 -5701 -5689 0
5960 5700 5689 -5961 0
5960 -5700 5689 5961 0
5961 -5692 5725 0
5961 5725 -5954 0
-5961 -5725 0
-5961 5692 5954 0
5962 -8297 5963 0
5962 8297 -5963 0
-5962 8297 5963 0
-5962 -8297 -5963 0
-5963 5704 -5689 0
-5963 5703 5689 5964 0
-5963 -5703 5689 -5964 0
5963 -5704 -5689 0
5963 5703 5689 -5964 0
5963 -5703 5689 5964 0
5964 -5700 5727 0
5964 5727 -5961 0
-5964 -5727 0
-5964 5700 5961 0
-5965 5966 5950 0
5965 -5966 0
5965 -5950 0
-5966 5967 5973 0
5966 -5967 0
5966 -5973 0
-5967 5968 5970 0
5967 -5968 0
5967 -5970 0
-5968 5709 -5689 0
-5968 5689 5969 0
5968 -5709 -5689 0
5968 5689 -5969 0
5969 -5709 0
-5969 5709 0
5970 -8291 5971 0
5970 8291 -5971 0
-5970 8291 5971 0
-5970 -8291 -5971 0
-5971 5711 -5689 0
-5971 5689 5972 0
5971 -5711 -5689 0
5971 5689 -5972 0
5972 -5711 0
-5972 5711 0
-5973 5974 5977 0
5973 -5974 0
5973 -5977 0
5974 -8292 5975 0
5974 8292 -5975 0
-5974 8292 5975 0
-5974 -8292 -5975 0
-5975 5715 -5689 0
-5975 5689 5976 0
5975 -5715 -5689 0
5975 5689 -5976 0
5976 -5714 0
-5976 5714 0
5977 -8293 5978 0
5977 8293 -5978 0
-5977 8293 5978 0
-5977 -8293 -5978 0
-5978 5718 -5689 0
-5978 5717 5689 5979 0
-5978 -5717 5689 -5979 0
5978 -5718 -5689 0
5978 5717 5689 -5979 0
5978 -5717 5689 5979 0
5979 -5714 5722 0
-5979 5714 0
-5979 -5722 0
-5980 -8293 5981 5983 0
-5980 -8293 5978 5981 0
-5980 5978 5981 5983 0
5980 -5978 -5983 0
5980 8293 -5983 0
5980 -5981 0
5980 8293 -5978 0
5981 5973 -5982 0
-5981 -5973 0
-5981 5982 0
-5982 -8291 5968 0
-5982 5968 5971 0
-5982 -8291 5971 0
5982 8291 -5971 0
5982 -5968 -5971 0
5982 8291 -5968 0
5983 8292 -5975 0
-5983 -8292 0
-5983 5975 0
-5984 -8297 5985 5988 0
-5984 -8297 5963 5985 0
-5984 5963 5985 5988 0
5984 -5963 -5988 0
5984 8297 -5988 0
5984 -5985 0
5984 8297 -5963 0
5985 5958 -5986 0
-5985 -5958 0
-5985 5986 0
-5986 -8295 5956 0
-5986 5956 5987 0
-5986 -8295 5987 0
5986 -5956 -5987 0
5986 8295 -5956 0
5986 8295 -5987 0
5987 8294 -5953 0
-5987 -8294 0
-5987 5953 0
5988 8296 -5960 0
-5988 -8296 0
-5988 5960 0
-5989 5990 6014 0
5989 -5990 0
5989 -6014 0
-5990 5991 6003 0
5990 -5991 0
5990 -6003 0
-5991 5992 5999 0
5991 -5992 0
5991 -5999 0
-5992 5993 5997 0
5992 -5993 0
5992 -5997 0
-5993 5732 -5689 0
-5993 5732 5994 0
-5993 -5732 5689 -5994 0
5993 -5732 -5689 0
5993 -5732 5994 0
5993 5732 5689 -5994 0
5994 5738 -5995 0
-5994 -5738 0
-5994 5995 0
5995 -5742 5797 0
5995 5797 -5996 0
-5995 -5797 0
-5995 5742 5996 0
5996 -5690 5786 0
5996 -5754 5786 0
-5996 -5786 0
-5996 5690 5754 0
-5997 5736 -5689 0
-5997 5736 5998 0
-5997 -5736 5689 -5998 0
5997 -5736 -5689 0
5997 -5736 5998 0
5997 5736 5689 -5998 0
5998 5732 -5994 0
-5998 -5732 0
-5998 5994 0
-5999 6000 6001 0
5999 -6000 0
5999 -6001 0
-6000 5739 -5689 0
-6000 5739 5995 0
-6000 -5739 5689 -5995 0
6000 -5739 -5689 0
6000 -5739 5995 0
6000 5739 5689 -5995 0
-6001 5740 -5689 0
-6001 5740 6002 0
-6001 -5740 5689 -6002 0
6001 -5740 -5689 0
6001 -5740 6002 0
6001 5740 5689 -6002 0
6002 5739 -5995 0
-6002 -5739 0
-6002 5995 0
-6003 6004 6009 0
6003 -6004 0
6003 -6009 0
-6004 6005 6007 0
6004 -6005 0
6004 -6007 0
6005 -8306 6006 0
6005 8306 -6006 0
-6005 8306 6006 0
-6005 -8306 -6006 0
-6006 5745 -5689 0
-6006 5744 5689 5996 0
-6006 -5744 5689 -5996 0
6006 -5745 -5689 0
6006 5744 5689 -5996 0
6006 -5744 5689 5996 0
-6007 5747 -5689 0
-6007 5746 5689 6008 0
-6007 -5746 5689 -6008 0
6007 -5747 -5689 0
6007 5746 5689 -6008 0
6007 -5746 5689 6008 0
6008 -5744 5799 0
6008 5799 -5996 0
-6008 -5799 0
-6008 5744 5996 0
-6009 6010 6012 0
6009 -6010 0
6009 -6012 0
-6010 5750 -5689 0
-6010 5750 6011 0
-6010 -5750 5689 -6011 0
6010 -5750 -5689 0
6010 -5750 6011 0
6010 5750 5689 -6011 0
6011 -5743 5798 0
6011 5798 -5996 0
-6011 -5798 0
-6011 5743 5996 0
-6012 5752 -5689 0
-6012 5752 6013 0
-6012 -5752 5689 -6013 0
6012 -5752 -5689 0
6012 -5752 6013 0
6012 5752 5689 -6013 0
6013 5750 -6011 0
-6013 -5750 0
-6013 6011 0
-6014 6015 6029 0
6014 -6015 0
6014 -6029 0
-6015 6016 6022 0
6015 -6016 0
6015 -6022 0
-6016 6017 6019 0
6016 -6017 0
6016 -6019 0
6017 -8298 6018 0
6017 8298 -6018 0
-6017 8298 6018 0
-6017 -8298 -6018 0
-6018 5758 -5689 0
-6018 -5690 -5757 5689 0
-6018 5690 5757 5689 0
6018 -5758 -5689 0
6018 -5690 5757 5689 0
6018 5690 -5757 5689 0
6019 -8299 6020 0
6019 8299 -6020 0
-6019 8299 6020 0
-6019 -8299 -6020 0
-6020 5760 -5689 0
-6020 5759 5689 6021 0
-6020 -5759 5689 -6021 0
6020 -5760 -5689 0
6020 5759 5689 -6021 0
6020 -5759 5689 6021 0
6021 -5690 5791 0
6021 -5757 5791 0
-6021 -5791 0
-6021 5690 5757 0
-6022 6023 6026 0
6022 -6023 0
6022 -6026 0
6023 -8300 6024 0
6023 8300 -6024 0
-6023 8300 6024 0
-6023 -8300 -6024 0
-6024 5764 -5689 0
-6024 5763 5689 6025 0
-6024 -5763 5689 -6025 0
6024 -5764 -5689 0
6024 5763 5689 -6025 0
6024 -5763 5689 6025 0
6025 -5690 5790 0
6025 -5756 5790 0
-6025 -5790 0
-6025 5690 5756 0
6026 -8301 6027 0
6026 8301 -6027 0
-6026 8301 6027 0
-6026 -8301 -6027 0
-6027 5767 -5689 0
-6027 5766 5689 6028 0
-6027 -5766 5689 -6028 0
6027 -5767 -5689 0
6027 5766 5689 -6028 0
6027 -5766 5689 6028 0
6028 -5763 5792 0
6028 5792 -6025 0
-6028 -5792 0
-6028 5763 6025 0
-6029 6030 6037 0
6029 -6030 0
6029 -6037 0
-6030 6031 6034 0
6030 -6031 0
6030 -6034 0
6031 -8302 6032 0
6031 8302 -6032 0
-6031 8302 6032 0
-6031 -8302 -6032 0
-6032 5772 -5689 0
-6032 5771 5689 6033 0
-6032 -5771 5689 -6033 0
6032 -5772 -5689 0
6032 5771 5689 -6033 0
6032 -5771 5689 6033 0
6033 -5690 5788 0
6033 -5755 5788 0
-6033 -5788 0
-6033 5690 5755 0
6034 -8303 6035 0
6034 8303 -6035 0
-6034 8303 6035 0
-6034 -8303 -6035 0
-6035 5775 -5689 0
-6035 5774 5689 6036 0
-6035 -5774 5689 -6036 0
6035 -5775 -5689 0
6035 5774 5689 -6036 0
6035 -5774 5689 6036 0
6036 -5771 5794 0
6036 5794 -6033 0
-6036 -5794 0
-6036 5771 6033 0
-6037 6038 6041 0
6037 -6038 0
6037 -6041 0
6038 -8304 6039 0
6038 8304 -6039 0
-6038 8304 6039 0
-6038 -8304 -6039 0
-6039 5779 -5689 0
-6039 5778 5689 6040 0
-6039 -5778 5689 -6040 0
6039 -5779 -5689 0
6039 5778 5689 -6040 0
6039 -5778 5689 6040 0
6040 -5770 5793 0
6040 5793 -6033 0
-6040 -5793 0
-6040 5770 6033 0
6041 -8305 6042 0
6041 8305 -6042 0
-6041 8305 6042 0
-6041 -8305 -6042 0
-6042 5782 -5689 0
-6042 5781 5689 6043 0
-6042 -5781 5689 -6043 0
6042 -5782 -5689 0
6042 5781 5689 -6043 0
6042 -5781 5689 6043 0
6043 -5778 5796 0
6043 5796 -6040 0
-6043 -5796 0
-6043 5778 6040 0
-6044 5992 5999 6045 6057 0
6044 -6057 0
6044 -5992 0
6044 -5999 0
6044 -6045 0
6045 5990 -6046 0
-6045 -5990 0
-6045 6046 0
-6046 -6037 6047 6055 0
-6046 6047 6053 6055 0
6046 -6055 0
6046 -6047 0
6046 6037 -6053 0
6047 6029 -6048 0
-6047 -6029 0
-6047 6048 0
-6048 -8301 6049 6052 0
-6048 -8301 6027 6049 0
-6048 6027 6049 6052 0
6048 -6027 -6052 0
6048 8301 -6052 0
6048 -6049 0
6048 8301 -6027 0
6049 6022 -6050 0
-6049 -6022 0
-6049 6050 0
-6050 -8299 6020 0
-6050 6020 6051 0
-6050 -8299 6051 0
6050 -6020 -6051 0
6050 8299 -6020 0
6050 8299 -6051 0
6051 8298 -6018 0
-6051 -8298 0
-6051 6018 0
6052 8300 -6024 0
-6052 -8300 0
-6052 6024 0
-6053 -8303 6035 0
-6053 6035 6054 0
-6053 -8303 6054 0
6053 -6035 -6054 0
6053 8303 -6035 0
6053 8303 -6054 0
6054 8302 -6032 0
-6054 -8302 0
-6054 6032 0
-6055 -8305 6042 0
-6055 6042 6056 0
-6055 -8305 6056 0
6055 -6042 -6056 0
6055 8305 -6042 0
6055 8305 -6056 0
6056 8304 -6039 0
-6056 -8304 0
-6056 6039 0
-6057 6009 6058 0
6057 -6009 0
6057 -6058 0
-6058 6007 6059 0
6058 -6007 0
6058 -6059 0
6059 8306 -6006 0
-6059 -8306 0
-6059 6006 0
-6060 6061 5965 6068 6073 0
6060 -6073 0
6060 -6061 0
6060 -6068 0
6060 -5965 0
-6061 6062 6065 0
6061 -6062 0
6061 -6065 0
-6062 6063 6064 0
6062 -6063 0
6062 -6064 0
-6063 5550 0
6063 -5550 0
-6064 5804 0
6064 -5804 0
-6065 6066 6067 0
6065 -6066 0
6065 -6067 0
-6066 5806 0
6066 -5806 0
-6067 5807 0
6067 -5807 0
-6068 6069 6071 0
6068 -6069 0
6068 -6071 0
-6069 6070 0
6069 -6070 0
-6070 5556 0
6070 -5556 0
-6071 6072 0
6071 -6072 0
-6072 5557 0
6072 -5557 0
-6073 6074 6075 0
6073 -6074 0
6073 -6075 0
-6074 5051 0
6074 -5051 0
-6075 5052 0
6075 -5052 0
-6076 -1162 -6077 0
-6076 1162 -4019 -4020 0
-6076 1162 4019 4020 0
6076 -1162 6077 0
6076 1162 4019 -4020 0
6076 1162 -4019 4020 0
6077 1115 -6078 0
6077 -1115 1131 1132 0
6077 -1115 -1131 -1132 0
-6077 1115 6078 0
-6077 -1115 -1131 1132 0
-6077 -1115 1131 -1132 0
6078 1092 -6079 0
6078 961 982 -1092 0
6078 -961 -982 -1092 0
-6078 1092 6079 0
-6078 -961 982 -1092 0
-6078 961 -982 -1092 0
6079 -6122 6177 0
6079 -6080 6177 -6190 0
-6079 -6177 0
-6079 6122 6190 0
-6079 6080 6122 0
6080 -6081 -6096 6117 0
6080 -6096 6112 6117 0
-6080 -6117 0
-6080 6096 0
-6080 6081 -6112 0
-6081 6082 6089 0
6081 -6082 0
6081 -6089 0
-6082 6083 6086 0
6082 -6083 0
6082 -6086 0
6083 -8295 6084 0
6083 8295 -6084 0
-6083 8295 6084 0
-6083 -8295 -6084 0
-6084 5824 -5819 0
-6084 5823 5819 6085 0
-6084 -5823 5819 -6085 0
6084 -5824 -5819 0
6084 5823 5819 -6085 0
6084 -5823 5819 6085 0
6085 -5837 5851 0
-6085 5837 0
-6085 -5851 0
6086 -8296 6087 0
6086 8296 -6087 0
-6086 8296 6087 0
-6086 -8296 -6087 0
-6087 5827 -5819 0
-6087 5826 5819 6088 0
-6087 -5826 5819 -6088 0
6087 -5827 -5819 0
6087 5826 5819 -6088 0
6087 -5826 5819 6088 0
6088 -5823 5858 0
6088 5858 -6085 0
-6088 -5858 0
-6088 5823 6085 0
-6089 6090 6093 0
6089 -6090 0
6089 -6093 0
6090 -8297 6091 0
6090 8297 -6091 0
-6090 8297 6091 0
-6090 -8297 -6091 0
-6091 5831 -5819 0
-6091 5830 5819 6092 0
-6091 -5830 5819 -6092 0
6091 -5831 -5819 0
6091 5830 5819 -6092 0
6091 -5830 5819 6092 0
6092 -5822 5857 0
6092 5857 -6085 0
-6092 -5857 0
-6092 5822 6085 0
6093 -8298 6094 0
6093 8298 -6094 0
-6093 8298 6094 0
-6093 -8298 -6094 0
-6094 5834 -5819 0
-6094 5833 5819 6095 0
-6094 -5833 5819 -6095 0
6094 -5834 -5819 0
6094 5833 5819 -6095 0
6094 -5833 5819 6095 0
6095 -5830 5859 0
6095 5859 -6092 0
-6095 -5859 0
-6095 5830 6092 0
-6096 6097 6081 0
6096 -6097 0
6096 -6081 0
-6097 6098 6105 0
6097 -6098 0
6097 -6105 0
-6098 6099 6102 0
6098 -6099 0
6098 -6102 0
6099 -8291 6100 0
6099 8291 -6100 0
-6099 8291 6100 0
-6099 -8291 -6100 0
-6100 5839 -5819 0
-6100 5819 6101 0
6100 -5839 -5819 0
6100 5819 -6101 0
6101 -5839 0
-6101 5839 0
6102 -8292 6103 0
6102 8292 -6103 0
-6102 8292 6103 0
-6102 -8292 -6103 0
-6103 5842 -5819 0
-6103 5819 6104 0
6103 -5842 -5819 0
6103 5819 -6104 0
6104 -5841 0
-6104 5841 0
-6105 6106 6109 0
6105 -6106 0
6105 -6109 0
6106 -8293 6107 0
6106 8293 -6107 0
-6106 8293 6107 0
-6106 -8293 -6107 0
-6107 5846 -5819 0
-6107 5845 5819 6108 0
-6107 -5845 5819 -6108 0
6107 -5846 -5819 0
6107 5845 5819 -6108 0
6107 -5845 5819 6108 0
6108 -5838 5853 0
-6108 5838 0
-6108 -5853 0
6109 -8294 6110 0
6109 8294 -6110 0
-6109 8294 6110 0
-6109 -8294 -6110 0
-6110 5849 -5819 0
-6110 5848 5819 6111 0
-6110 -5848 5819 -6111 0
6110 -5849 -5819 0
6110 5848 5819 -6111 0
6110 -5848 5819 6111 0
6111 -8292 5846 0
6111 5846 -6108 0
6111 -8292 -6108 0
-6111 8292 6108 0
-6111 -5846 6108 0
-6111 8292 -5846 0
-6112 -8294 6113 6116 0
-6112 -8294 6110 6113 0
-6112 6110 6113 6116 0
6112 -6110 -6116 0
6112 8294 -6116 0
6112 -6113 0
6112 8294 -6110 0
6113 6105 -6114 0
-6113 -6105 0
-6113 6114 0
-6114 -8292 6103 0
-6114 6103 6115 0
-6114 -8292 6115 0
6114 -6103 -6115 0
6114 8292 -6103 0
6114 8292 -6115 0
6115 8291 -6100 0
-6115 -8291 0
-6115 6100 0
6116 8293 -6107 0
-6116 -8293 0
-6116 6107 0
-6117 -8298 6118 6121 0
-6117 -8298 6094 6118 0
-6117 6094 6118 6121 0
6117 -6094 -6121 0
6117 8298 -6121 0
6117 -6118 0
6117 8298 -6094 0
6118 6089 -6119 0
-6118 -6089 0
-6118 6119 0
-6119 -8296 6087 0
-6119 6087 6120 0
-6119 -8296 6120 0
6119 -6087 -6120 0
6119 8296 -6087 0
6119 8296 -6120 0
6120 8295 -6084 0
-6120 -8295 0
-6120 6084 0
6121 8297 -6091 0
-6121 -8297 0
-6121 6091 0
-6122 6123 6147 0
6122 -6123 0
6122 -6147 0
-6123 6124 6137 0
6123 -6124 0
6123 -6137 0
-6124 6125 6133 0
6124 -6125 0
6124 -6133 0
-6125 6126 6131 0
6125 -6126 0
6125 -6131 0
-6126 5864 -5819 0
-6126 5864 6127 0
-6126 -5864 5819 -6127 0
6126 -5864 -5819 0
6126 -5864 6127 0
6126 5864 5819 -6127 0
6127 5871 -6128 0
-6127 -5871 0
-6127 6128 0
6128 5929 -6129 0
-6128 -5929 0
-6128 6129 0
-6129 5875 6130 0
6129 -5875 0
6129 -6130 0
6130 -5820 5918 0
6130 -5886 5918 0
-6130 -5918 0
-6130 5820 5886 0
-6131 5869 -5819 0
-6131 5869 6132 0
-6131 -5869 5819 -6132 0
6131 -5869 -5819 0
6131 -5869 6132 0
6131 5869 5819 -6132 0
6132 5864 -6127 0
-6132 -5864 0
-6132 6127 0
-6133 6134 6135 0
6133 -6134 0
6133 -6135 0
-6134 5872 -5819 0
-6134 5872 6128 0
-6134 -5872 5819 -6128 0
6134 -5872 -5819 0
6134 -5872 6128 0
6134 5872 5819 -6128 0
-6135 5873 -5819 0
-6135 5873 6136 0
-6135 -5873 5819 -6136 0
6135 -5873 -5819 0
6135 -5873 6136 0
6135 5873 5819 -6136 0
6136 5872 -6128 0
-6136 -5872 0
-6136 6128 0
-6137 6138 6142 0
6137 -6138 0
6137 -6142 0
-6138 6139 6140 0
6138 -6139 0
6138 -6140 0
-6139 5878 -5819 0
-6139 5877 5819 6130 0
-6139 -5877 5819 -6130 0
6139 -5878 -5819 0
6139 5877 5819 -6130 0
6139 -5877 5819 6130 0
-6140 5879 -5819 0
-6140 5879 6141 0
-6140 -5879 5819 -6141 0
6140 -5879 -5819 0
6140 -5879 6141 0
6140 5879 5819 -6141 0
6141 -5877 5931 0
6141 5931 -6130 0
-6141 -5931 0
-6141 5877 6130 0
-6142 6143 6145 0
6142 -6143 0
6142 -6145 0
-6143 5882 -5819 0
-6143 5882 6144 0
-6143 -5882 5819 -6144 0
6143 -5882 -5819 0
6143 -5882 6144 0
6143 5882 5819 -6144 0
6144 -5876 5930 0
6144 5930 -6130 0
-6144 -5930 0
-6144 5876 6130 0
-6145 5884 -5819 0
-6145 5884 6146 0
-6145 -5884 5819 -6146 0
6145 -5884 -5819 0
6145 -5884 6146 0
6145 5884 5819 -6146 0
6146 5882 -6144 0
-6146 -5882 0
-6146 6144 0
-6147 6148 6162 0
6147 -6148 0
6147 -6162 0
-6148 6149 6155 0
6148 -6149 0
6148 -6155 0
-6149 6150 6152 0
6149 -6150 0
6149 -6152 0
6150 -8299 6151 0
6150 8299 -6151 0
-6150 8299 6151 0
-6150 -8299 -6151 0
-6151 5890 -5819 0
-6151 -5820 -5889 5819 0
-6151 5820 5889 5819 0
6151 -5890 -5819 0
6151 -5820 5889 5819 0
6151 5820 -5889 5819 0
6152 -8300 6153 0
6152 8300 -6153 0
-6152 8300 6153 0
-6152 -8300 -6153 0
-6153 5892 -5819 0
-6153 5891 5819 6154 0
-6153 -5891 5819 -6154 0
6153 -5892 -5819 0
6153 5891 5819 -6154 0
6153 -5891 5819 6154 0
6154 -5820 5923 0
6154 -5889 5923 0
-6154 -5923 0
-6154 5820 5889 0
-6155 6156 6159 0
6155 -6156 0
6155 -6159 0
6156 -8301 6157 0
6156 8301 -6157 0
-6156 8301 6157 0
-6156 -8301 -6157 0
-6157 5896 -5819 0
-6157 5895 5819 6158 0
-6157 -5895 5819 -6158 0
6157 -5896 -5819 0
6157 5895 5819 -6158 0
6157 -5895 5819 6158 0
6158 -5820 5922 0
6158 -5888 5922 0
-6158 -5922 0
-6158 5820 5888 0
6159 -8302 6160 0
6159 8302 -6160 0
-6159 8302 6160 0
-6159 -8302 -6160 0
-6160 5899 -5819 0
-6160 5898 5819 6161 0
-6160 -5898 5819 -6161 0
6160 -5899 -5819 0
6160 5898 5819 -6161 0
6160 -5898 5819 6161 0
6161 -5895 5924 0
6161 5924 -6158 0
-6161 -5924 0
-6161 5895 6158 0
-6162 6163 6170 0
6162 -6163 0
6162 -6170 0
-6163 6164 6167 0
6163 -6164 0
6163 -6167 0
6164 -8303 6165 0
6164 8303 -6165 0
-6164 8303 6165 0
-6164 -8303 -6165 0
-6165 5904 -5819 0
-6165 5903 5819 6166 0
-6165 -5903 5819 -6166 0
6165 -5904 -5819 0
6165 5903 5819 -6166 0
6165 -5903 5819 6166 0
6166 -5820 5920 0
6166 -5887 5920 0
-6166 -5920 0
-6166 5820 5887 0
6167 -8304 6168 0
6167 8304 -6168 0
-6167 8304 6168 0
-6167 -8304 -6168 0
-6168 5907 -5819 0
-6168 5906 5819 6169 0
-6168 -5906 5819 -6169 0
6168 -5907 -5819 0
6168 5906 5819 -6169 0
6168 -5906 5819 6169 0
6169 -5903 5926 0
6169 5926 -6166 0
-6169 -5926 0
-6169 5903 6166 0
-6170 6171 6174 0
6170 -6171 0
6170 -6174 0
6171 -8305 6172 0
6171 8305 -6172 0
-6171 8305 6172 0
-6171 -8305 -6172 0
-6172 5911 -5819 0
-6172 5910 5819 6173 0
-6172 -5910 5819 -6173 0
6172 -5911 -5819 0
6172 5910 5819 -6173 0
6172 -5910 5819 6173 0
6173 -5902 5925 0
6173 5925 -6166 0
-6173 -5925 0
-6173 5902 6166 0
6174 -8306 6175 0
6174 8306 -6175 0
-6174 8306 6175 0
-6174 -8306 -6175 0
-6175 5914 -5819 0
-6175 5913 5819 6176 0
-6175 -5913 5819 -6176 0
6175 -5914 -5819 0
6175 5913 5819 -6176 0
6175 -5913 5819 6176 0
6176 -5910 5928 0
6176 5928 -6173 0
-6176 -5928 0
-6176 5910 6173 0
-6177 6178 6189 0
-6177 -6123 6189 0
6177 -6189 0
6177 6123 -6178 0
-6178 -6170 6179 6187 0
-6178 6179 6185 6187 0
6178 -6187 0
6178 -6179 0
6178 6170 -6185 0
6179 6162 -6180 0
-6179 -6162 0
-6179 6180 0
-6180 -8302 6181 6184 0
-6180 -8302 6160 6181 0
-6180 6160 6181 6184 0
6180 -6160 -6184 0
6180 8302 -6184 0
6180 -6181 0
6180 8302 -6160 0
6181 6155 -6182 0
-6181 -6155 0
-6181 6182 0
-6182 -8300 6153 0
-6182 6153 6183 0
-6182 -8300 6183 0
6182 -6153 -6183 0
6182 8300 -6153 0
6182 8300 -6183 0
6183 8299 -6151 0
-6183 -8299 0
-6183 6151 0
6184 8301 -6157 0
-6184 -8301 0
-6184 6157 0
-6185 -8304 6168 0
-6185 6168 6186 0
-6185 -8304 6186 0
6185 -6168 -6186 0
6185 8304 -6168 0
6185 8304 -6186 0
6186 8303 -6165 0
-6186 -8303 0
-6186 6165 0
-6187 -8306 6175 0
-6187 6175 6188 0
-6187 -8306 6188 0
6187 -6175 -6188 0
6187 8306 -6175 0
6187 8306 -6188 0
6188 8305 -6172 0
-6188 -8305 0
-6188 6172 0
-6189 6125 6133 6138 6142 0
6189 -6142 0
6189 -6125 0
6189 -6138 0
6189 -6133 0
-6190 5940 6191 6096 6198 0
6190 -6198 0
6190 -5940 0
6190 -6096 0
6190 -6191 0
-6191 6192 6195 0
6191 -6192 0
6191 -6195 0
-6192 6193 6194 0
6192 -6193 0
6192 -6194 0
-6193 5680 0
6193 -5680 0
-6194 5936 0
6194 -5936 0
-6195 6196 6197 0
6195 -6196 0
6195 -6197 0
-6196 5938 0
6196 -5938 0
-6197 5939 0
6197 -5939 0
-6198 6199 6200 0
6198 -6199 0
6198 -6200 0
-6199 5176 0
6199 -5176 0
-6200 5178 0
6200 -5178 0
6201 -6244 6299 0
6201 -6202 6299 -6312 0
-6201 -6299 0
-6201 6244 6312 0
-6201 6202 6244 0
6202 -6203 -6218 6239 0
6202 -6218 6234 6239 0
-6202 -6239 0
-6202 6218 0
-6202 6203 -6234 0
-6203 6204 6211 0
6203 -6204 0
6203 -6211 0
-6204 6205 6208 0
6204 -6205 0
6204 -6208 0
6205 -8295 6206 0
6205 8295 -6206 0
-6205 8295 6206 0
-6205 -8295 -6206 0
-6206 5953 -5948 0
-6206 5952 5948 6207 0
-6206 -5952 5948 -6207 0
6206 -5953 -5948 0
6206 5952 5948 -6207 0
6206 -5952 5948 6207 0
6207 -5966 5980 0
-6207 5966 0
-6207 -5980 0
6208 -8296 6209 0
6208 8296 -6209 0
-6208 8296 6209 0
-6208 -8296 -6209 0
-6209 5956 -5948 0
-6209 5955 5948 6210 0
-6209 -5955 5948 -6210 0
6209 -5956 -5948 0
6209 5955 5948 -6210 0
6209 -5955 5948 6210 0
6210 -5952 5987 0
6210 5987 -6207 0
-6210 -5987 0
-6210 5952 6207 0
-6211 6212 6215 0
6211 -6212 0
6211 -6215 0
6212 -8297 6213 0
6212 8297 -6213 0
-6212 8297 6213 0
-6212 -8297 -6213 0
-6213 5960 -5948 0
-6213 5959 5948 6214 0
-6213 -5959 5948 -6214 0
6213 -5960 -5948 0
6213 5959 5948 -6214 0
6213 -5959 5948 6214 0
6214 -5951 5986 0
6214 5986 -6207 0
-6214 -5986 0
-6214 5951 6207 0
6215 -8298 6216 0
6215 8298 -6216 0
-6215 8298 6216 0
-6215 -8298 -6216 0
-6216 5963 -5948 0
-6216 5962 5948 6217 0
-6216 -5962 5948 -6217 0
6216 -5963 -5948 0
6216 5962 5948 -6217 0
6216 -5962 5948 6217 0
6217 -5959 5988 0
6217 5988 -6214 0
-6217 -5988 0
-6217 5959 6214 0
-6218 6219 6203 0
6218 -6219 0
6218 -6203 0
-6219 6220 6227 0
6219 -6220 0
6219 -6227 0
-6220 6221 6224 0
6220 -6221 0
6220 -6224 0
6221 -8291 6222 0
6221 8291 -6222 0
-6221 8291 6222 0
-6221 -8291 -6222 0
-6222 5968 -5948 0
-6222 5948 6223 0
6222 -5968 -5948 0
6222 5948 -6223 0
6223 -5968 0
-6223 5968 0
6224 -8292 6225 0
6224 8292 -6225 0
-6224 8292 6225 0
-6224 -8292 -6225 0
-6225 5971 -5948 0
-6225 5948 6226 0
6225 -5971 -5948 0
6225 5948 -6226 0
6226 -5970 0
-6226 5970 0
-6227 6228 6231 0
6227 -6228 0
6227 -6231 0
6228 -8293 6229 0
6228 8293 -6229 0
-6228 8293 6229 0
-6228 -8293 -6229 0
-6229 5975 -5948 0
-6229 5974 5948 6230 0
-6229 -5974 5948 -6230 0
6229 -5975 -5948 0
6229 5974 5948 -6230 0
6229 -5974 5948 6230 0
6230 -5967 5982 0
-6230 5967 0
-6230 -5982 0
6231 -8294 6232 0
6231 8294 -6232 0
-6231 8294 6232 0
-6231 -8294 -6232 0
-6232 5978 -5948 0
-6232 5977 5948 6233 0
-6232 -5977 5948 -6233 0
6232 -5978 -5948 0
6232 5977 5948 -6233 0
6232 -5977 5948 6233 0
6233 -8292 5975 0
6233 5975 -6230 0
6233 -8292 -6230 0
-6233 8292 6230 0
-6233 -5975 6230 0
-6233 8292 -5975 0
-6234 -8294 6235 6238 0
-6234 -8294 6232 6235 0
-6234 6232 6235 6238 0
6234 -6232 -6238 0
6234 8294 -6238 0
6234 -6235 0
6234 8294 -6232 0
6235 6227 -6236 0
-6235 -6227 0
-6235 6236 0
-6236 -8292 6225 0
-6236 6225 6237 0
-6236 -8292 6237 0
6236 -6225 -6237 0
6236 8292 -6225 0
6236 8292 -6237 0
6237 8291 -6222 0
-6237 -8291 0
-6237 6222 0
6238 8293 -6229 0
-6238 -8293 0
-6238 6229 0
-6239 -8298 6240 6243 0
-6239 -8298 6216 6240 0
-6239 6216 6240 6243 0
6239 -6216 -6243 0
6239 8298 -6243 0
6239 -6240 0
6239 8298 -6216 0
6240 6211 -6241 0
-6240 -6211 0
-6240 6241 0
-6241 -8296 6209 0
-6241 6209 6242 0
-6241 -8296 6242 0
6241 -6209 -6242 0
6241 8296 -6209 0
6241 8296 -6242 0
6242 8295 -6206 0
-6242 -8295 0
-6242 6206 0
6243 8297 -6213 0
-6243 -8297 0
-6243 6213 0
-6244 6245 6269 0
6244 -6245 0
6244 -6269 0
-6245 6246 6259 0
6245 -6246 0
6245 -6259 0
-6246 6247 6255 0
6246 -6247 0
6246 -6255 0
-6247 6248 6253 0
6247 -6248 0
6247 -6253 0
-6248 5993 -5948 0
-6248 5993 6249 0
-6248 -5993 5948 -6249 0
6248 -5993 -5948 0
6248 -5993 6249 0
6248 5993 5948 -6249 0
6249 5999 -6250 0
-6249 -5999 0
-6249 6250 0
6250 6057 -6251 0
-6250 -6057 0
-6250 6251 0
-6251 6003 6252 0
6251 -6003 0
6251 -6252 0
6252 -5949 6046 0
6252 -6014 6046 0
-6252 -6046 0
-6252 5949 6014 0
-6253 5997 -5948 0
-6253 5997 6254 0
-6253 -5997 5948 -6254 0
6253 -5997 -5948 0
6253 -5997 6254 0
6253 5997 5948 -6254 0
6254 5993 -6249 0
-6254 -5993 0
-6254 6249 0
-6255 6256 6257 0
6255 -6256 0
6255 -6257 0
-6256 6000 -5948 0
-6256 6000 6250 0
-6256 -6000 5948 -6250 0
6256 -6000 -5948 0
6256 -6000 6250 0
6256 6000 5948 -6250 0
-6257 6001 -5948 0
-6257 6001 6258 0
-6257 -6001 5948 -6258 0
6257 -6001 -5948 0
6257 -6001 6258 0
6257 6001 5948 -6258 0
6258 6000 -6250 0
-6258 -6000 0
-6258 6250 0
-6259 6260 6264 0
6259 -6260 0
6259 -6264 0
-6260 6261 6262 0
6260 -6261 0
6260 -6262 0
-6261 6006 -5948 0
-6261 6005 5948 6252 0
-6261 -6005 5948 -6252 0
6261 -6006 -5948 0
6261 6005 5948 -6252 0
6261 -6005 5948 6252 0
-6262 6007 -5948 0
-6262 6007 6263 0
-6262 -6007 5948 -6263 0
6262 -6007 -5948 0
6262 -6007 6263 0
6262 6007 5948 -6263 0
6263 -6005 6059 0
6263 6059 -6252 0
-6263 -6059 0
-6263 6005 6252 0
-6264 6265 6267 0
6264 -6265 0
6264 -6267 0
-6265 6010 -5948 0
-6265 6010 6266 0
-6265 -6010 5948 -6266 0
6265 -6010 -5948 0
6265 -6010 6266 0
6265 6010 5948 -6266 0
6266 -6004 6058 0
6266 6058 -6252 0
-6266 -6058 0
-6266 6004 6252 0
-6267 6012 -5948 0
-6267 6012 6268 0
-6267 -6012 5948 -6268 0
6267 -6012 -5948 0
6267 -6012 6268 0
6267 6012 5948 -6268 0
6268 6010 -6266 0
-6268 -6010 0
-6268 6266 0
-6269 6270 6284 0
6269 -6270 0
6269 -6284 0
-6270 6271 6277 0
6270 -6271 0
6270 -6277 0
-6271 6272 6274 0
6271 -6272 0
6271 -6274 0
6272 -8299 6273 0
6272 8299 -6273 0
-6272 8299 6273 0
-6272 -8299 -6273 0
-6273 6018 -5948 0
-6273 -5949 -6017 5948 0
-6273 5949 6017 5948 0
6273 -6018 -5948 0
6273 -5949 6017 5948 0
6273 5949 -6017 5948 0
6274 -8300 6275 0
6274 8300 -6275 0
-6274 8300 6275 0
-6274 -8300 -6275 0
-6275 6020 -5948 0
-6275 6019 5948 6276 0
-6275 -6019 5948 -6276 0
6275 -6020 -5948 0
6275 6019 5948 -6276 0
6275 -6019 5948 6276 0
6276 -5949 6051 0
6276 -6017 6051 0
-6276 -6051 0
-6276 5949 6017 0
-6277 6278 6281 0
6277 -6278 0
6277 -6281 0
6278 -8301 6279 0
6278 8301 -6279 0
-6278 8301 6279 0
-6278 -8301 -6279 0
-6279 6024 -5948 0
-6279 6023 5948 6280 0
-6279 -6023 5948 -6280 0
6279 -6024 -5948 0
6279 6023 5948 -6280 0
6279 -6023 5948 6280 0
6280 -5949 6050 0
6280 -6016 6050 0
-6280 -6050 0
-6280 5949 6016 0
6281 -8302 6282 0
6281 8302 -6282 0
-6281 8302 6282 0
-6281 -8302 -6282 0
-6282 6027 -5948 0
-6282 6026 5948 6283 0
-6282 -6026 5948 -6283 0
6282 -6027 -5948 0
6282 6026 5948 -6283 0
6282 -6026 5948 6283 0
6283 -6023 6052 0
6283 6052 -6280 0
-6283 -6052 0
-6283 6023 6280 0
-6284 6285 6292 0
6284 -6285 0
6284 -6292 0
-6285 6286 6289 0
6285 -6286 0
6285 -6289 0
6286 -8303 6287 0
6286 8303 -6287 0
-6286 8303 6287 0
-6286 -8303 -6287 0
-6287 6032 -5948 0
-6287 6031 5948 6288 0
-6287 -6031 5948 -6288 0
6287 -6032 -5948 0
6287 6031 5948 -6288 0
6287 -6031 5948 6288 0
6288 -5949 6048 0
6288 -6015 6048 0
-6288 -6048 0
-6288 5949 6015 0
6289 -8304 6290 0
6289 8304 -6290 0
-6289 8304 6290 0
-6289 -8304 -6290 0
-6290 6035 -5948 0
-6290 6034 5948 6291 0
-6290 -6034 5948 -6291 0
6290 -6035 -5948 0
6290 6034 5948 -6291 0
6290 -6034 5948 6291 0
6291 -6031 6054 0
6291 6054 -6288 0
-6291 -6054 0
-6291 6031 6288 0
-6292 6293 6296 0
6292 -6293 0
6292 -6296 0
6293 -8305 6294 0
6293 8305 -6294 0
-6293 8305 6294 0
-6293 -8305 -6294 0
-6294 6039 -5948 0
-6294 6038 5948 6295 0
-6294 -6038 5948 -6295 0
6294 -6039 -5948 0
6294 6038 5948 -6295 0
6294 -6038 5948 6295 0
6295 -6030 6053 0
6295 6053 -6288 0
-6295 -6053 0
-6295 6030 6288 0
6296 -8306 6297 0
6296 8306 -6297 0
-6296 8306 6297 0
-6296 -8306 -6297 0
-6297 6042 -5948 0
-6297 6041 5948 6298 0
-6297 -6041 5948 -6298 0
6297 -6042 -5948 0
6297 6041 5948 -6298 0
6297 -6041 5948 6298 0
6298 -6038 6056 0
6298 6056 -6295 0
-6298 -6056 0
-6298 6038 6295 0
-6299 6300 6311 0
-6299 -6245 6311 0
6299 -6311 0
6299 6245 -6300 0
-6300 -6292 6301 6309 0
-6300 6301 6307 6309 0
6300 -6309 0
6300 -6301 0
6300 6292 -6307 0
6301 6284 -6302 0
-6301 -6284 0
-6301 6302 0
-6302 -8302 6303 6306 0
-6302 -8302 6282 6303 0
-6302 6282 6303 6306 0
6302 -6282 -6306 0
6302 8302 -6306 0
6302 -6303 0
6302 8302 -6282 0
6303 6277 -6304 0
-6303 -6277 0
-6303 6304 0
-6304 -8300 6275 0
-6304 6275 6305 0
-6304 -8300 6305 0
6304 -6275 -6305 0
6304 8300 -6275 0
6304 8300 -6305 0
6305 8299 -6273 0
-6305 -8299 0
-6305 6273 0
6306 8301 -6279 0
-6306 -8301 0
-6306 6279 0
-6307 -8304 6290 0
-6307 6290 6308 0
-6307 -8304 6308 0
6307 -6290 -6308 0
6307 8304 -6290 0
6307 8304 -6308 0
6308 8303 -6287 0
-6308 -8303 0
-6308 6287 0
-6309 -8306 6297 0
-6309 6297 6310 0
-6309 -8306 6310 0
6309 -6297 -6310 0
6309 8306 -6297 0
6309 8306 -6310 0
6310 8305 -6294 0
-6310 -8305 0
-6310 6294 0
-6311 6247 6255 6260 6264 0
6311 -6264 0
6311 -6247 0
6311 -6260 0
6311 -6255 0
-6312 6068 6313 6218 6320 0
6312 -6320 0
6312 -6068 0
6312 -6218 0
6312 -6313 0
-6313 6314 6317 0
6313 -6314 0
6313 -6317 0
-6314 6315 6316 0
6314 -6315 0
6314 -6316 0
-6315 5803 0
6315 -5803 0
-6316 6064 0
6316 -6064 0
-6317 6318 6319 0
6317 -6318 0
6317 -6319 0
-6318 6066 0
6318 -6066 0
-6319 6067 0
6319 -6067 0
-6320 6321 6323 0
6320 -6321 0
6320 -6323 0
-6321 6322 0
6321 -6322 0
-6322 5299 0
6322 -5299 0
-6323 6324 0
6323 -6324 0
-6324 5300 0
6324 -5300 0
6325 -6326 -6820 -7324 -7835 0
-6325 7835 0
-6325 6326 0
-6325 7324 0
-6325 6820 0
6326 -6327 6455 6574 -6699 0
6326 6327 -6455 6574 -6699 0
6326 -6327 6455 -6574 6699 0
6326 6327 -6455 -6574 6699 0
-6326 -6327 -6455 0
-6326 6327 6455 0
-6326 -6574 -6699 0
-6326 6574 6699 0
-6327 -1162 -6330 0
-6327 1162 -4022 -6328 0
-6327 1162 4022 6328 0
6327 -1162 6330 0
6327 1162 4022 -6328 0
6327 1162 -4022 6328 0
-6328 630 4023 0
-6328 630 6329 0
6328 -630 0
6328 -4023 -6329 0
-6329 4027 4036 0
-6329 4024 4036 0
6329 -4036 0
6329 -4024 -4027 0
6330 1115 -6333 0
6330 -1115 1134 6331 0
6330 -1115 -1134 -6331 0
-6330 1115 6333 0
-6330 -1115 -1134 6331 0
-6330 -1115 1134 -6331 0
6331 -1135 1150 0
6331 1150 -6332 0
-6331 -1150 0
-6331 1135 6332 0
6332 -1139 1147 0
6332 -1136 1147 0
-6332 -1147 0
-6332 1136 1139 0
6333 1092 -6336 0
6333 -984 -1092 -6334 0
6333 984 -1092 6334 0
-6333 1092 6336 0
-6333 -984 -1092 6334 0
-6333 984 -1092 -6334 0
-6334 994 1043 0
-6334 1043 6335 0
6334 -1043 0
6334 -994 -6335 0
-6335 1032 1040 0
-6335 1008 1040 0
6335 -1040 0
6335 -1008 -1032 0
6336 -6382 6435 0
6336 -6337 6435 -6447 0
-6336 -6435 0
-6336 6382 6447 0
-6336 6337 6382 0
6337 -6340 6371 6377 0
6337 -6338 6371 6377 0
-6337 -6377 0
-6337 -6371 0
-6337 6338 6340 0
6338 -8291 6339 0
-6338 8291 0
-6338 -6339 0
-6339 6197 0
6339 -6197 0
-6340 6341 6356 0
6340 -6341 0
6340 -6356 0
-6341 6342 6349 0
6341 -6342 0
6341 -6349 0
-6342 6343 6346 0
6342 -6343 0
6342 -6346 0
6343 -8292 6344 0
6343 8292 -6344 0
-6343 8292 6344 0
-6343 -8292 -6344 0
-6344 6100 -6079 0
-6344 6079 6345 0
6344 -6100 -6079 0
6344 6079 -6345 0
6345 -6099 0
-6345 6099 0
6346 -8293 6347 0
6346 8293 -6347 0
-6346 8293 6347 0
-6346 -8293 -6347 0
-6347 6103 -6079 0
-6347 6102 6079 6348 0
-6347 -6102 6079 -6348 0
6347 -6103 -6079 0
6347 6102 6079 -6348 0
6347 -6102 6079 6348 0
6348 -6099 6115 0
-6348 6099 0
-6348 -6115 0
-6349 6350 6353 0
6349 -6350 0
6349 -6353 0
6350 -8294 6351 0
6350 8294 -6351 0
-6350 8294 6351 0
-6350 -8294 -6351 0
-6351 6107 -6079 0
-6351 6106 6079 6352 0
-6351 -6106 6079 -6352 0
6351 -6107 -6079 0
6351 6106 6079 -6352 0
6351 -6106 6079 6352 0
6352 -6098 6114 0
-6352 6098 0
-6352 -6114 0
6353 -8295 6354 0
6353 8295 -6354 0
-6353 8295 6354 0
-6353 -8295 -6354 0
-6354 6110 -6079 0
-6354 6109 6079 6355 0
-6354 -6109 6079 -6355 0
6354 -6110 -6079 0
6354 6109 6079 -6355 0
6354 -6109 6079 6355 0
6355 -8293 6107 0
6355 6107 -6352 0
6355 -8293 -6352 0
-6355 8293 6352 0
-6355 -6107 6352 0
-6355 8293 -6107 0
-6356 6357 6364 0
6356 -6357 0
6356 -6364 0
-6357 6358 6361 0
6357 -6358 0
6357 -6361 0
6358 -8296 6359 0
6358 8296 -6359 0
-6358 8296 6359 0
-6358 -8296 -6359 0
-6359 6084 -6079 0
-6359 6083 6079 6360 0
-6359 -6083 6079 -6360 0
6359 -6084 -6079 0
6359 6083 6079 -6360 0
6359 -6083 6079 6360 0
6360 -6097 6112 0
-6360 6097 0
-6360 -6112 0
6361 -8297 6362 0
6361 8297 -6362 0
-6361 8297 6362 0
-6361 -8297 -6362 0
-6362 6087 -6079 0
-6362 6086 6079 6363 0
-6362 -6086 6079 -6363 0
6362 -6087 -6079 0
6362 6086 6079 -6363 0
6362 -6086 6079 6363 0
6363 -6083 6120 0
6363 6120 -6360 0
-6363 -6120 0
-6363 6083 6360 0
-6364 6365 6368 0
6364 -6365 0
6364 -6368 0
6365 -8298 6366 0
6365 8298 -6366 0
-6365 8298 6366 0
-6365 -8298 -6366 0
-6366 6091 -6079 0
-6366 6090 6079 6367 0
-6366 -6090 6079 -6367 0
6366 -6091 -6079 0
6366 6090 6079 -6367 0
6366 -6090 6079 6367 0
6367 -6082 6119 0
6367 6119 -6360 0
-6367 -6119 0
-6367 6082 6360 0
6368 -8299 6369 0
6368 8299 -6369 0
-6368 8299 6369 0
-6368 -8299 -6369 0
-6369 6094 -6079 0
-6369 6093 6079 6370 0
-6369 -6093 6079 -6370 0
6369 -6094 -6079 0
6369 6093 6079 -6370 0
6369 -6093 6079 6370 0
6370 -6090 6121 0
6370 6121 -6367 0
-6370 -6121 0
-6370 6090 6367 0
6371 6356 -6372 0
-6371 -6356 0
-6371 6372 0
-6372 -8295 6373 6376 0
-6372 -8295 6354 6373 0
-6372 6354 6373 6376 0
6372 -6354 -6376 0
6372 8295 -6376 0
6372 -6373 0
6372 8295 -6354 0
6373 6349 -6374 0
-6373 -6349 0
-6373 6374 0
-6374 -8293 6347 0
-6374 6347 6375 0
-6374 -8293 6375 0
6374 -6347 -6375 0
6374 8293 -6347 0
6374 8293 -6375 0
6375 8292 -6344 0
-6375 -8292 0
-6375 6344 0
6376 8294 -6351 0
-6376 -8294 0
-6376 6351 0
-6377 -8299 6378 6381 0
-6377 -8299 6369 6378 0
-6377 6369 6378 6381 0
6377 -6369 -6381 0
6377 8299 -6381 0
6377 -6378 0
6377 8299 -6369 0
6378 6364 -6379 0
-6378 -6364 0
-6378 6379 0
-6379 -8297 6362 0
-6379 6362 6380 0
-6379 -8297 6380 0
6379 -6362 -6380 0
6379 8297 -6362 0
6379 8297 -6380 0
6380 8296 -6359 0
-6380 -8296 0
-6380 6359 0
6381 8298 -6366 0
-6381 -8298 0
-6381 6366 0
-6382 6383 6406 0
6382 -6383 0
6382 -6406 0
-6383 6384 6396 0
6383 -6384 0
6383 -6396 0
-6384 6385 6392 0
6384 -6385 0
6384 -6392 0
-6385 6386 6390 0
6385 -6386 0
6385 -6390 0
-6386 6126 -6079 0
-6386 6126 6387 0
-6386 -6126 6079 -6387 0
6386 -6126 -6079 0
6386 -6126 6387 0
6386 6126 6079 -6387 0
6387 6133 -6388 0
-6387 -6133 0
-6387 6388 0
6388 6138 6142 -6389 0
-6388 -6138 0
-6388 -6142 0
-6388 6389 0
6389 -6080 6178 0
6389 -6147 6178 0
-6389 -6178 0
-6389 6080 6147 0
-6390 6131 -6079 0
-6390 6131 6391 0
-6390 -6131 6079 -6391 0
6390 -6131 -6079 0
6390 -6131 6391 0
6390 6131 6079 -6391 0
6391 6126 -6387 0
-6391 -6126 0
-6391 6387 0
-6392 6393 6394 0
6392 -6393 0
6392 -6394 0
-6393 6134 -6079 0
-6393 6134 6388 0
-6393 -6134 6079 -6388 0
6393 -6134 -6079 0
6393 -6134 6388 0
6393 6134 6079 -6388 0
-6394 6135 -6079 0
-6394 6135 6395 0
-6394 -6135 6079 -6395 0
6394 -6135 -6079 0
6394 -6135 6395 0
6394 6135 6079 -6395 0
6395 6134 -6388 0
-6395 -6134 0
-6395 6388 0
-6396 6397 6401 0
6396 -6397 0
6396 -6401 0
-6397 6398 6399 0
6397 -6398 0
6397 -6399 0
-6398 6139 -6079 0
-6398 6139 6389 0
-6398 -6139 6079 -6389 0
6398 -6139 -6079 0
6398 -6139 6389 0
6398 6139 6079 -6389 0
-6399 6140 -6079 0
-6399 6140 6400 0
-6399 -6140 6079 -6400 0
6399 -6140 -6079 0
6399 -6140 6400 0
6399 6140 6079 -6400 0
6400 6139 -6389 0
-6400 -6139 0
-6400 6389 0
-6401 6402 6404 0
6401 -6402 0
6401 -6404 0
-6402 6143 -6079 0
-6402 6143 6403 0
-6402 -6143 6079 -6403 0
6402 -6143 -6079 0
6402 -6143 6403 0
6402 6143 6079 -6403 0
6403 6138 -6389 0
-6403 -6138 0
-6403 6389 0
-6404 6145 -6079 0
-6404 6145 6405 0
-6404 -6145 6079 -6405 0
6404 -6145 -6079 0
6404 -6145 6405 0
6404 6145 6079 -6405 0
6405 6143 -6403 0
-6405 -6143 0
-6405 6403 0
-6406 6407 6421 0
6406 -6407 0
6406 -6421 0
-6407 6408 6414 0
6407 -6408 0
6407 -6414 0
-6408 6409 6411 0
6408 -6409 0
6408 -6411 0
6409 -8300 6410 0
6409 8300 -6410 0
-6409 8300 6410 0
-6409 -8300 -6410 0
-6410 6151 -6079 0
-6410 -6080 -6150 6079 0
-6410 6080 6150 6079 0
6410 -6151 -6079 0
6410 -6080 6150 6079 0
6410 6080 -6150 6079 0
6411 -8301 6412 0
6411 8301 -6412 0
-6411 8301 6412 0
-6411 -8301 -6412 0
-6412 6153 -6079 0
-6412 6152 6079 6413 0
-6412 -6152 6079 -6413 0
6412 -6153 -6079 0
6412 6152 6079 -6413 0
6412 -6152 6079 6413 0
6413 -6080 6183 0
6413 -6150 6183 0
-6413 -6183 0
-6413 6080 6150 0
-6414 6415 6418 0
6414 -6415 0
6414 -6418 0
6415 -8302 6416 0
6415 8302 -6416 0
-6415 8302 6416 0
-6415 -8302 -6416 0
-6416 6157 -6079 0
-6416 6156 6079 6417 0
-6416 -6156 6079 -6417 0
6416 -6157 -6079 0
6416 6156 6079 -6417 0
6416 -6156 6079 6417 0
6417 -6080 6182 0
6417 -6149 6182 0
-6417 -6182 0
-6417 6080 6149 0
6418 -8303 6419 0
6418 8303 -6419 0
-6418 8303 6419 0
-6418 -8303 -6419 0
-6419 6160 -6079 0
-6419 6159 6079 6420 0
-6419 -6159 6079 -6420 0
6419 -6160 -6079 0
6419 6159 6079 -6420 0
6419 -6159 6079 6420 0
6420 -6156 6184 0
6420 6184 -6417 0
-6420 -6184 0
-6420 6156 6417 0
-6421 6422 6429 0
6421 -6422 0
6421 -6429 0
-6422 6423 6426 0
6422 -6423 0
6422 -6426 0
6423 -8304 6424 0
6423 8304 -6424 0
-6423 8304 6424 0
-6423 -8304 -6424 0
-6424 6165 -6079 0
-6424 6164 6079 6425 0
-6424 -6164 6079 -6425 0
6424 -6165 -6079 0
6424 6164 6079 -6425 0
6424 -6164 6079 6425 0
6425 -6080 6180 0
6425 -6148 6180 0
-6425 -6180 0
-6425 6080 6148 0
6426 -8305 6427 0
6426 8305 -6427 0
-6426 8305 6427 0
-6426 -8305 -6427 0
-6427 6168 -6079 0
-6427 6167 6079 6428 0
-6427 -6167 6079 -6428 0
6427 -6168 -6079 0
6427 6167 6079 -6428 0
6427 -6167 6079 6428 0
6428 -6164 6186 0
6428 6186 -6425 0
-6428 -6186 0
-6428 6164 6425 0
-6429 6430 6433 0
6429 -6430 0
6429 -6433 0
6430 -8306 6431 0
6430 8306 -6431 0
-6430 8306 6431 0
-6430 -8306 -6431 0
-6431 6172 -6079 0
-6431 6171 6079 6432 0
-6431 -6171 6079 -6432 0
6431 -6172 -6079 0
6431 6171 6079 -6432 0
6431 -6171 6079 6432 0
6432 -6163 6185 0
6432 6185 -6425 0
-6432 -6185 0
-6432 6163 6425 0
-6433 6175 -6079 0
-6433 6174 6079 6434 0
-6433 -6174 6079 -6434 0
6433 -6175 -6079 0
6433 6174 6079 -6434 0
6433 -6174 6079 6434 0
6434 -6171 6188 0
6434 6188 -6432 0
-6434 -6188 0
-6434 6171 6432 0
-6435 6436 6446 0
-6435 -6383 6446 0
6435 -6446 0
6435 6383 -6436 0
-6436 6437 6442 0
-6436 -6421 6442 0
6436 -6442 0
6436 6421 -6437 0
-6437 -8303 6438 6441 0
-6437 -8303 6419 6438 0
-6437 6419 6438 6441 0
6437 -6419 -6441 0
6437 8303 -6441 0
6437 -6438 0
6437 8303 -6419 0
6438 6414 -6439 0
-6438 -6414 0
-6438 6439 0
-6439 -8301 6412 0
-6439 6412 6440 0
-6439 -8301 6440 0
6439 -6412 -6440 0
6439 8301 -6412 0
6439 8301 -6440 0
6440 8300 -6410 0
-6440 -8300 0
-6440 6410 0
6441 8302 -6416 0
-6441 -8302 0
-6441 6416 0
-6442 -6430 6433 6445 0
-6442 6433 6443 6445 0
6442 -6433 0
6442 -6445 0
6442 6430 -6443 0
-6443 -8305 6427 0
-6443 6427 6444 0
-6443 -8305 6444 0
6443 -6427 -6444 0
6443 8305 -6427 0
6443 8305 -6444 0
6444 8304 -6424 0
-6444 -8304 0
-6444 6424 0
6445 8306 -6431 0
-6445 -8306 0
-6445 6431 0
-6446 6385 6392 6397 6401 0
6446 -6401 0
6446 -6385 0
6446 -6397 0
6446 -6392 0
-6447 5940 6448 6340 6453 0
6447 -6453 0
6447 -5940 0
6447 -6340 0
6447 -6448 0
-6448 6449 6450 0
6448 -6449 0
6448 -6450 0
-6449 5935 6194 0
6449 -5935 0
6449 -6194 0
-6450 6451 6452 0
6450 -6451 0
6450 -6452 0
-6451 6196 0
6451 -6196 0
6452 -8291 6339 0
6452 8291 -6339 0
-6452 8291 6339 0
-6452 -8291 -6339 0
-6453 5435 6454 0
6453 -5435 0
6453 -6454 0
-6454 5433 0
6454 -5433 0
6455 -6501 6554 0
6455 -6456 6554 -6566 0
-6455 -6554 0
-6455 6501 6566 0
-6455 6456 6501 0
6456 -6459 6490 6496 0
6456 -6457 6490 6496 0
-6456 -6496 0
-6456 -6490 0
-6456 6457 6459 0
6457 -8291 6458 0
-6457 8291 0
-6457 -6458 0
-6458 6319 0
6458 -6319 0
-6459 6460 6475 0
6459 -6460 0
6459 -6475 0
-6460 6461 6468 0
6460 -6461 0
6460 -6468 0
-6461 6462 6465 0
6461 -6462 0
6461 -6465 0
6462 -8292 6463 0
6462 8292 -6463 0
-6462 8292 6463 0
-6462 -8292 -6463 0
-6463 6222 -6201 0
-6463 6201 6464 0
6463 -6222 -6201 0
6463 6201 -6464 0
6464 -6221 0
-6464 6221 0
6465 -8293 6466 0
6465 8293 -6466 0
-6465 8293 6466 0
-6465 -8293 -6466 0
-6466 6225 -6201 0
-6466 6224 6201 6467 0
-6466 -6224 6201 -6467 0
6466 -6225 -6201 0
6466 6224 6201 -6467 0
6466 -6224 6201 6467 0
6467 -6221 6237 0
-6467 6221 0
-6467 -6237 0
-6468 6469 6472 0
6468 -6469 0
6468 -6472 0
6469 -8294 6470 0
6469 8294 -6470 0
-6469 8294 6470 0
-6469 -8294 -6470 0
-6470 6229 -6201 0
-6470 6228 6201 6471 0
-6470 -6228 6201 -6471 0
6470 -6229 -6201 0
6470 6228 6201 -6471 0
6470 -6228 6201 6471 0
6471 -6220 6236 0
-6471 6220 0
-6471 -6236 0
6472 -8295 6473 0
6472 8295 -6473 0
-6472 8295 6473 0
-6472 -8295 -6473 0
-6473 6232 -6201 0
-6473 6231 6201 6474 0
-6473 -6231 6201 -6474 0
6473 -6232 -6201 0
6473 6231 6201 -6474 0
6473 -6231 6201 6474 0
6474 -8293 6229 0
6474 6229 -6471 0
6474 -8293 -6471 0
-6474 8293 6471 0
-6474 -6229 6471 0
-6474 8293 -6229 0
-6475 6476 6483 0
6475 -6476 0
6475 -6483 0
-6476 6477 6480 0
6476 -6477 0
6476 -6480 0
6477 -8296 6478 0
6477 8296 -6478 0
-6477 8296 6478 0
-6477 -8296 -6478 0
-6478 6206 -6201 0
-6478 6205 6201 6479 0
-6478 -6205 6201 -6479 0
6478 -6206 -6201 0
6478 6205 6201 -6479 0
6478 -6205 6201 6479 0
6479 -6219 6234 0
-6479 6219 0
-6479 -6234 0
6480 -8297 6481 0
6480 8297 -6481 0
-6480 8297 6481 0
-6480 -8297 -6481 0
-6481 6209 -6201 0
-6481 6208 6201 6482 0
-6481 -6208 6201 -6482 0
6481 -6209 -6201 0
6481 6208 6201 -6482 0
6481 -6208 6201 6482 0
6482 -6205 6242 0
6482 6242 -6479 0
-6482 -6242 0
-6482 6205 6479 0
-6483 6484 6487 0
6483 -6484 0
6483 -6487 0
6484 -8298 6485 0
6484 8298 -6485 0
-6484 8298 6485 0
-6484 -8298 -6485 0
-6485 6213 -6201 0
-6485 6212 6201 6486 0
-6485 -6212 6201 -6486 0
6485 -6213 -6201 0
6485 6212 6201 -6486 0
6485 -6212 6201 6486 0
6486 -6204 6241 0
6486 6241 -6479 0
-6486 -6241 0
-6486 6204 6479 0
6487 -8299 6488 0
6487 8299 -6488 0
-6487 8299 6488 0
-6487 -8299 -6488 0
-6488 6216 -6201 0
-6488 6215 6201 6489 0
-6488 -6215 6201 -6489 0
6488 -6216 -6201 0
6488 6215 6201 -6489 0
6488 -6215 6201 6489 0
6489 -6212 6243 0
6489 6243 -6486 0
-6489 -6243 0
-6489 6212 6486 0
6490 6475 -6491 0
-6490 -6475 0
-6490 6491 0
-6491 -8295 6492 6495 0
-6491 -8295 6473 6492 0
-6491 6473 6492 6495 0
6491 -6473 -6495 0
6491 8295 -6495 0
6491 -6492 0
6491 8295 -6473 0
6492 6468 -6493 0
-6492 -6468 0
-6492 6493 0
-6493 -8293 6466 0
-6493 6466 6494 0
-6493 -8293 6494 0
6493 -6466 -6494 0
6493 8293 -6466 0
6493 8293 -6494 0
6494 8292 -6463 0
-6494 -8292 0
-6494 6463 0
6495 8294 -6470 0
-6495 -8294 0
-6495 6470 0
-6496 -8299 6497 6500 0
-6496 -8299 6488 6497 0
-6496 6488 6497 6500 0
6496 -6488 -6500 0
6496 8299 -6500 0
6496 -6497 0
6496 8299 -6488 0
6497 6483 -6498 0
-6497 -6483 0
-6497 6498 0
-6498 -8297 6481 0
-6498 6481 6499 0
-6498 -8297 6499 0
6498 -6481 -6499 0
6498 8297 -6481 0
6498 8297 -6499 0
6499 8296 -6478 0
-6499 -8296 0
-6499 6478 0
6500 8298 -6485 0
-6500 -8298 0
-6500 6485 0
-6501 6502 6525 0
6501 -6502 0
6501 -6525 0
-6502 6503 6515 0
6502 -6503 0
6502 -6515 0
-6503 6504 6511 0
6503 -6504 0
6503 -6511 0
-6504 6505 6509 0
6504 -6505 0
6504 -6509 0
-6505 6248 -6201 0
-6505 6248 6506 0
-6505 -6248 6201 -6506 0
6505 -6248 -6201 0
6505 -6248 6506 0
6505 6248 6201 -6506 0
6506 6255 -6507 0
-6506 -6255 0
-6506 6507 0
6507 6260 6264 -6508 0
-6507 -6260 0
-6507 -6264 0
-6507 6508 0
6508 -6202 6300 0
6508 -6269 6300 0
-6508 -6300 0
-6508 6202 6269 0
-6509 6253 -6201 0
-6509 6253 6510 0
-6509 -6253 6201 -6510 0
6509 -6253 -6201 0
6509 -6253 6510 0
6509 6253 6201 -6510 0
6510 6248 -6506 0
-6510 -6248 0
-6510 6506 0
-6511 6512 6513 0
6511 -6512 0
6511 -6513 0
-6512 6256 -6201 0
-6512 6256 6507 0
-6512 -6256 6201 -6507 0
6512 -6256 -6201 0
6512 -6256 6507 0
6512 6256 6201 -6507 0
-6513 6257 -6201 0
-6513 6257 6514 0
-6513 -6257 6201 -6514 0
6513 -6257 -6201 0
6513 -6257 6514 0
6513 6257 6201 -6514 0
6514 6256 -6507 0
-6514 -6256 0
-6514 6507 0
-6515 6516 6520 0
6515 -6516 0
6515 -6520 0
-6516 6517 6518 0
6516 -6517 0
6516 -6518 0
-6517 6261 -6201 0
-6517 6261 6508 0
-6517 -6261 6201 -6508 0
6517 -6261 -6201 0
6517 -6261 6508 0
6517 6261 6201 -6508 0
-6518 6262 -6201 0
-6518 6262 6519 0
-6518 -6262 6201 -6519 0
6518 -6262 -6201 0
6518 -6262 6519 0
6518 6262 6201 -6519 0
6519 6261 -6508 0
-6519 -6261 0
-6519 6508 0
-6520 6521 6523 0
6520 -6521 0
6520 -6523 0
-6521 6265 -6201 0
-6521 6265 6522 0
-6521 -6265 6201 -6522 0
6521 -6265 -6201 0
6521 -6265 6522 0
6521 6265 6201 -6522 0
6522 6260 -6508 0
-6522 -6260 0
-6522 6508 0
-6523 6267 -6201 0
-6523 6267 6524 0
-6523 -6267 6201 -6524 0
6523 -6267 -6201 0
6523 -6267 6524 0
6523 6267 6201 -6524 0
6524 6265 -6522 0
-6524 -6265 0
-6524 6522 0
-6525 6526 6540 0
6525 -6526 0
6525 -6540 0
-6526 6527 6533 0
6526 -6527 0
6526 -6533 0
-6527 6528 6530 0
6527 -6528 0
6527 -6530 0
6528 -8300 6529 0
6528 8300 -6529 0
-6528 8300 6529 0
-6528 -8300 -6529 0
-6529 6273 -6201 0
-6529 -6202 -6272 6201 0
-6529 6202 6272 6201 0
6529 -6273 -6201 0
6529 -6202 6272 6201 0
6529 6202 -6272 6201 0
6530 -8301 6531 0
6530 8301 -6531 0
-6530 8301 6531 0
-6530 -8301 -6531 0
-6531 6275 -6201 0
-6531 6274 6201 6532 0
-6531 -6274 6201 -6532 0
6531 -6275 -6201 0
6531 6274 6201 -6532 0
6531 -6274 6201 6532 0
6532 -6202 6305 0
6532 -6272 6305 0
-6532 -6305 0
-6532 6202 6272 0
-6533 6534 6537 0
6533 -6534 0
6533 -6537 0
6534 -8302 6535 0
6534 8302 -6535 0
-6534 8302 6535 0
-6534 -8302 -6535 0
-6535 6279 -6201 0
-6535 6278 6201 6536 0
-6535 -6278 6201 -6536 0
6535 -6279 -6201 0
6535 6278 6201 -6536 0
6535 -6278 6201 6536 0
6536 -6202 6304 0
6536 -6271 6304 0
-6536 -6304 0
-6536 6202 6271 0
6537 -8303 6538 0
6537 8303 -6538 0
-6537 8303 6538 0
-6537 -8303 -6538 0
-6538 6282 -6201 0
-6538 6281 6201 6539 0
-6538 -6281 6201 -6539 0
6538 -6282 -6201 0
6538 6281 6201 -6539 0
6538 -6281 6201 6539 0
6539 -6278 6306 0
6539 6306 -6536 0
-6539 -6306 0
-6539 6278 6536 0
-6540 6541 6548 0
6540 -6541 0
6540 -6548 0
-6541 6542 6545 0
6541 -6542 0
6541 -6545 0
6542 -8304 6543 0
6542 8304 -6543 0
-6542 8304 6543 0
-6542 -8304 -6543 0
-6543 6287 -6201 0
-6543 6286 6201 6544 0
-6543 -6286 6201 -6544 0
6543 -6287 -6201 0
6543 6286 6201 -6544 0
6543 -6286 6201 6544 0
6544 -6202 6302 0
6544 -6270 6302 0
-6544 -6302 0
-6544 6202 6270 0
6545 -8305 6546 0
6545 8305 -6546 0
-6545 8305 6546 0
-6545 -8305 -6546 0
-6546 6290 -6201 0
-6546 6289 6201 6547 0
-6546 -6289 6201 -6547 0
6546 -6290 -6201 0
6546 6289 6201 -6547 0
6546 -6289 6201 6547 0
6547 -6286 6308 0
6547 6308 -6544 0
-6547 -6308 0
-6547 6286 6544 0
-6548 6549 6552 0
6548 -6549 0
6548 -6552 0
6549 -8306 6550 0
6549 8306 -6550 0
-6549 8306 6550 0
-6549 -8306 -6550 0
-6550 6294 -6201 0
-6550 6293 6201 6551 0
-6550 -6293 6201 -6551 0
6550 -6294 -6201 0
6550 6293 6201 -6551 0
6550 -6293 6201 6551 0
6551 -6285 6307 0
6551 6307 -6544 0
-6551 -6307 0
-6551 6285 6544 0
-6552 6297 -6201 0
-6552 6296 6201 6553 0
-6552 -6296 6201 -6553 0
6552 -6297 -6201 0
6552 6296 6201 -6553 0
6552 -6296 6201 6553 0
6553 -6293 6310 0
6553 6310 -6551 0
-6553 -6310 0
-6553 6293 6551 0
-6554 6555 6565 0
-6554 -6502 6565 0
6554 -6565 0
6554 6502 -6555 0
-6555 6556 6561 0
-6555 -6540 6561 0
6555 -6561 0
6555 6540 -6556 0
-6556 -8303 6557 6560 0
-6556 -8303 6538 6557 0
-6556 6538 6557 6560 0
6556 -6538 -6560 0
6556 8303 -6560 0
6556 -6557 0
6556 8303 -6538 0
6557 6533 -6558 0
-6557 -6533 0
-6557 6558 0
-6558 -8301 6531 0
-6558 6531 6559 0
-6558 -8301 6559 0
6558 -6531 -6559 0
6558 8301 -6531 0
6558 8301 -6559 0
6559 8300 -6529 0
-6559 -8300 0
-6559 6529 0
6560 8302 -6535 0
-6560 -8302 0
-6560 6535 0
-6561 -6549 6552 6564 0
-6561 6552 6562 6564 0
6561 -6552 0
6561 -6564 0
6561 6549 -6562 0
-6562 -8305 6546 0
-6562 6546 6563 0
-6562 -8305 6563 0
6562 -6546 -6563 0
6562 8305 -6546 0
6562 8305 -6563 0
6563 8304 -6543 0
-6563 -8304 0
-6563 6543 0
6564 8306 -6550 0
-6564 -8306 0
-6564 6550 0
-6565 6504 6511 6516 6520 0
6565 -6520 0
6565 -6504 0
6565 -6516 0
6565 -6511 0
-6566 6068 6567 6459 6572 0
6566 -6572 0
6566 -6068 0
6566 -6459 0
6566 -6567 0
-6567 6568 6569 0
6567 -6568 0
6567 -6569 0
-6568 6063 6316 0
6568 -6063 0
6568 -6316 0
-6569 6570 6571 0
6569 -6570 0
6569 -6571 0
-6570 6318 0
6570 -6318 0
6571 -8291 6458 0
6571 8291 -6458 0
-6571 8291 6458 0
-6571 -8291 -6458 0
-6572 5561 6573 0
6572 -5561 0
6572 -6573 0
-6573 5559 0
6573 -5559 0
-6574 -1162 -6575 0
-6574 1162 -4023 -6329 0
-6574 1162 4023 6329 0
6574 -1162 6575 0
6574 1162 4023 -6329 0
6574 1162 -4023 6329 0
6575 1115 -6576 0
6575 -1115 1135 6332 0
6575 -1115 -1135 -6332 0
-6575 1115 6576 0
-6575 -1115 -1135 6332 0
-6575 -1115 1135 -6332 0
6576 1092 -6577 0
6576 -994 -1092 -6335 0
6576 994 -1092 6335 0
-6576 1092 6577 0
-6576 -994 -1092 6335 0
-6576 994 -1092 -6335 0
6577 -6628 6680 0
6577 -6578 6680 -6690 0
-6577 -6680 0
-6577 6628 6690 0
-6577 6578 6628 0
6578 -6587 6617 6623 0
6578 -6579 6617 6623 0
-6578 -6623 0
-6578 -6617 0
-6578 6579 6587 0
6579 -6580 6585 0
-6579 6580 0
-6579 -6585 0
-6580 6581 6583 0
6580 -6581 0
6580 -6583 0
6581 -8291 6582 0
6581 8291 -6582 0
-6581 8291 6582 0
-6581 -8291 -6582 0
-6582 6451 0
6582 -6451 0
6583 -8292 6584 0
6583 8292 -6584 0
-6583 8292 6584 0
-6583 -8292 -6584 0
-6584 6339 -6336 0
-6584 6452 6336 0
6584 -6452 6336 0
6584 -6339 -6336 0
-6585 -8292 6584 0
-6585 6584 6586 0
-6585 -8292 6586 0
6585 -6584 -6586 0
6585 8292 -6584 0
6585 8292 -6586 0
6586 8291 -6582 0
-6586 -8291 0
-6586 6582 0
-6587 6588 6602 0
6587 -6588 0
6587 -6602 0
-6588 6589 6595 0
6588 -6589 0
6588 -6595 0
-6589 6590 6592 0
6589 -6590 0
6589 -6592 0
6590 -8293 6591 0
6590 8293 -6591 0
-6590 8293 6591 0
-6590 -8293 -6591 0
-6591 6344 -6336 0
-6591 -6338 -6343 6336 0
-6591 6338 6343 6336 0
6591 -6344 -6336 0
6591 -6338 6343 6336 0
6591 6338 -6343 6336 0
6592 -8294 6593 0
6592 8294 -6593 0
-6592 8294 6593 0
-6592 -8294 -6593 0
-6593 6347 -6336 0
-6593 6346 6336 6594 0
-6593 -6346 6336 -6594 0
6593 -6347 -6336 0
6593 6346 6336 -6594 0
6593 -6346 6336 6594 0
6594 -8292 -6338 0
6594 -6338 6344 0
6594 -8292 6344 0
-6594 8292 -6344 0
-6594 6338 -6344 0
-6594 8292 6338 0
-6595 6596 6599 0
6595 -6596 0
6595 -6599 0
6596 -8295 6597 0
6596 8295 -6597 0
-6596 8295 6597 0
-6596 -8295 -6597 0
-6597 6351 -6336 0
-6597 6350 6336 6598 0
-6597 -6350 6336 -6598 0
6597 -6351 -6336 0
6597 6350 6336 -6598 0
6597 -6350 6336 6598 0
6598 -6338 6374 0
6598 -6342 6374 0
-6598 -6374 0
-6598 6338 6342 0
6599 -8296 6600 0
6599 8296 -6600 0
-6599 8296 6600 0
-6599 -8296 -6600 0
-6600 6354 -6336 0
-6600 6353 6336 6601 0
-6600 -6353 6336 -6601 0
6600 -6354 -6336 0
6600 6353 6336 -6601 0
6600 -6353 6336 6601 0
6601 -6350 6376 0
6601 6376 -6598 0
-6601 -6376 0
-6601 6350 6598 0
-6602 6603 6610 0
6602 -6603 0
6602 -6610 0
-6603 6604 6607 0
6603 -6604 0
6603 -6607 0
6604 -8297 6605 0
6604 8297 -6605 0
-6604 8297 6605 0
-6604 -8297 -6605 0
-6605 6359 -6336 0
-6605 6358 6336 6606 0
-6605 -6358 6336 -6606 0
6605 -6359 -6336 0
6605 6358 6336 -6606 0
6605 -6358 6336 6606 0
6606 -6338 6372 0
6606 -6341 6372 0
-6606 -6372 0
-6606 6338 6341 0
6607 -8298 6608 0
6607 8298 -6608 0
-6607 8298 6608 0
-6607 -8298 -6608 0
-6608 6362 -6336 0
-6608 6361 6336 6609 0
-6608 -6361 6336 -6609 0
6608 -6362 -6336 0
6608 6361 6336 -6609 0
6608 -6361 6336 6609 0
6609 -6358 6380 0
6609 6380 -6606 0
-6609 -6380 0
-6609 6358 6606 0
-6610 6611 6614 0
6610 -6611 0
6610 -6614 0
6611 -8299 6612 0
6611 8299 -6612 0
-6611 8299 6612 0
-6611 -8299 -6612 0
-6612 6366 -6336 0
-6612 6365 6336 6613 0
-6612 -6365 6336 -6613 0
6612 -6366 -6336 0
6612 6365 6336 -6613 0
6612 -6365 6336 6613 0
6613 -6357 6379 0
6613 6379 -6606 0
-6613 -6379 0
-6613 6357 6606 0
6614 -8300 6615 0
6614 8300 -6615 0
-6614 8300 6615 0
-6614 -8300 -6615 0
-6615 6369 -6336 0
-6615 6368 6336 6616 0
-6615 -6368 6336 -6616 0
6615 -6369 -6336 0
6615 6368 6336 -6616 0
6615 -6368 6336 6616 0
6616 -6365 6381 0
6616 6381 -6613 0
-6616 -6381 0
-6616 6365 6613 0
6617 6602 -6618 0
-6617 -6602 0
-6617 6618 0
-6618 -8296 6619 6622 0
-6618 -8296 6600 6619 0
-6618 6600 6619 6622 0
6618 -6600 -6622 0
6618 8296 -6622 0
6618 -6619 0
6618 8296 -6600 0
6619 6595 -6620 0
-6619 -6595 0
-6619 6620 0
-6620 -8294 6593 0
-6620 6593 6621 0
-6620 -8294 6621 0
6620 -6593 -6621 0
6620 8294 -6593 0
6620 8294 -6621 0
6621 8293 -6591 0
-6621 -8293 0
-6621 6591 0
6622 8295 -6597 0
-6622 -8295 0
-6622 6597 0
-6623 -8300 6624 6627 0
-6623 -8300 6615 6624 0
-6623 6615 6624 6627 0
6623 -6615 -6627 0
6623 8300 -6627 0
6623 -6624 0
6623 8300 -6615 0
6624 6610 -6625 0
-6624 -6610 0
-6624 6625 0
-6625 -8298 6608 0
-6625 6608 6626 0
-6625 -8298 6626 0
6625 -6608 -6626 0
6625 8298 -6608 0
6625 8298 -6626 0
6626 8297 -6605 0
-6626 -8297 0
-6626 6605 0
6627 8299 -6612 0
-6627 -8299 0
-6627 6612 0
-6628 6629 6652 0
6628 -6629 0
6628 -6652 0
-6629 6630 6642 0
6629 -6630 0
6629 -6642 0
-6630 6631 6638 0
6630 -6631 0
6630 -6638 0
-6631 6632 6636 0
6631 -6632 0
6631 -6636 0
-6632 6386 -6336 0
-6632 6386 6633 0
-6632 -6386 6336 -6633 0
6632 -6386 -6336 0
6632 -6386 6633 0
6632 6386 6336 -6633 0
6633 6392 -6634 0
-6633 -6392 0
-6633 6634 0
6634 6397 6401 -6635 0
-6634 -6397 0
-6634 -6401 0
-6634 6635 0
6635 -6337 6436 0
6635 -6406 6436 0
-6635 -6436 0
-6635 6337 6406 0
-6636 6390 -6336 0
-6636 6390 6637 0
-6636 -6390 6336 -6637 0
6636 -6390 -6336 0
6636 -6390 6637 0
6636 6390 6336 -6637 0
6637 6386 -6633 0
-6637 -6386 0
-6637 6633 0
-6638 6639 6640 0
6638 -6639 0
6638 -6640 0
-6639 6393 -6336 0
-6639 6393 6634 0
-6639 -6393 6336 -6634 0
6639 -6393 -6336 0
6639 -6393 6634 0
6639 6393 6336 -6634 0
-6640 6394 -6336 0
-6640 6394 6641 0
-6640 -6394 6336 -6641 0
6640 -6394 -6336 0
6640 -6394 6641 0
6640 6394 6336 -6641 0
6641 6393 -6634 0
-6641 -6393 0
-6641 6634 0
-6642 6643 6647 0
6642 -6643 0
6642 -6647 0
-6643 6644 6645 0
6643 -6644 0
6643 -6645 0
-6644 6398 -6336 0
-6644 6398 6635 0
-6644 -6398 6336 -6635 0
6644 -6398 -6336 0
6644 -6398 6635 0
6644 6398 6336 -6635 0
-6645 6399 -6336 0
-6645 6399 6646 0
-6645 -6399 6336 -6646 0
6645 -6399 -6336 0
6645 -6399 6646 0
6645 6399 6336 -6646 0
6646 6398 -6635 0
-6646 -6398 0
-6646 6635 0
-6647 6648 6650 0
6647 -6648 0
6647 -6650 0
-6648 6402 -6336 0
-6648 6402 6649 0
-6648 -6402 6336 -6649 0
6648 -6402 -6336 0
6648 -6402 6649 0
6648 6402 6336 -6649 0
6649 6397 -6635 0
-6649 -6397 0
-6649 6635 0
-6650 6404 -6336 0
-6650 6404 6651 0
-6650 -6404 6336 -6651 0
6650 -6404 -6336 0
6650 -6404 6651 0
6650 6404 6336 -6651 0
6651 6402 -6649 0
-6651 -6402 0
-6651 6649 0
-6652 6653 6667 0
6652 -6653 0
6652 -6667 0
-6653 6654 6660 0
6653 -6654 0
6653 -6660 0
-6654 6655 6657 0
6654 -6655 0
6654 -6657 0
6655 -8301 6656 0
6655 8301 -6656 0
-6655 8301 6656 0
-6655 -8301 -6656 0
-6656 6410 -6336 0
-6656 -6337 -6409 6336 0
-6656 6337 6409 6336 0
6656 -6410 -6336 0
6656 -6337 6409 6336 0
6656 6337 -6409 6336 0
6657 -8302 6658 0
6657 8302 -6658 0
-6657 8302 6658 0
-6657 -8302 -6658 0
-6658 6412 -6336 0
-6658 6411 6336 6659 0
-6658 -6411 6336 -6659 0
6658 -6412 -6336 0
6658 6411 6336 -6659 0
6658 -6411 6336 6659 0
6659 -6337 6440 0
6659 -6409 6440 0
-6659 -6440 0
-6659 6337 6409 0
-6660 6661 6664 0
6660 -6661 0
6660 -6664 0
6661 -8303 6662 0
6661 8303 -6662 0
-6661 8303 6662 0
-6661 -8303 -6662 0
-6662 6416 -6336 0
-6662 6415 6336 6663 0
-6662 -6415 6336 -6663 0
6662 -6416 -6336 0
6662 6415 6336 -6663 0
6662 -6415 6336 6663 0
6663 -6337 6439 0
6663 -6408 6439 0
-6663 -6439 0
-6663 6337 6408 0
6664 -8304 6665 0
6664 8304 -6665 0
-6664 8304 6665 0
-6664 -8304 -6665 0
-6665 6419 -6336 0
-6665 6418 6336 6666 0
-6665 -6418 6336 -6666 0
6665 -6419 -6336 0
6665 6418 6336 -6666 0
6665 -6418 6336 6666 0
6666 -6415 6441 0
6666 6441 -6663 0
-6666 -6441 0
-6666 6415 6663 0
-6667 6668 6675 0
6667 -6668 0
6667 -6675 0
-6668 6669 6672 0
6668 -6669 0
6668 -6672 0
6669 -8305 6670 0
6669 8305 -6670 0
-6669 8305 6670 0
-6669 -8305 -6670 0
-6670 6424 -6336 0
-6670 6423 6336 6671 0
-6670 -6423 6336 -6671 0
6670 -6424 -6336 0
6670 6423 6336 -6671 0
6670 -6423 6336 6671 0
6671 -6337 6437 0
6671 -6407 6437 0
-6671 -6437 0
-6671 6337 6407 0
6672 -8306 6673 0
6672 8306 -6673 0
-6672 8306 6673 0
-6672 -8306 -6673 0
-6673 6427 -6336 0
-6673 6426 6336 6674 0
-6673 -6426 6336 -6674 0
6673 -6427 -6336 0
6673 6426 6336 -6674 0
6673 -6426 6336 6674 0
6674 -6423 6444 0
6674 6444 -6671 0
-6674 -6444 0
-6674 6423 6671 0
-6675 6676 6678 0
6675 -6676 0
6675 -6678 0
-6676 6431 -6336 0
-6676 6430 6336 6677 0
-6676 -6430 6336 -6677 0
6676 -6431 -6336 0
6676 6430 6336 -6677 0
6676 -6430 6336 6677 0
6677 -6422 6443 0
6677 6443 -6671 0
-6677 -6443 0
-6677 6422 6671 0
-6678 6433 -6336 0
-6678 6433 6679 0
-6678 -6433 6336 -6679 0
6678 -6433 -6336 0
6678 -6433 6679 0
6678 6433 6336 -6679 0
6679 -6430 6445 0
6679 6445 -6677 0
-6679 -6445 0
-6679 6430 6677 0
-6680 6681 6689 0
-6680 -6629 6689 0
6680 -6689 0
6680 6629 -6681 0
-6681 -6668 6675 6687 0
-6681 6675 6682 6687 0
6681 -6687 0
6681 -6675 0
6681 6668 -6682 0
-6682 -8304 6683 6686 0
-6682 -8304 6665 6683 0
-6682 6665 6683 6686 0
6682 -6665 -6686 0
6682 8304 -6686 0
6682 -6683 0
6682 8304 -6665 0
6683 6660 -6684 0
-6683 -6660 0
-6683 6684 0
-6684 -8302 6658 0
-6684 6658 6685 0
-6684 -8302 6685 0
6684 -6658 -6685 0
6684 8302 -6658 0
6684 8302 -6685 0
6685 8301 -6656 0
-6685 -8301 0
-6685 6656 0
6686 8303 -6662 0
-6686 -8303 0
-6686 6662 0
-6687 -8306 6673 0
-6687 6673 6688 0
-6687 -8306 6688 0
6687 -6673 -6688 0
6687 8306 -6673 0
6687 8306 -6688 0
6688 8305 -6670 0
-6688 -8305 0
-6688 6670 0
-6689 6631 6638 6643 6647 0
6689 -6647 0
6689 -6631 0
6689 -6643 0
6689 -6638 0
-6690 5940 6691 6587 6696 0
6690 -6696 0
6690 -5940 0
6690 -6587 0
6690 -6691 0
-6691 6692 6580 0
6691 -6692 0
6691 -6580 0
-6692 6693 6694 0
6692 -6693 0
6692 -6694 0
-6693 6193 0
6693 -6193 0
-6694 6695 0
6694 -6695 0
-6695 6194 0
6695 -6194 0
-6696 5687 6697 0
6696 -5687 0
6696 -6697 0
-6697 6698 0
6697 -6698 0
-6698 5947 0
6698 -5947 0
6699 -6749 6801 0
6699 -6700 6801 -6811 0
-6699 -6801 0
-6699 6749 6811 0
-6699 6700 6749 0
6700 -6708 6738 6744 0
6700 -6701 6738 6744 0
-6700 -6744 0
-6700 -6738 0
-6700 6701 6708 0
6701 -6702 6707 0
-6701 6702 0
-6701 -6707 0
-6702 6703 6705 0
6702 -6703 0
6702 -6705 0
6703 -8291 6704 0
6703 8291 -6704 0
-6703 8291 6704 0
-6703 -8291 -6704 0
-6704 6570 0
6704 -6570 0
6705 -8292 6706 0
6705 8292 -6706 0
-6705 8292 6706 0
-6705 -8292 -6706 0
-6706 6458 -6455 0
-6706 6571 6455 0
6706 -6571 6455 0
6706 -6458 -6455 0
-6707 -8291 -8292 0
-6707 -8292 6706 0
-6707 -8291 6706 0
-6707 -8292 6704 0
-6707 6704 6706 0
6707 8292 -6706 0
6707 8291 -6704 -6706 0
6707 8291 8292 -6704 0
-6708 6709 6723 0
6708 -6709 0
6708 -6723 0
-6709 6710 6716 0
6709 -6710 0
6709 -6716 0
-6710 6711 6713 0
6710 -6711 0
6710 -6713 0
6711 -8293 6712 0
6711 8293 -6712 0
-6711 8293 6712 0
-6711 -8293 -6712 0
-6712 6463 -6455 0
-6712 -6457 -6462 6455 0
-6712 6457 6462 6455 0
6712 -6463 -6455 0
6712 -6457 6462 6455 0
6712 6457 -6462 6455 0
6713 -8294 6714 0
6713 8294 -6714 0
-6713 8294 6714 0
-6713 -8294 -6714 0
-6714 6466 -6455 0
-6714 6465 6455 6715 0
-6714 -6465 6455 -6715 0
6714 -6466 -6455 0
6714 6465 6455 -6715 0
6714 -6465 6455 6715 0
6715 -8292 -6457 0
6715 -6457 6463 0
6715 -8292 6463 0
-6715 8292 -6463 0
-6715 6457 -6463 0
-6715 8292 6457 0
-6716 6717 6720 0
6716 -6717 0
6716 -6720 0
6717 -8295 6718 0
6717 8295 -6718 0
-6717 8295 6718 0
-6717 -8295 -6718 0
-6718 6470 -6455 0
-6718 6469 6455 6719 0
-6718 -6469 6455 -6719 0
6718 -6470 -6455 0
6718 6469 6455 -6719 0
6718 -6469 6455 6719 0
6719 -6457 6493 0
6719 -6461 6493 0
-6719 -6493 0
-6719 6457 6461 0
6720 -8296 6721 0
6720 8296 -6721 0
-6720 8296 6721 0
-6720 -8296 -6721 0
-6721 6473 -6455 0
-6721 6472 6455 6722 0
-6721 -6472 6455 -6722 0
6721 -6473 -6455 0
6721 6472 6455 -6722 0
6721 -6472 6455 6722 0
6722 -6469 6495 0
6722 6495 -6719 0
-6722 -6495 0
-6722 6469 6719 0
-6723 6724 6731 0
6723 -6724 0
6723 -6731 0
-6724 6725 6728 0
6724 -6725 0
6724 -6728 0
6725 -8297 6726 0
6725 8297 -6726 0
-6725 8297 6726 0
-6725 -8297 -6726 0
-6726 6478 -6455 0
-6726 6477 6455 6727 0
-6726 -6477 6455 -6727 0
6726 -6478 -6455 0
6726 6477 6455 -6727 0
6726 -6477 6455 6727 0
6727 -6457 6491 0
6727 -6460 6491 0
-6727 -6491 0
-6727 6457 6460 0
6728 -8298 6729 0
6728 8298 -6729 0
-6728 8298 6729 0
-6728 -8298 -6729 0
-6729 6481 -6455 0
-6729 6480 6455 6730 0
-6729 -6480 6455 -6730 0
6729 -6481 -6455 0
6729 6480 6455 -6730 0
6729 -6480 6455 6730 0
6730 -6477 6499 0
6730 6499 -6727 0
-6730 -6499 0
-6730 6477 6727 0
-6731 6732 6735 0
6731 -6732 0
6731 -6735 0
6732 -8299 6733 0
6732 8299 -6733 0
-6732 8299 6733 0
-6732 -8299 -6733 0
-6733 6485 -6455 0
-6733 6484 6455 6734 0
-6733 -6484 6455 -6734 0
6733 -6485 -6455 0
6733 6484 6455 -6734 0
6733 -6484 6455 6734 0
6734 -6476 6498 0
6734 6498 -6727 0
-6734 -6498 0
-6734 6476 6727 0
6735 -8300 6736 0
6735 8300 -6736 0
-6735 8300 6736 0
-6735 -8300 -6736 0
-6736 6488 -6455 0
-6736 6487 6455 6737 0
-6736 -6487 6455 -6737 0
6736 -6488 -6455 0
6736 6487 6455 -6737 0
6736 -6487 6455 6737 0
6737 -6484 6500 0
6737 6500 -6734 0
-6737 -6500 0
-6737 6484 6734 0
6738 6723 -6739 0
-6738 -6723 0
-6738 6739 0
-6739 -8296 6740 6743 0
-6739 -8296 6721 6740 0
-6739 6721 6740 6743 0
6739 -6721 -6743 0
6739 8296 -6743 0
6739 -6740 0
6739 8296 -6721 0
6740 6716 -6741 0
-6740 -6716 0
-6740 6741 0
-6741 -8294 6714 0
-6741 6714 6742 0
-6741 -8294 6742 0
6741 -6714 -6742 0
6741 8294 -6714 0
6741 8294 -6742 0
6742 8293 -6712 0
-6742 -8293 0
-6742 6712 0
6743 8295 -6718 0
-6743 -8295 0
-6743 6718 0
-6744 -8300 6745 6748 0
-6744 -8300 6736 6745 0
-6744 6736 6745 6748 0
6744 -6736 -6748 0
6744 8300 -6748 0
6744 -6745 0
6744 8300 -6736 0
6745 6731 -6746 0
-6745 -6731 0
-6745 6746 0
-6746 -8298 6729 0
-6746 6729 6747 0
-6746 -8298 6747 0
6746 -6729 -6747 0
6746 8298 -6729 0
6746 8298 -6747 0
6747 8297 -6726 0
-6747 -8297 0
-6747 6726 0
6748 8299 -6733 0
-6748 -8299 0
-6748 6733 0
-6749 6750 6773 0
6749 -6750 0
6749 -6773 0
-6750 6751 6763 0
6750 -6751 0
6750 -6763 0
-6751 6752 6759 0
6751 -6752 0
6751 -6759 0
-6752 6753 6757 0
6752 -6753 0
6752 -6757 0
-6753 6505 -6455 0
-6753 6505 6754 0
-6753 -6505 6455 -6754 0
6753 -6505 -6455 0
6753 -6505 6754 0
6753 6505 6455 -6754 0
6754 6511 -6755 0
-6754 -6511 0
-6754 6755 0
6755 6516 6520 -6756 0
-6755 -6516 0
-6755 -6520 0
-6755 6756 0
6756 -6456 6555 0
6756 -6525 6555 0
-6756 -6555 0
-6756 6456 6525 0
-6757 6509 -6455 0
-6757 6509 6758 0
-6757 -6509 6455 -6758 0
6757 -6509 -6455 0
6757 -6509 6758 0
6757 6509 6455 -6758 0
6758 6505 -6754 0
-6758 -6505 0
-6758 6754 0
-6759 6760 6761 0
6759 -6760 0
6759 -6761 0
-6760 6512 -6455 0
-6760 6512 6755 0
-6760 -6512 6455 -6755 0
6760 -6512 -6455 0
6760 -6512 6755 0
6760 6512 6455 -6755 0
-6761 6513 -6455 0
-6761 6513 6762 0
-6761 -6513 6455 -6762 0
6761 -6513 -6455 0
6761 -6513 6762 0
6761 6513 6455 -6762 0
6762 6512 -6755 0
-6762 -6512 0
-6762 6755 0
-6763 6764 6768 0
6763 -6764 0
6763 -6768 0
-6764 6765 6766 0
6764 -6765 0
6764 -6766 0
-6765 6517 -6455 0
-6765 6517 6756 0
-6765 -6517 6455 -6756 0
6765 -6517 -6455 0
6765 -6517 6756 0
6765 6517 6455 -6756 0
-6766 6518 -6455 0
-6766 6518 6767 0
-6766 -6518 6455 -6767 0
6766 -6518 -6455 0
6766 -6518 6767 0
6766 6518 6455 -6767 0
6767 6517 -6756 0
-6767 -6517 0
-6767 6756 0
-6768 6769 6771 0
6768 -6769 0
6768 -6771 0
-6769 6521 -6455 0
-6769 6521 6770 0
-6769 -6521 6455 -6770 0
6769 -6521 -6455 0
6769 -6521 6770 0
6769 6521 6455 -6770 0
6770 6516 -6756 0
-6770 -6516 0
-6770 6756 0
-6771 6523 -6455 0
-6771 6523 6772 0
-6771 -6523 6455 -6772 0
6771 -6523 -6455 0
6771 -6523 6772 0
6771 6523 6455 -6772 0
6772 6521 -6770 0
-6772 -6521 0
-6772 6770 0
-6773 6774 6788 0
6773 -6774 0
6773 -6788 0
-6774 6775 6781 0
6774 -6775 0
6774 -6781 0
-6775 6776 6778 0
6775 -6776 0
6775 -6778 0
6776 -8301 6777 0
6776 8301 -6777 0
-6776 8301 6777 0
-6776 -8301 -6777 0
-6777 6529 -6455 0
-6777 -6456 -6528 6455 0
-6777 6456 6528 6455 0
6777 -6529 -6455 0
6777 -6456 6528 6455 0
6777 6456 -6528 6455 0
6778 -8302 6779 0
6778 8302 -6779 0
-6778 8302 6779 0
-6778 -8302 -6779 0
-6779 6531 -6455 0
-6779 6530 6455 6780 0
-6779 -6530 6455 -6780 0
6779 -6531 -6455 0
6779 6530 6455 -6780 0
6779 -6530 6455 6780 0
6780 -6456 6559 0
6780 -6528 6559 0
-6780 -6559 0
-6780 6456 6528 0
-6781 6782 6785 0
6781 -6782 0
6781 -6785 0
6782 -8303 6783 0
6782 8303 -6783 0
-6782 8303 6783 0
-6782 -8303 -6783 0
-6783 6535 -6455 0
-6783 6534 6455 6784 0
-6783 -6534 6455 -6784 0
6783 -6535 -6455 0
6783 6534 6455 -6784 0
6783 -6534 6455 6784 0
6784 -6456 6558 0
6784 -6527 6558 0
-6784 -6558 0
-6784 6456 6527 0
6785 -8304 6786 0
6785 8304 -6786 0
-6785 8304 6786 0
-6785 -8304 -6786 0
-6786 6538 -6455 0
-6786 6537 6455 6787 0
-6786 -6537 6455 -6787 0
6786 -6538 -6455 0
6786 6537 6455 -6787 0
6786 -6537 6455 6787 0
6787 -6534 6560 0
6787 6560 -6784 0
-6787 -6560 0
-6787 6534 6784 0
-6788 6789 6796 0
6788 -6789 0
6788 -6796 0
-6789 6790 6793 0
6789 -6790 0
6789 -6793 0
6790 -8305 6791 0
6790 8305 -6791 0
-6790 8305 6791 0
-6790 -8305 -6791 0
-6791 6543 -6455 0
-6791 6542 6455 6792 0
-6791 -6542 6455 -6792 0
6791 -6543 -6455 0
6791 6542 6455 -6792 0
6791 -6542 6455 6792 0
6792 -6456 6556 0
6792 -6526 6556 0
-6792 -6556 0
-6792 6456 6526 0
6793 -8306 6794 0
6793 8306 -6794 0
-6793 8306 6794 0
-6793 -8306 -6794 0
-6794 6546 -6455 0
-6794 6545 6455 6795 0
-6794 -6545 6455 -6795 0
6794 -6546 -6455 0
6794 6545 6455 -6795 0
6794 -6545 6455 6795 0
6795 -6542 6563 0
6795 6563 -6792 0
-6795 -6563 0
-6795 6542 6792 0
-6796 6797 6799 0
6796 -6797 0
6796 -6799 0
-6797 6550 -6455 0
-6797 6549 6455 6798 0
-6797 -6549 6455 -6798 0
6797 -6550 -6455 0
6797 6549 6455 -6798 0
6797 -6549 6455 6798 0
6798 -6541 6562 0
6798 6562 -6792 0
-6798 -6562 0
-6798 6541 6792 0
-6799 6552 -6455 0
-6799 6552 6800 0
-6799 -6552 6455 -6800 0
6799 -6552 -6455 0
6799 -6552 6800 0
6799 6552 6455 -6800 0
6800 -6549 6564 0
6800 6564 -6798 0
-6800 -6564 0
-6800 6549 6798 0
-6801 6802 6810 0
-6801 -6750 6810 0
6801 -6810 0
6801 6750 -6802 0
-6802 -6789 6796 6808 0
-6802 6796 6803 6808 0
6802 -6808 0
6802 -6796 0
6802 6789 -6803 0
-6803 -8304 6804 6807 0
-6803 -8304 6786 6804 0
-6803 6786 6804 6807 0
6803 -6786 -6807 0
6803 8304 -6807 0
6803 -6804 0
6803 8304 -6786 0
6804 6781 -6805 0
-6804 -6781 0
-6804 6805 0
-6805 -8302 6779 0
-6805 6779 6806 0
-6805 -8302 6806 0
6805 -6779 -6806 0
6805 8302 -6779 0
6805 8302 -6806 0
6806 8301 -6777 0
-6806 -8301 0
-6806 6777 0
6807 8303 -6783 0
-6807 -8303 0
-6807 6783 0
-6808 -8306 6794 0
-6808 6794 6809 0
-6808 -8306 6809 0
6808 -6794 -6809 0
6808 8306 -6794 0
6808 8306 -6809 0
6809 8305 -6791 0
-6809 -8305 0
-6809 6791 0
-6810 6752 6759 6764 6768 0
6810 -6768 0
6810 -6752 0
6810 -6764 0
6810 -6759 0
-6811 6068 6812 6708 6817 0
6811 -6817 0
6811 -6068 0
6811 -6708 0
6811 -6812 0
-6812 6813 6702 0
6812 -6813 0
6812 -6702 0
-6813 6814 6815 0
6813 -6814 0
6813 -6815 0
-6814 6315 0
6814 -6315 0
-6815 6816 0
6815 -6816 0
-6816 6316 0
6816 -6316 0
-6817 5810 6818 0
6817 -5810 0
6817 -6818 0
-6818 6819 0
6818 -6819 0
-6819 6075 0
6819 -6075 0
6820 -6821 6954 7081 -7204 0
6820 6821 -6954 7081 -7204 0
6820 -6821 6954 -7081 7204 0
6820 6821 -6954 -7081 7204 0
-6820 -6821 -6954 0
-6820 6821 6954 0
-6820 -7081 -7204 0
-6820 7081 7204 0
-6821 -1162 -6823 0
-6821 1162 -4025 -6822 0
-6821 1162 4025 6822 0
6821 -1162 6823 0
6821 1162 4025 -6822 0
6821 1162 -4025 6822 0
-6822 817 4026 0
-6822 817 4027 0
6822 -817 0
6822 -4026 -4027 0
6823 1115 -6825 0
6823 -1115 1137 6824 0
6823 -1115 -1137 -6824 0
-6823 1115 6825 0
-6823 -1115 -1137 6824 0
-6823 -1115 1137 -6824 0
6824 -1138 1148 0
6824 -1139 1148 0
-6824 -1148 0
-6824 1138 1139 0
6825 1092 -6827 0
6825 -1009 -1092 -6826 0
6825 1009 -1092 6826 0
-6825 1092 6827 0
-6825 -1009 -1092 6826 0
-6825 1009 -1092 -6826 0
-6826 1023 1041 0
-6826 1032 1041 0
6826 -1041 0
6826 -1023 -1032 0
6827 -6885 6936 0
6827 -6828 6936 -6947 0
-6827 -6936 0
-6827 6885 6947 0
-6827 6828 6885 0
6828 -6844 6874 6880 0
6828 -6829 6874 6880 0
-6828 -6880 0
-6828 -6874 0
-6828 6829 6844 0
6829 -6835 6842 0
6829 -6830 6841 6842 0
-6829 -6842 0
-6829 6835 -6841 0
-6829 6830 6835 0
-6830 6831 6832 0
6830 -6831 0
6830 -6832 0
-6831 6693 0
6831 -6693 0
6832 -8291 6833 0
6832 8291 -6833 0
-6832 8291 6833 0
-6832 -8291 -6833 0
-6833 6834 0
6833 -6834 0
-6834 6694 0
6834 -6694 0
-6835 6836 6838 0
6835 -6836 0
6835 -6838 0
6836 -8292 6837 0
6836 8292 -6837 0
-6836 8292 6837 0
-6836 -8292 -6837 0
-6837 6582 -6577 0
-6837 6581 6577 0
6837 -6581 6577 0
6837 -6582 -6577 0
6838 -8293 6839 0
6838 8293 -6839 0
-6838 8293 6839 0
-6838 -8293 -6839 0
-6839 6584 -6577 0
-6839 6583 6577 6840 0
-6839 -6583 6577 -6840 0
6839 -6584 -6577 0
6839 6583 6577 -6840 0
6839 -6583 6577 6840 0
6840 -8291 6582 0
-6840 8291 0
-6840 -6582 0
-6841 -8291 6831 0
-6841 6831 6833 0
-6841 -8291 6833 0
6841 8291 -6833 0
6841 -6831 -6833 0
6841 8291 -6831 0
-6842 -8293 6839 0
-6842 6839 6843 0
-6842 -8293 6843 0
6842 -6839 -6843 0
6842 8293 -6839 0
6842 8293 -6843 0
6843 8292 -6837 0
-6843 -8292 0
-6843 6837 0
-6844 6845 6859 0
6844 -6845 0
6844 -6859 0
-6845 6846 6852 0
6845 -6846 0
6845 -6852 0
-6846 6847 6849 0
6846 -6847 0
6846 -6849 0
6847 -8294 6848 0
6847 8294 -6848 0
-6847 8294 6848 0
-6847 -8294 -6848 0
-6848 6591 -6577 0
-6848 -6579 -6590 6577 0
-6848 6579 6590 6577 0
6848 -6591 -6577 0
6848 -6579 6590 6577 0
6848 6579 -6590 6577 0
6849 -8295 6850 0
6849 8295 -6850 0
-6849 8295 6850 0
-6849 -8295 -6850 0
-6850 6593 -6577 0
-6850 6592 6577 6851 0
-6850 -6592 6577 -6851 0
6850 -6593 -6577 0
6850 6592 6577 -6851 0
6850 -6592 6577 6851 0
6851 -6579 6621 0
6851 -6590 6621 0
-6851 -6621 0
-6851 6579 6590 0
-6852 6853 6856 0
6852 -6853 0
6852 -6856 0
6853 -8296 6854 0
6853 8296 -6854 0
-6853 8296 6854 0
-6853 -8296 -6854 0
-6854 6597 -6577 0
-6854 6596 6577 6855 0
-6854 -6596 6577 -6855 0
6854 -6597 -6577 0
6854 6596 6577 -6855 0
6854 -6596 6577 6855 0
6855 -6579 6620 0
6855 -6589 6620 0
-6855 -6620 0
-6855 6579 6589 0
6856 -8297 6857 0
6856 8297 -6857 0
-6856 8297 6857 0
-6856 -8297 -6857 0
-6857 6600 -6577 0
-6857 6599 6577 6858 0
-6857 -6599 6577 -6858 0
6857 -6600 -6577 0
6857 6599 6577 -6858 0
6857 -6599 6577 6858 0
6858 -6596 6622 0
6858 6622 -6855 0
-6858 -6622 0
-6858 6596 6855 0
-6859 6860 6867 0
6859 -6860 0
6859 -6867 0
-6860 6861 6864 0
6860 -6861 0
6860 -6864 0
6861 -8298 6862 0
6861 8298 -6862 0
-6861 8298 6862 0
-6861 -8298 -6862 0
-6862 6605 -6577 0
-6862 6604 6577 6863 0
-6862 -6604 6577 -6863 0
6862 -6605 -6577 0
6862 6604 6577 -6863 0
6862 -6604 6577 6863 0
6863 -6579 6618 0
6863 -6588 6618 0
-6863 -6618 0
-6863 6579 6588 0
6864 -8299 6865 0
6864 8299 -6865 0
-6864 8299 6865 0
-6864 -8299 -6865 0
-6865 6608 -6577 0
-6865 6607 6577 6866 0
-6865 -6607 6577 -6866 0
6865 -6608 -6577 0
6865 6607 6577 -6866 0
6865 -6607 6577 6866 0
6866 -6604 6626 0
6866 6626 -6863 0
-6866 -6626 0
-6866 6604 6863 0
-6867 6868 6871 0
6867 -6868 0
6867 -6871 0
6868 -8300 6869 0
6868 8300 -6869 0
-6868 8300 6869 0
-6868 -8300 -6869 0
-6869 6612 -6577 0
-6869 6611 6577 6870 0
-6869 -6611 6577 -6870 0
6869 -6612 -6577 0
6869 6611 6577 -6870 0
6869 -6611 6577 6870 0
6870 -6603 6625 0
6870 6625 -6863 0
-6870 -6625 0
-6870 6603 6863 0
6871 -8301 6872 0
6871 8301 -6872 0
-6871 8301 6872 0
-6871 -8301 -6872 0
-6872 6615 -6577 0
-6872 6614 6577 6873 0
-6872 -6614 6577 -6873 0
6872 -6615 -6577 0
6872 6614 6577 -6873 0
6872 -6614 6577 6873 0
6873 -6611 6627 0
6873 6627 -6870 0
-6873 -6627 0
-6873 6611 6870 0
6874 6859 -6875 0
-6874 -6859 0
-6874 6875 0
-6875 -8297 6876 6879 0
-6875 -8297 6857 6876 0
-6875 6857 6876 6879 0
6875 -6857 -6879 0
6875 8297 -6879 0
6875 -6876 0
6875 8297 -6857 0
6876 6852 -6877 0
-6876 -6852 0
-6876 6877 0
-6877 -8295 6850 0
-6877 6850 6878 0
-6877 -8295 6878 0
6877 -6850 -6878 0
6877 8295 -6850 0
6877 8295 -6878 0
6878 8294 -6848 0
-6878 -8294 0
-6878 6848 0
6879 8296 -6854 0
-6879 -8296 0
-6879 6854 0
-6880 -8301 6881 6884 0
-6880 -8301 6872 6881 0
-6880 6872 6881 6884 0
6880 -6872 -6884 0
6880 8301 -6884 0
6880 -6881 0
6880 8301 -6872 0
6881 6867 -6882 0
-6881 -6867 0
-6881 6882 0
-6882 -8299 6865 0
-6882 6865 6883 0
-6882 -8299 6883 0
6882 -6865 -6883 0
6882 8299 -6865 0
6882 8299 -6883 0
6883 8298 -6862 0
-6883 -8298 0
-6883 6862 0
6884 8300 -6869 0
-6884 -8300 0
-6884 6869 0
-6885 6886 6909 0
6885 -6886 0
6885 -6909 0
-6886 6887 6899 0
6886 -6887 0
6886 -6899 0
-6887 6888 6895 0
6887 -6888 0
6887 -6895 0
-6888 6889 6893 0
6888 -6889 0
6888 -6893 0
-6889 6632 -6577 0
-6889 6632 6890 0
-6889 -6632 6577 -6890 0
6889 -6632 -6577 0
6889 -6632 6890 0
6889 6632 6577 -6890 0
6890 6638 -6891 0
-6890 -6638 0
-6890 6891 0
6891 6643 6647 -6892 0
-6891 -6643 0
-6891 -6647 0
-6891 6892 0
6892 -6578 6681 0
6892 -6652 6681 0
-6892 -6681 0
-6892 6578 6652 0
-6893 6636 -6577 0
-6893 6636 6894 0
-6893 -6636 6577 -6894 0
6893 -6636 -6577 0
6893 -6636 6894 0
6893 6636 6577 -6894 0
6894 6632 -6890 0
-6894 -6632 0
-6894 6890 0
-6895 6896 6897 0
6895 -6896 0
6895 -6897 0
-6896 6639 -6577 0
-6896 6639 6891 0
-6896 -6639 6577 -6891 0
6896 -6639 -6577 0
6896 -6639 6891 0
6896 6639 6577 -6891 0
-6897 6640 -6577 0
-6897 6640 6898 0
-6897 -6640 6577 -6898 0
6897 -6640 -6577 0
6897 -6640 6898 0
6897 6640 6577 -6898 0
6898 6639 -6891 0
-6898 -6639 0
-6898 6891 0
-6899 6900 6904 0
6899 -6900 0
6899 -6904 0
-6900 6901 6902 0
6900 -6901 0
6900 -6902 0
-6901 6644 -6577 0
-6901 6644 6892 0
-6901 -6644 6577 -6892 0
6901 -6644 -6577 0
6901 -6644 6892 0
6901 6644 6577 -6892 0
-6902 6645 -6577 0
-6902 6645 6903 0
-6902 -6645 6577 -6903 0
6902 -6645 -6577 0
6902 -6645 6903 0
6902 6645 6577 -6903 0
6903 6644 -6892 0
-6903 -6644 0
-6903 6892 0
-6904 6905 6907 0
6904 -6905 0
6904 -6907 0
-6905 6648 -6577 0
-6905 6648 6906 0
-6905 -6648 6577 -6906 0
6905 -6648 -6577 0
6905 -6648 6906 0
6905 6648 6577 -6906 0
6906 6643 -6892 0
-6906 -6643 0
-6906 6892 0
-6907 6650 -6577 0
-6907 6650 6908 0
-6907 -6650 6577 -6908 0
6907 -6650 -6577 0
6907 -6650 6908 0
6907 6650 6577 -6908 0
6908 6648 -6906 0
-6908 -6648 0
-6908 6906 0
-6909 6910 6924 0
6909 -6910 0
6909 -6924 0
-6910 6911 6917 0
6910 -6911 0
6910 -6917 0
-6911 6912 6914 0
6911 -6912 0
6911 -6914 0
6912 -8302 6913 0
6912 8302 -6913 0
-6912 8302 6913 0
-6912 -8302 -6913 0
-6913 6656 -6577 0
-6913 -6578 -6655 6577 0
-6913 6578 6655 6577 0
6913 -6656 -6577 0
6913 -6578 6655 6577 0
6913 6578 -6655 6577 0
6914 -8303 6915 0
6914 8303 -6915 0
-6914 8303 6915 0
-6914 -8303 -6915 0
-6915 6658 -6577 0
-6915 6657 6577 6916 0
-6915 -6657 6577 -6916 0
6915 -6658 -6577 0
6915 6657 6577 -6916 0
6915 -6657 6577 6916 0
6916 -6578 6685 0
6916 -6655 6685 0
-6916 -6685 0
-6916 6578 6655 0
-6917 6918 6921 0
6917 -6918 0
6917 -6921 0
6918 -8304 6919 0
6918 8304 -6919 0
-6918 8304 6919 0
-6918 -8304 -6919 0
-6919 6662 -6577 0
-6919 6661 6577 6920 0
-6919 -6661 6577 -6920 0
6919 -6662 -6577 0
6919 6661 6577 -6920 0
6919 -6661 6577 6920 0
6920 -6578 6684 0
6920 -6654 6684 0
-6920 -6684 0
-6920 6578 6654 0
6921 -8305 6922 0
6921 8305 -6922 0
-6921 8305 6922 0
-6921 -8305 -6922 0
-6922 6665 -6577 0
-6922 6664 6577 6923 0
-6922 -6664 6577 -6923 0
6922 -6665 -6577 0
6922 6664 6577 -6923 0
6922 -6664 6577 6923 0
6923 -6661 6686 0
6923 6686 -6920 0
-6923 -6686 0
-6923 6661 6920 0
-6924 6925 6931 0
6924 -6925 0
6924 -6931 0
-6925 6926 6929 0
6925 -6926 0
6925 -6929 0
6926 -8306 6927 0
6926 8306 -6927 0
-6926 8306 6927 0
-6926 -8306 -6927 0
-6927 6670 -6577 0
-6927 6669 6577 6928 0
-6927 -6669 6577 -6928 0
6927 -6670 -6577 0
6927 6669 6577 -6928 0
6927 -6669 6577 6928 0
6928 -6578 6682 0
6928 -6653 6682 0
-6928 -6682 0
-6928 6578 6653 0
-6929 6673 -6577 0
-6929 6672 6577 6930 0
-6929 -6672 6577 -6930 0
6929 -6673 -6577 0
6929 6672 6577 -6930 0
6929 -6672 6577 6930 0
6930 -6669 6688 0
6930 6688 -6928 0
-6930 -6688 0
-6930 6669 6928 0
-6931 6932 6934 0
6931 -6932 0
6931 -6934 0
-6932 6676 -6577 0
-6932 6676 6933 0
-6932 -6676 6577 -6933 0
6932 -6676 -6577 0
6932 -6676 6933 0
6932 6676 6577 -6933 0
6933 -6668 6687 0
6933 6687 -6928 0
-6933 -6687 0
-6933 6668 6928 0
-6934 6678 -6577 0
-6934 6678 6935 0
-6934 -6678 6577 -6935 0
6934 -6678 -6577 0
6934 -6678 6935 0
6934 6678 6577 -6935 0
6935 6676 -6933 0
-6935 -6676 0
-6935 6933 0
-6936 6888 6895 6937 6946 0
6936 -6946 0
6936 -6888 0
6936 -6895 0
6936 -6937 0
6937 6886 -6938 0
-6937 -6886 0
-6937 6938 0
-6938 -6925 6931 6944 0
-6938 6931 6939 6944 0
6938 -6944 0
6938 -6931 0
6938 6925 -6939 0
-6939 -8305 6940 6943 0
-6939 -8305 6922 6940 0
-6939 6922 6940 6943 0
6939 -6922 -6943 0
6939 8305 -6943 0
6939 -6940 0
6939 8305 -6922 0
6940 6917 -6941 0
-6940 -6917 0
-6940 6941 0
-6941 -8303 6915 0
-6941 6915 6942 0
-6941 -8303 6942 0
6941 -6915 -6942 0
6941 8303 -6915 0
6941 8303 -6942 0
6942 8302 -6913 0
-6942 -8302 0
-6942 6913 0
6943 8304 -6919 0
-6943 -8304 0
-6943 6919 0
-6944 6929 6945 0
6944 -6929 0
6944 -6945 0
6945 8306 -6927 0
-6945 -8306 0
-6945 6927 0
-6946 6900 6904 0
6946 -6900 0
6946 -6904 0
-6947 6948 6844 6949 6952 0
6947 -6952 0
6947 -6948 0
6947 -6949 0
6947 -6844 0
-6948 8291 6831 6833 6835 0
-6948 -8291 6831 -6833 6835 0
6948 -6835 0
6948 -8291 6833 0
6948 -6831 0
6948 8291 -6833 0
-6949 6950 6951 0
6949 -6950 0
6949 -6951 0
-6950 5941 0
6950 -5941 0
-6951 5943 0
6951 -5943 0
-6952 6697 6953 0
6952 -6697 0
6952 -6953 0
-6953 6199 0
6953 -6199 0
6954 -7012 7063 0
6954 -6955 7063 -7074 0
-6954 -7063 0
-6954 7012 7074 0
-6954 6955 7012 0
6955 -6971 7001 7007 0
6955 -6956 7001 7007 0
-6955 -7007 0
-6955 -7001 0
-6955 6956 6971 0
6956 -6962 6969 0
6956 -6957 6968 6969 0
-6956 -6969 0
-6956 6962 -6968 0
-6956 6957 6962 0
-6957 6958 6959 0
6957 -6958 0
6957 -6959 0
-6958 6814 0
6958 -6814 0
6959 -8291 6960 0
6959 8291 -6960 0
-6959 8291 6960 0
-6959 -8291 -6960 0
-6960 6961 0
6960 -6961 0
-6961 6815 0
6961 -6815 0
-6962 6963 6965 0
6962 -6963 0
6962 -6965 0
6963 -8292 6964 0
6963 8292 -6964 0
-6963 8292 6964 0
-6963 -8292 -6964 0
-6964 6704 -6699 0
-6964 6703 6699 0
6964 -6703 6699 0
6964 -6704 -6699 0
6965 -8293 6966 0
6965 8293 -6966 0
-6965 8293 6966 0
-6965 -8293 -6966 0
-6966 6706 -6699 0
-6966 6705 6699 6967 0
-6966 -6705 6699 -6967 0
6966 -6706 -6699 0
6966 6705 6699 -6967 0
6966 -6705 6699 6967 0
6967 -8291 6704 0
-6967 8291 0
-6967 -6704 0
-6968 -8291 6958 0
-6968 6958 6960 0
-6968 -8291 6960 0
6968 8291 -6960 0
6968 -6958 -6960 0
6968 8291 -6958 0
-6969 -8293 6966 0
-6969 6966 6970 0
-6969 -8293 6970 0
6969 -6966 -6970 0
6969 8293 -6966 0
6969 8293 -6970 0
6970 8292 -6964 0
-6970 -8292 0
-6970 6964 0
-6971 6972 6986 0
6971 -6972 0
6971 -6986 0
-6972 6973 6979 0
6972 -6973 0
6972 -6979 0
-6973 6974 6976 0
6973 -6974 0
6973 -6976 0
6974 -8294 6975 0
6974 8294 -6975 0
-6974 8294 6975 0
-6974 -8294 -6975 0
-6975 6712 -6699 0
-6975 -6701 -6711 6699 0
-6975 6701 6711 6699 0
6975 -6712 -6699 0
6975 -6701 6711 6699 0
6975 6701 -6711 6699 0
6976 -8295 6977 0
6976 8295 -6977 0
-6976 8295 6977 0
-6976 -8295 -6977 0
-6977 6714 -6699 0
-6977 6713 6699 6978 0
-6977 -6713 6699 -6978 0
6977 -6714 -6699 0
6977 6713 6699 -6978 0
6977 -6713 6699 6978 0
6978 -6701 6742 0
6978 -6711 6742 0
-6978 -6742 0
-6978 6701 6711 0
-6979 6980 6983 0
6979 -6980 0
6979 -6983 0
6980 -8296 6981 0
6980 8296 -6981 0
-6980 8296 6981 0
-6980 -8296 -6981 0
-6981 6718 -6699 0
-6981 6717 6699 6982 0
-6981 -6717 6699 -6982 0
6981 -6718 -6699 0
6981 6717 6699 -6982 0
6981 -6717 6699 6982 0
6982 -6701 6741 0
6982 -6710 6741 0
-6982 -6741 0
-6982 6701 6710 0
6983 -8297 6984 0
6983 8297 -6984 0
-6983 8297 6984 0
-6983 -8297 -6984 0
-6984 6721 -6699 0
-6984 6720 6699 6985 0
-6984 -6720 6699 -6985 0
6984 -6721 -6699 0
6984 6720 6699 -6985 0
6984 -6720 6699 6985 0
6985 -6717 6743 0
6985 6743 -6982 0
-6985 -6743 0
-6985 6717 6982 0
-6986 6987 6994 0
6986 -6987 0
6986 -6994 0
-6987 6988 6991 0
6987 -6988 0
6987 -6991 0
6988 -8298 6989 0
6988 8298 -6989 0
-6988 8298 6989 0
-6988 -8298 -6989 0
-6989 6726 -6699 0
-6989 6725 6699 6990 0
-6989 -6725 6699 -6990 0
6989 -6726 -6699 0
6989 6725 6699 -6990 0
6989 -6725 6699 6990 0
6990 -6701 6739 0
6990 -6709 6739 0
-6990 -6739 0
-6990 6701 6709 0
6991 -8299 6992 0
6991 8299 -6992 0
-6991 8299 6992 0
-6991 -8299 -6992 0
-6992 6729 -6699 0
-6992 6728 6699 6993 0
-6992 -6728 6699 -6993 0
6992 -6729 -6699 0
6992 6728 6699 -6993 0
6992 -6728 6699 6993 0
6993 -6725 6747 0
6993 6747 -6990 0
-6993 -6747 0
-6993 6725 6990 0
-6994 6995 6998 0
6994 -6995 0
6994 -6998 0
6995 -8300 6996 0
6995 8300 -6996 0
-6995 8300 6996 0
-6995 -8300 -6996 0
-6996 6733 -6699 0
-6996 6732 6699 6997 0
-6996 -6732 6699 -6997 0
6996 -6733 -6699 0
6996 6732 6699 -6997 0
6996 -6732 6699 6997 0
6997 -6724 6746 0
6997 6746 -6990 0
-6997 -6746 0
-6997 6724 6990 0
6998 -8301 6999 0
6998 8301 -6999 0
-6998 8301 6999 0
-6998 -8301 -6999 0
-6999 6736 -6699 0
-6999 6735 6699 7000 0
-6999 -6735 6699 -7000 0
6999 -6736 -6699 0
6999 6735 6699 -7000 0
6999 -6735 6699 7000 0
7000 -6732 6748 0
7000 6748 -6997 0
-7000 -6748 0
-7000 6732 6997 0
7001 6986 -7002 0
-7001 -6986 0
-7001 7002 0
-7002 -8297 7003 7006 0
-7002 -8297 6984 7003 0
-7002 6984 7003 7006 0
7002 -6984 -7006 0
7002 8297 -7006 0
7002 -7003 0
7002 8297 -6984 0
7003 6979 -7004 0
-7003 -6979 0
-7003 7004 0
-7004 -8295 6977 0
-7004 6977 7005 0
-7004 -8295 7005 0
7004 -6977 -7005 0
7004 8295 -6977 0
7004 8295 -7005 0
7005 8294 -6975 0
-7005 -8294 0
-7005 6975 0
7006 8296 -6981 0
-7006 -8296 0
-7006 6981 0
-7007 -8301 7008 7011 0
-7007 -8301 6999 7008 0
-7007 6999 7008 7011 0
7007 -6999 -7011 0
7007 8301 -7011 0
7007 -7008 0
7007 8301 -6999 0
7008 6994 -7009 0
-7008 -6994 0
-7008 7009 0
-7009 -8299 6992 0
-7009 6992 7010 0
-7009 -8299 7010 0
7009 -6992 -7010 0
7009 8299 -6992 0
7009 8299 -7010 0
7010 8298 -6989 0
-7010 -8298 0
-7010 6989 0
7011 8300 -6996 0
-7011 -8300 0
-7011 6996 0
-7012 7013 7036 0
7012 -7013 0
7012 -7036 0
-7013 7014 7026 0
7013 -7014 0
7013 -7026 0
-7014 7015 7022 0
7014 -7015 0
7014 -7022 0
-7015 7016 7020 0
7015 -7016 0
7015 -7020 0
-7016 6753 -6699 0
-7016 6753 7017 0
-7016 -6753 6699 -7017 0
7016 -6753 -6699 0
7016 -6753 7017 0
7016 6753 6699 -7017 0
7017 6759 -7018 0
-7017 -6759 0
-7017 7018 0
7018 6764 6768 -7019 0
-7018 -6764 0
-7018 -6768 0
-7018 7019 0
7019 -6700 6802 0
7019 -6773 6802 0
-7019 -6802 0
-7019 6700 6773 0
-7020 6757 -6699 0
-7020 6757 7021 0
-7020 -6757 6699 -7021 0
7020 -6757 -6699 0
7020 -6757 7021 0
7020 6757 6699 -7021 0
7021 6753 -7017 0
-7021 -6753 0
-7021 7017 0
-7022 7023 7024 0
7022 -7023 0
7022 -7024 0
-7023 6760 -6699 0
-7023 6760 7018 0
-7023 -6760 6699 -7018 0
7023 -6760 -6699 0
7023 -6760 7018 0
7023 6760 6699 -7018 0
-7024 6761 -6699 0
-7024 6761 7025 0
-7024 -6761 6699 -7025 0
7024 -6761 -6699 0
7024 -6761 7025 0
7024 6761 6699 -7025 0
7025 6760 -7018 0
-7025 -6760 0
-7025 7018 0
-7026 7027 7031 0
7026 -7027 0
7026 -7031 0
-7027 7028 7029 0
7027 -7028 0
7027 -7029 0
-7028 6765 -6699 0
-7028 6765 7019 0
-7028 -6765 6699 -7019 0
7028 -6765 -6699 0
7028 -6765 7019 0
7028 6765 6699 -7019 0
-7029 6766 -6699 0
-7029 6766 7030 0
-7029 -6766 6699 -7030 0
7029 -6766 -6699 0
7029 -6766 7030 0
7029 6766 6699 -7030 0
7030 6765 -7019 0
-7030 -6765 0
-7030 7019 0
-7031 7032 7034 0
7031 -7032 0
7031 -7034 0
-7032 6769 -6699 0
-7032 6769 7033 0
-7032 -6769 6699 -7033 0
7032 -6769 -6699 0
7032 -6769 7033 0
7032 6769 6699 -7033 0
7033 6764 -7019 0
-7033 -6764 0
-7033 7019 0
-7034 6771 -6699 0
-7034 6771 7035 0
-7034 -6771 6699 -7035 0
7034 -6771 -6699 0
7034 -6771 7035 0
7034 6771 6699 -7035 0
7035 6769 -7033 0
-7035 -6769 0
-7035 7033 0
-7036 7037 7051 0
7036 -7037 0
7036 -7051 0
-7037 7038 7044 0
7037 -7038 0
7037 -7044 0
-7038 7039 7041 0
7038 -7039 0
7038 -7041 0
7039 -8302 7040 0
7039 8302 -7040 0
-7039 8302 7040 0
-7039 -8302 -7040 0
-7040 6777 -6699 0
-7040 -6700 -6776 6699 0
-7040 6700 6776 6699 0
7040 -6777 -6699 0
7040 -6700 6776 6699 0
7040 6700 -6776 6699 0
7041 -8303 7042 0
7041 8303 -7042 0
-7041 8303 7042 0
-7041 -8303 -7042 0
-7042 6779 -6699 0
-7042 6778 6699 7043 0
-7042 -6778 6699 -7043 0
7042 -6779 -6699 0
7042 6778 6699 -7043 0
7042 -6778 6699 7043 0
7043 -6700 6806 0
7043 -6776 6806 0
-7043 -6806 0
-7043 6700 6776 0
-7044 7045 7048 0
7044 -7045 0
7044 -7048 0
7045 -8304 7046 0
7045 8304 -7046 0
-7045 8304 7046 0
-7045 -8304 -7046 0
-7046 6783 -6699 0
-7046 6782 6699 7047 0
-7046 -6782 6699 -7047 0
7046 -6783 -6699 0
7046 6782 6699 -7047 0
7046 -6782 6699 7047 0
7047 -6700 6805 0
7047 -6775 6805 0
-7047 -6805 0
-7047 6700 6775 0
7048 -8305 7049 0
7048 8305 -7049 0
-7048 8305 7049 0
-7048 -8305 -7049 0
-7049 6786 -6699 0
-7049 6785 6699 7050 0
-7049 -6785 6699 -7050 0
7049 -6786 -6699 0
7049 6785 6699 -7050 0
7049 -6785 6699 7050 0
7050 -6782 6807 0
7050 6807 -7047 0
-7050 -6807 0
-7050 6782 7047 0
-7051 7052 7058 0
7051 -7052 0
7051 -7058 0
-7052 7053 7056 0
7052 -7053 0
7052 -7056 0
7053 -8306 7054 0
7053 8306 -7054 0
-7053 8306 7054 0
-7053 -8306 -7054 0
-7054 6791 -6699 0
-7054 6790 6699 7055 0
-7054 -6790 6699 -7055 0
7054 -6791 -6699 0
7054 6790 6699 -7055 0
7054 -6790 6699 7055 0
7055 -6700 6803 0
7055 -6774 6803 0
-7055 -6803 0
-7055 6700 6774 0
-7056 6794 -6699 0
-7056 6793 6699 7057 0
-7056 -6793 6699 -7057 0
7056 -6794 -6699 0
7056 6793 6699 -7057 0
7056 -6793 6699 7057 0
7057 -6790 6809 0
7057 6809 -7055 0
-7057 -6809 0
-7057 6790 7055 0
-7058 7059 7061 0
7058 -7059 0
7058 -7061 0
-7059 6797 -6699 0
-7059 6797 7060 0
-7059 -6797 6699 -7060 0
7059 -6797 -6699 0
7059 -6797 7060 0
7059 6797 6699 -7060 0
7060 -6789 6808 0
7060 6808 -7055 0
-7060 -6808 0
-7060 6789 7055 0
-7061 6799 -6699 0
-7061 6799 7062 0
-7061 -6799 6699 -7062 0
7061 -6799 -6699 0
7061 -6799 7062 0
7061 6799 6699 -7062 0
7062 6797 -7060 0
-7062 -6797 0
-7062 7060 0
-7063 7015 7022 7064 7073 0
7063 -7073 0
7063 -7015 0
7063 -7022 0
7063 -7064 0
7064 7013 -7065 0
-7064 -7013 0
-7064 7065 0
-7065 -7052 7058 7071 0
-7065 7058 7066 7071 0
7065 -7071 0
7065 -7058 0
7065 7052 -7066 0
-7066 -8305 7067 7070 0
-7066 -8305 7049 7067 0
-7066 7049 7067 7070 0
7066 -7049 -7070 0
7066 8305 -7070 0
7066 -7067 0
7066 8305 -7049 0
7067 7044 -7068 0
-7067 -7044 0
-7067 7068 0
-7068 -8303 7042 0
-7068 7042 7069 0
-7068 -8303 7069 0
7068 -7042 -7069 0
7068 8303 -7042 0
7068 8303 -7069 0
7069 8302 -7040 0
-7069 -8302 0
-7069 7040 0
7070 8304 -7046 0
-7070 -8304 0
-7070 7046 0
-7071 7056 7072 0
7071 -7056 0
7071 -7072 0
7072 8306 -7054 0
-7072 -8306 0
-7072 7054 0
-7073 7027 7031 0
7073 -7027 0
7073 -7031 0
-7074 7075 6971 7076 7079 0
7074 -7079 0
7074 -7075 0
7074 -7076 0
7074 -6971 0
-7075 8291 6958 6960 6962 0
-7075 -8291 6958 -6960 6962 0
7075 -6962 0
7075 -8291 6960 0
7075 -6958 0
7075 8291 -6960 0
-7076 7077 7078 0
7076 -7077 0
7076 -7078 0
-7077 6069 0
7077 -6069 0
-7078 6071 0
7078 -6071 0
-7079 6818 7080 0
7079 -6818 0
7079 -7080 0
-7080 6321 0
7080 -6321 0
-7081 -1162 -7082 0
-7081 1162 -4026 -4027 0
-7081 1162 4026 4027 0
7081 -1162 7082 0
7081 1162 4026 -4027 0
7081 1162 -4026 4027 0
7082 1115 -7083 0
7082 -1115 1138 1139 0
7082 -1115 -1138 -1139 0
-7082 1115 7083 0
-7082 -1115 -1138 1139 0
-7082 -1115 1138 -1139 0
7083 1092 -7084 0
7083 -1023 -1032 -1092 0
7083 1023 1032 -1092 0
-7083 1092 7084 0
-7083 1023 -1032 -1092 0
-7083 -1023 1032 -1092 0
7084 -7142 7192 0
7084 -7085 7192 -7200 0
-7084 -7192 0
-7084 7142 7200 0
-7084 7085 7142 0
7085 -7101 7131 7137 0
7085 -7086 7131 7137 0
-7085 -7137 0
-7085 -7131 0
-7085 7086 7101 0
7086 -7091 7099 0
7086 -7087 7098 7099 0
-7086 -7099 0
-7086 7091 -7098 0
-7086 7087 7091 0
-7087 7088 7089 0
7087 -7088 0
7087 -7089 0
7088 -8291 6831 0
7088 8291 -6831 0
-7088 8291 6831 0
-7088 -8291 -6831 0
7089 -8292 7090 0
7089 8292 -7090 0
-7089 8292 7090 0
-7089 -8292 -7090 0
-7090 6833 -6827 0
-7090 6832 6827 0
7090 -6832 6827 0
7090 -6833 -6827 0
-7091 7092 7095 0
7091 -7092 0
7091 -7095 0
7092 -8293 7093 0
7092 8293 -7093 0
-7092 8293 7093 0
-7092 -8293 -7093 0
-7093 6837 -6827 0
-7093 6836 6827 7094 0
-7093 -6836 6827 -7094 0
7093 -6837 -6827 0
7093 6836 6827 -7094 0
7093 -6836 6827 7094 0
7094 -8291 6833 0
-7094 8291 0
-7094 -6833 0
7095 -8294 7096 0
7095 8294 -7096 0
-7095 8294 7096 0
-7095 -8294 -7096 0
-7096 6839 -6827 0
-7096 6838 6827 7097 0
-7096 -6838 6827 -7097 0
7096 -6839 -6827 0
7096 6838 6827 -7097 0
7096 -6838 6827 7097 0
7097 -6836 6843 0
7097 6843 -7094 0
-7097 -6843 0
-7097 6836 7094 0
-7098 -8291 -8292 0
-7098 -8292 7090 0
-7098 -8291 7090 0
-7098 -8292 6831 0
-7098 6831 7090 0
7098 8292 -7090 0
7098 8291 -6831 -7090 0
7098 8291 8292 -6831 0
-7099 -8294 7096 0
-7099 7096 7100 0
-7099 -8294 7100 0
7099 -7096 -7100 0
7099 8294 -7096 0
7099 8294 -7100 0
7100 8293 -7093 0
-7100 -8293 0
-7100 7093 0
-7101 7102 7116 0
7101 -7102 0
7101 -7116 0
-7102 7103 7109 0
7102 -7103 0
7102 -7109 0
-7103 7104 7106 0
7103 -7104 0
7103 -7106 0
7104 -8295 7105 0
7104 8295 -7105 0
-7104 8295 7105 0
-7104 -8295 -7105 0
-7105 6848 -6827 0
-7105 -6829 -6847 6827 0
-7105 6829 6847 6827 0
7105 -6848 -6827 0
7105 -6829 6847 6827 0
7105 6829 -6847 6827 0
7106 -8296 7107 0
7106 8296 -7107 0
-7106 8296 7107 0
-7106 -8296 -7107 0
-7107 6850 -6827 0
-7107 6849 6827 7108 0
-7107 -6849 6827 -7108 0
7107 -6850 -6827 0
7107 6849 6827 -7108 0
7107 -6849 6827 7108 0
7108 -6829 6878 0
7108 -6847 6878 0
-7108 -6878 0
-7108 6829 6847 0
-7109 7110 7113 0
7109 -7110 0
7109 -7113 0
7110 -8297 7111 0
7110 8297 -7111 0
-7110 8297 7111 0
-7110 -8297 -7111 0
-7111 6854 -6827 0
-7111 6853 6827 7112 0
-7111 -6853 6827 -7112 0
7111 -6854 -6827 0
7111 6853 6827 -7112 0
7111 -6853 6827 7112 0
7112 -6829 6877 0
7112 -6846 6877 0
-7112 -6877 0
-7112 6829 6846 0
7113 -8298 7114 0
7113 8298 -7114 0
-7113 8298 7114 0
-7113 -8298 -7114 0
-7114 6857 -6827 0
-7114 6856 6827 7115 0
-7114 -6856 6827 -7115 0
7114 -6857 -6827 0
7114 6856 6827 -7115 0
7114 -6856 6827 7115 0
7115 -6853 6879 0
7115 6879 -7112 0
-7115 -6879 0
-7115 6853 7112 0
-7116 7117 7124 0
7116 -7117 0
7116 -7124 0
-7117 7118 7121 0
7117 -7118 0
7117 -7121 0
7118 -8299 7119 0
7118 8299 -7119 0
-7118 8299 7119 0
-7118 -8299 -7119 0
-7119 6862 -6827 0
-7119 6861 6827 7120 0
-7119 -6861 6827 -7120 0
7119 -6862 -6827 0
7119 6861 6827 -7120 0
7119 -6861 6827 7120 0
7120 -6829 6875 0
7120 -6845 6875 0
-7120 -6875 0
-7120 6829 6845 0
7121 -8300 7122 0
7121 8300 -7122 0
-7121 8300 7122 0
-7121 -8300 -7122 0
-7122 6865 -6827 0
-7122 6864 6827 7123 0
-7122 -6864 6827 -7123 0
7122 -6865 -6827 0
7122 6864 6827 -7123 0
7122 -6864 6827 7123 0
7123 -6861 6883 0
7123 6883 -7120 0
-7123 -6883 0
-7123 6861 7120 0
-7124 7125 7128 0
7124 -7125 0
7124 -7128 0
7125 -8301 7126 0
7125 8301 -7126 0
-7125 8301 7126 0
-7125 -8301 -7126 0
-7126 6869 -6827 0
-7126 6868 6827 7127 0
-7126 -6868 6827 -7127 0
7126 -6869 -6827 0
7126 6868 6827 -7127 0
7126 -6868 6827 7127 0
7127 -6860 6882 0
7127 6882 -7120 0
-7127 -6882 0
-7127 6860 7120 0
7128 -8302 7129 0
7128 8302 -7129 0
-7128 8302 7129 0
-7128 -8302 -7129 0
-7129 6872 -6827 0
-7129 6871 6827 7130 0
-7129 -6871 6827 -7130 0
7129 -6872 -6827 0
7129 6871 6827 -7130 0
7129 -6871 6827 7130 0
7130 -6868 6884 0
7130 6884 -7127 0
-7130 -6884 0
-7130 6868 7127 0
7131 7116 -7132 0
-7131 -7116 0
-7131 7132 0
-7132 -8298 7133 7136 0
-7132 -8298 7114 7133 0
-7132 7114 7133 7136 0
7132 -7114 -7136 0
7132 8298 -7136 0
7132 -7133 0
7132 8298 -7114 0
7133 7109 -7134 0
-7133 -7109 0
-7133 7134 0
-7134 -8296 7107 0
-7134 7107 7135 0
-7134 -8296 7135 0
7134 -7107 -7135 0
7134 8296 -7107 0
7134 8296 -7135 0
7135 8295 -7105 0
-7135 -8295 0
-7135 7105 0
7136 8297 -7111 0
-7136 -8297 0
-7136 7111 0
-7137 -8302 7138 7141 0
-7137 -8302 7129 7138 0
-7137 7129 7138 7141 0
7137 -7129 -7141 0
7137 8302 -7141 0
7137 -7138 0
7137 8302 -7129 0
7138 7124 -7139 0
-7138 -7124 0
-7138 7139 0
-7139 -8300 7122 0
-7139 7122 7140 0
-7139 -8300 7140 0
7139 -7122 -7140 0
7139 8300 -7122 0
7139 8300 -7140 0
7140 8299 -7119 0
-7140 -8299 0
-7140 7119 0
7141 8301 -7126 0
-7141 -8301 0
-7141 7126 0
-7142 7143 7166 0
7142 -7143 0
7142 -7166 0
-7143 7144 7156 0
7143 -7144 0
7143 -7156 0
-7144 7145 7152 0
7144 -7145 0
7144 -7152 0
-7145 7146 7150 0
7145 -7146 0
7145 -7150 0
-7146 6889 -6827 0
-7146 6889 7147 0
-7146 -6889 6827 -7147 0
7146 -6889 -6827 0
7146 -6889 7147 0
7146 6889 6827 -7147 0
7147 6895 -7148 0
-7147 -6895 0
-7147 7148 0
7148 6900 6904 -7149 0
-7148 -6900 0
-7148 -6904 0
-7148 7149 0
7149 -6828 6938 0
7149 -6909 6938 0
-7149 -6938 0
-7149 6828 6909 0
-7150 6893 -6827 0
-7150 6893 7151 0
-7150 -6893 6827 -7151 0
7150 -6893 -6827 0
7150 -6893 7151 0
7150 6893 6827 -7151 0
7151 6889 -7147 0
-7151 -6889 0
-7151 7147 0
-7152 7153 7154 0
7152 -7153 0
7152 -7154 0
-7153 6896 -6827 0
-7153 6896 7148 0
-7153 -6896 6827 -7148 0
7153 -6896 -6827 0
7153 -6896 7148 0
7153 6896 6827 -7148 0
-7154 6897 -6827 0
-7154 6897 7155 0
-7154 -6897 6827 -7155 0
7154 -6897 -6827 0
7154 -6897 7155 0
7154 6897 6827 -7155 0
7155 6896 -7148 0
-7155 -6896 0
-7155 7148 0
-7156 7157 7161 0
7156 -7157 0
7156 -7161 0
-7157 7158 7159 0
7157 -7158 0
7157 -7159 0
-7158 6901 -6827 0
-7158 6901 7149 0
-7158 -6901 6827 -7149 0
7158 -6901 -6827 0
7158 -6901 7149 0
7158 6901 6827 -7149 0
-7159 6902 -6827 0
-7159 6902 7160 0
-7159 -6902 6827 -7160 0
7159 -6902 -6827 0
7159 -6902 7160 0
7159 6902 6827 -7160 0
7160 6901 -7149 0
-7160 -6901 0
-7160 7149 0
-7161 7162 7164 0
7161 -7162 0
7161 -7164 0
-7162 6905 -6827 0
-7162 6905 7163 0
-7162 -6905 6827 -7163 0
7162 -6905 -6827 0
7162 -6905 7163 0
7162 6905 6827 -7163 0
7163 6900 -7149 0
-7163 -6900 0
-7163 7149 0
-7164 6907 -6827 0
-7164 6907 7165 0
-7164 -6907 6827 -7165 0
7164 -6907 -6827 0
7164 -6907 7165 0
7164 6907 6827 -7165 0
7165 6905 -7163 0
-7165 -6905 0
-7165 7163 0
-7166 7167 7181 0
7166 -7167 0
7166 -7181 0
-7167 7168 7174 0
7167 -7168 0
7167 -7174 0
-7168 7169 7171 0
7168 -7169 0
7168 -7171 0
7169 -8303 7170 0
7169 8303 -7170 0
-7169 8303 7170 0
-7169 -8303 -7170 0
-7170 6913 -6827 0
-7170 -6828 -6912 6827 0
-7170 6828 6912 6827 0
7170 -6913 -6827 0
7170 -6828 6912 6827 0
7170 6828 -6912 6827 0
7171 -8304 7172 0
7171 8304 -7172 0
-7171 8304 7172 0
-7171 -8304 -7172 0
-7172 6915 -6827 0
-7172 6914 6827 7173 0
-7172 -6914 6827 -7173 0
7172 -6915 -6827 0
7172 6914 6827 -7173 0
7172 -6914 6827 7173 0
7173 -6828 6942 0
7173 -6912 6942 0
-7173 -6942 0
-7173 6828 6912 0
-7174 7175 7178 0
7174 -7175 0
7174 -7178 0
7175 -8305 7176 0
7175 8305 -7176 0
-7175 8305 7176 0
-7175 -8305 -7176 0
-7176 6919 -6827 0
-7176 6918 6827 7177 0
-7176 -6918 6827 -7177 0
7176 -6919 -6827 0
7176 6918 6827 -7177 0
7176 -6918 6827 7177 0
7177 -6828 6941 0
7177 -6911 6941 0
-7177 -6941 0
-7177 6828 6911 0
7178 -8306 7179 0
7178 8306 -7179 0
-7178 8306 7179 0
-7178 -8306 -7179 0
-7179 6922 -6827 0
-7179 6921 6827 7180 0
-7179 -6921 6827 -7180 0
7179 -6922 -6827 0
7179 6921 6827 -7180 0
7179 -6921 6827 7180 0
7180 -6918 6943 0
7180 6943 -7177 0
-7180 -6943 0
-7180 6918 7177 0
-7181 7182 7187 0
7181 -7182 0
7181 -7187 0
-7182 7183 7185 0
7182 -7183 0
7182 -7185 0
-7183 6927 -6827 0
-7183 6926 6827 7184 0
-7183 -6926 6827 -7184 0
7183 -6927 -6827 0
7183 6926 6827 -7184 0
7183 -6926 6827 7184 0
7184 -6828 6939 0
7184 -6910 6939 0
-7184 -6939 0
-7184 6828 6910 0
-7185 6929 -6827 0
-7185 6929 7186 0
-7185 -6929 6827 -7186 0
7185 -6929 -6827 0
7185 -6929 7186 0
7185 6929 6827 -7186 0
7186 -6926 6945 0
7186 6945 -7184 0
-7186 -6945 0
-7186 6926 7184 0
-7187 7188 7190 0
7187 -7188 0
7187 -7190 0
-7188 6932 -6827 0
-7188 6932 7189 0
-7188 -6932 6827 -7189 0
7188 -6932 -6827 0
7188 -6932 7189 0
7188 6932 6827 -7189 0
7189 -6925 6944 0
7189 6944 -7184 0
-7189 -6944 0
-7189 6925 7184 0
-7190 6934 -6827 0
-7190 6934 7191 0
-7190 -6934 6827 -7191 0
7190 -6934 -6827 0
7190 -6934 7191 0
7190 6934 6827 -7191 0
7191 6932 -7189 0
-7191 -6932 0
-7191 7189 0
-7192 7193 7199 0
-7192 -7143 7199 0
7192 -7199 0
7192 7143 -7193 0
-7193 7182 7187 7194 0
7193 -7182 0
7193 -7187 0
7193 -7194 0
-7194 -8306 7195 7198 0
-7194 -8306 7179 7195 0
-7194 7179 7195 7198 0
7194 -7179 -7198 0
7194 8306 -7198 0
7194 -7195 0
7194 8306 -7179 0
7195 7174 -7196 0
-7195 -7174 0
-7195 7196 0
-7196 -8304 7172 0
-7196 7172 7197 0
-7196 -8304 7197 0
7196 -7172 -7197 0
7196 8304 -7172 0
7196 8304 -7197 0
7197 8303 -7170 0
-7197 -8303 0
-7197 7170 0
7198 8305 -7176 0
-7198 -8305 0
-7198 7176 0
-7199 7145 7152 7157 7161 0
7199 -7161 0
7199 -7145 0
7199 -7157 0
7199 -7152 0
-7200 6949 7201 7101 7202 0
7200 -7202 0
7200 -6949 0
7200 -7101 0
7200 -7201 0
-7201 7087 7091 0
7201 -7087 0
7201 -7091 0
-7202 6953 7203 0
7202 -6953 0
7202 -7203 0
-7203 6200 0
7203 -6200 0
7204 -7262 7312 0
7204 -7205 7312 -7320 0
-7204 -7312 0
-7204 7262 7320 0
-7204 7205 7262 0
7205 -7221 7251 7257 0
7205 -7206 7251 7257 0
-7205 -7257 0
-7205 -7251 0
-7205 7206 7221 0
7206 -7211 7219 0
7206 -7207 7218 7219 0
-7206 -7219 0
-7206 7211 -7218 0
-7206 7207 7211 0
-7207 7208 7209 0
7207 -7208 0
7207 -7209 0
7208 -8291 6958 0
7208 8291 -6958 0
-7208 8291 6958 0
-7208 -8291 -6958 0
7209 -8292 7210 0
7209 8292 -7210 0
-7209 8292 7210 0
-7209 -8292 -7210 0
-7210 6960 -6954 0
-7210 6959 6954 0
7210 -6959 6954 0
7210 -6960 -6954 0
-7211 7212 7215 0
7211 -7212 0
7211 -7215 0
7212 -8293 7213 0
7212 8293 -7213 0
-7212 8293 7213 0
-7212 -8293 -7213 0
-7213 6964 -6954 0
-7213 6963 6954 7214 0
-7213 -6963 6954 -7214 0
7213 -6964 -6954 0
7213 6963 6954 -7214 0
7213 -6963 6954 7214 0
7214 -8291 6960 0
-7214 8291 0
-7214 -6960 0
7215 -8294 7216 0
7215 8294 -7216 0
-7215 8294 7216 0
-7215 -8294 -7216 0
-7216 6966 -6954 0
-7216 6965 6954 7217 0
-7216 -6965 6954 -7217 0
7216 -6966 -6954 0
7216 6965 6954 -7217 0
7216 -6965 6954 7217 0
7217 -6963 6970 0
7217 -8291 6960 6970 0
-7217 -6970 0
-7217 8291 6963 0
-7217 -6960 6963 0
-7218 -8291 -8292 0
-7218 -8292 7210 0
-7218 -8291 7210 0
-7218 -8292 6958 0
-7218 6958 7210 0
7218 8292 -7210 0
7218 8291 -6958 -7210 0
7218 8291 8292 -6958 0
-7219 -8294 7216 0
-7219 7216 7220 0
-7219 -8294 7220 0
7219 -7216 -7220 0
7219 8294 -7216 0
7219 8294 -7220 0
7220 8293 -7213 0
-7220 -8293 0
-7220 7213 0
-7221 7222 7236 0
7221 -7222 0
7221 -7236 0
-7222 7223 7229 0
7222 -7223 0
7222 -7229 0
-7223 7224 7226 0
7223 -7224 0
7223 -7226 0
7224 -8295 7225 0
7224 8295 -7225 0
-7224 8295 7225 0
-7224 -8295 -7225 0
-7225 6975 -6954 0
-7225 -6956 -6974 6954 0
-7225 6956 6974 6954 0
7225 -6975 -6954 0
7225 -6956 6974 6954 0
7225 6956 -6974 6954 0
7226 -8296 7227 0
7226 8296 -7227 0
-7226 8296 7227 0
-7226 -8296 -7227 0
-7227 6977 -6954 0
-7227 6976 6954 7228 0
-7227 -6976 6954 -7228 0
7227 -6977 -6954 0
7227 6976 6954 -7228 0
7227 -6976 6954 7228 0
7228 -6956 7005 0
7228 -6974 7005 0
-7228 -7005 0
-7228 6956 6974 0
-7229 7230 7233 0
7229 -7230 0
7229 -7233 0
7230 -8297 7231 0
7230 8297 -7231 0
-7230 8297 7231 0
-7230 -8297 -7231 0
-7231 6981 -6954 0
-7231 6980 6954 7232 0
-7231 -6980 6954 -7232 0
7231 -6981 -6954 0
7231 6980 6954 -7232 0
7231 -6980 6954 7232 0
7232 -6956 7004 0
7232 -6973 7004 0
-7232 -7004 0
-7232 6956 6973 0
7233 -8298 7234 0
7233 8298 -7234 0
-7233 8298 7234 0
-7233 -8298 -7234 0
-7234 6984 -6954 0
-7234 6983 6954 7235 0
-7234 -6983 6954 -7235 0
7234 -6984 -6954 0
7234 6983 6954 -7235 0
7234 -6983 6954 7235 0
7235 -6980 7006 0
7235 7006 -7232 0
-7235 -7006 0
-7235 6980 7232 0
-7236 7237 7244 0
7236 -7237 0
7236 -7244 0
-7237 7238 7241 0
7237 -7238 0
7237 -7241 0
7238 -8299 7239 0
7238 8299 -7239 0
-7238 8299 7239 0
-7238 -8299 -7239 0
-7239 6989 -6954 0
-7239 6988 6954 7240 0
-7239 -6988 6954 -7240 0
7239 -6989 -6954 0
7239 6988 6954 -7240 0
7239 -6988 6954 7240 0
7240 -6956 7002 0
7240 -6972 7002 0
-7240 -7002 0
-7240 6956 6972 0
7241 -8300 7242 0
7241 8300 -7242 0
-7241 8300 7242 0
-7241 -8300 -7242 0
-7242 6992 -6954 0
-7242 6991 6954 7243 0
-7242 -6991 6954 -7243 0
7242 -6992 -6954 0
7242 6991 6954 -7243 0
7242 -6991 6954 7243 0
7243 -6988 7010 0
7243 7010 -7240 0
-7243 -7010 0
-7243 6988 7240 0
-7244 7245 7248 0
7244 -7245 0
7244 -7248 0
7245 -8301 7246 0
7245 8301 -7246 0
-7245 8301 7246 0
-7245 -8301 -7246 0
-7246 6996 -6954 0
-7246 6995 6954 7247 0
-7246 -6995 6954 -7247 0
7246 -6996 -6954 0
7246 6995 6954 -7247 0
7246 -6995 6954 7247 0
7247 -6987 7009 0
7247 7009 -7240 0
-7247 -7009 0
-7247 6987 7240 0
7248 -8302 7249 0
7248 8302 -7249 0
-7248 8302 7249 0
-7248 -8302 -7249 0
-7249 6999 -6954 0
-7249 6998 6954 7250 0
-7249 -6998 6954 -7250 0
7249 -6999 -6954 0
7249 6998 6954 -7250 0
7249 -6998 6954 7250 0
7250 -6995 7011 0
7250 7011 -7247 0
-7250 -7011 0
-7250 6995 7247 0
7251 7236 -7252 0
-7251 -7236 0
-7251 7252 0
-7252 -8298 7253 7256 0
-7252 -8298 7234 7253 0
-7252 7234 7253 7256 0
7252 -7234 -7256 0
7252 8298 -7256 0
7252 -7253 0
7252 8298 -7234 0
7253 7229 -7254 0
-7253 -7229 0
-7253 7254 0
-7254 -8296 7227 0
-7254 7227 7255 0
-7254 -8296 7255 0
7254 -7227 -7255 0
7254 8296 -7227 0
7254 8296 -7255 0
7255 8295 -7225 0
-7255 -8295 0
-7255 7225 0
7256 8297 -7231 0
-7256 -8297 0
-7256 7231 0
-7257 -8302 7258 7261 0
-7257 -8302 7249 7258 0
-7257 7249 7258 7261 0
7257 -7249 -7261 0
7257 8302 -7261 0
7257 -7258 0
7257 8302 -7249 0
7258 7244 -7259 0
-7258 -7244 0
-7258 7259 0
-7259 -8300 7242 0
-7259 7242 7260 0
-7259 -8300 7260 0
7259 -7242 -7260 0
7259 8300 -7242 0
7259 8300 -7260 0
7260 8299 -7239 0
-7260 -8299 0
-7260 7239 0
7261 8301 -7246 0
-7261 -8301 0
-7261 7246 0
-7262 7263 7286 0
7262 -7263 0
7262 -7286 0
-7263 7264 7276 0
7263 -7264 0
7263 -7276 0
-7264 7265 7272 0
7264 -7265 0
7264 -7272 0
-7265 7266 7270 0
7265 -7266 0
7265 -7270 0
-7266 7016 -6954 0
-7266 7016 7267 0
-7266 -7016 6954 -7267 0
7266 -7016 -6954 0
7266 -7016 7267 0
7266 7016 6954 -7267 0
7267 7022 -7268 0
-7267 -7022 0
-7267 7268 0
7268 7027 7031 -7269 0
-7268 -7027 0
-7268 -7031 0
-7268 7269 0
7269 -6955 7065 0
7269 -7036 7065 0
-7269 -7065 0
-7269 6955 7036 0
-7270 7020 -6954 0
-7270 7020 7271 0
-7270 -7020 6954 -7271 0
7270 -7020 -6954 0
7270 -7020 7271 0
7270 7020 6954 -7271 0
7271 7016 -7267 0
-7271 -7016 0
-7271 7267 0
-7272 7273 7274 0
7272 -7273 0
7272 -7274 0
-7273 7023 -6954 0
-7273 7023 7268 0
-7273 -7023 6954 -7268 0
7273 -7023 -6954 0
7273 -7023 7268 0
7273 7023 6954 -7268 0
-7274 7024 -6954 0
-7274 7024 7275 0
-7274 -7024 6954 -7275 0
7274 -7024 -6954 0
7274 -7024 7275 0
7274 7024 6954 -7275 0
7275 7023 -7268 0
-7275 -7023 0
-7275 7268 0
-7276 7277 7281 0
7276 -7277 0
7276 -7281 0
-7277 7278 7279 0
7277 -7278 0
7277 -7279 0
-7278 7028 -6954 0
-7278 7028 7269 0
-7278 -7028 6954 -7269 0
7278 -7028 -6954 0
7278 -7028 7269 0
7278 7028 6954 -7269 0
-7279 7029 -6954 0
-7279 7029 7280 0
-7279 -7029 6954 -7280 0
7279 -7029 -6954 0
7279 -7029 7280 0
7279 7029 6954 -7280 0
7280 7028 -7269 0
-7280 -7028 0
-7280 7269 0
-7281 7282 7284 0
7281 -7282 0
7281 -7284 0
-7282 7032 -6954 0
-7282 7032 7283 0
-7282 -7032 6954 -7283 0
7282 -7032 -6954 0
7282 -7032 7283 0
7282 7032 6954 -7283 0
7283 7027 -7269 0
-7283 -7027 0
-7283 7269 0
-7284 7034 -6954 0
-7284 7034 7285 0
-7284 -7034 6954 -7285 0
7284 -7034 -6954 0
7284 -7034 7285 0
7284 7034 6954 -7285 0
7285 7032 -7283 0
-7285 -7032 0
-7285 7283 0
-7286 7287 7301 0
7286 -7287 0
7286 -7301 0
-7287 7288 7294 0
7287 -7288 0
7287 -7294 0
-7288 7289 7291 0
7288 -7289 0
7288 -7291 0
7289 -8303 7290 0
7289 8303 -7290 0
-7289 8303 7290 0
-7289 -8303 -7290 0
-7290 7040 -6954 0
-7290 -6955 -7039 6954 0
-7290 6955 7039 6954 0
7290 -7040 -6954 0
7290 -6955 7039 6954 0
7290 6955 -7039 6954 0
7291 -8304 7292 0
7291 8304 -7292 0
-7291 8304 7292 0
-7291 -8304 -7292 0
-7292 7042 -6954 0
-7292 7041 6954 7293 0
-7292 -7041 6954 -7293 0
7292 -7042 -6954 0
7292 7041 6954 -7293 0
7292 -7041 6954 7293 0
7293 -6955 7069 0
7293 -7039 7069 0
-7293 -7069 0
-7293 6955 7039 0
-7294 7295 7298 0
7294 -7295 0
7294 -7298 0
7295 -8305 7296 0
7295 8305 -7296 0
-7295 8305 7296 0
-7295 -8305 -7296 0
-7296 7046 -6954 0
-7296 7045 6954 7297 0
-7296 -7045 6954 -7297 0
7296 -7046 -6954 0
7296 7045 6954 -7297 0
7296 -7045 6954 7297 0
7297 -6955 7068 0
7297 -7038 7068 0
-7297 -7068 0
-7297 6955 7038 0
7298 -8306 7299 0
7298 8306 -7299 0
-7298 8306 7299 0
-7298 -8306 -7299 0
-7299 7049 -6954 0
-7299 7048 6954 7300 0
-7299 -7048 6954 -7300 0
7299 -7049 -6954 0
7299 7048 6954 -7300 0
7299 -7048 6954 7300 0
7300 -7045 7070 0
7300 7070 -7297 0
-7300 -7070 0
-7300 7045 7297 0
-7301 7302 7307 0
7301 -7302 0
7301 -7307 0
-7302 7303 7305 0
7302 -7303 0
7302 -7305 0
-7303 7054 -6954 0
-7303 7053 6954 7304 0
-7303 -7053 6954 -7304 0
7303 -7054 -6954 0
7303 7053 6954 -7304 0
7303 -7053 6954 7304 0
7304 -6955 7066 0
7304 -7037 7066 0
-7304 -7066 0
-7304 6955 7037 0
-7305 7056 -6954 0
-7305 7056 7306 0
-7305 -7056 6954 -7306 0
7305 -7056 -6954 0
7305 -7056 7306 0
7305 7056 6954 -7306 0
7306 -7053 7072 0
7306 7072 -7304 0
-7306 -7072 0
-7306 7053 7304 0
-7307 7308 7310 0
7307 -7308 0
7307 -7310 0
-7308 7059 -6954 0
-7308 7059 7309 0
-7308 -7059 6954 -7309 0
7308 -7059 -6954 0
7308 -7059 7309 0
7308 7059 6954 -7309 0
7309 -7052 7071 0
7309 7071 -7304 0
-7309 -7071 0
-7309 7052 7304 0
-7310 7061 -6954 0
-7310 7061 7311 0
-7310 -7061 6954 -7311 0
7310 -7061 -6954 0
7310 -7061 7311 0
7310 7061 6954 -7311 0
7311 7059 -7309 0
-7311 -7059 0
-7311 7309 0
-7312 7313 7319 0
-7312 -7263 7319 0
7312 -7319 0
7312 7263 -7313 0
-7313 7302 7307 7314 0
7313 -7302 0
7313 -7307 0
7313 -7314 0
-7314 -8306 7315 7318 0
-7314 -8306 7299 7315 0
-7314 7299 7315 7318 0
7314 -7299 -7318 0
7314 8306 -7318 0
7314 -7315 0
7314 8306 -7299 0
7315 7294 -7316 0
-7315 -7294 0
-7315 7316 0
-7316 -8304 7292 0
-7316 7292 7317 0
-7316 -8304 7317 0
7316 -7292 -7317 0
7316 8304 -7292 0
7316 8304 -7317 0
7317 8303 -7290 0
-7317 -8303 0
-7317 7290 0
7318 8305 -7296 0
-7318 -8305 0
-7318 7296 0
-7319 7265 7272 7277 7281 0
7319 -7281 0
7319 -7265 0
7319 -7277 0
7319 -7272 0
-7320 7076 7321 7221 7322 0
7320 -7322 0
7320 -7076 0
7320 -7221 0
7320 -7321 0
-7321 7207 7211 0
7321 -7207 0
7321 -7211 0
-7322 7080 7323 0
7322 -7080 0
7322 -7323 0
-7323 6323 0
7323 -6323 0
7324 -7325 7454 7578 -7708 0
7324 7325 -7454 7578 -7708 0
7324 -7325 7454 -7578 7708 0
7324 7325 -7454 -7578 7708 0
-7324 -7325 -7454 0
-7324 7325 7454 0
-7324 -7578 -7708 0
-7324 7578 7708 0
-7325 -1162 -7327 0
-7325 1162 -4028 -7326 0
-7325 1162 4028 7326 0
7325 -1162 7327 0
7325 1162 4028 -7326 0
7325 1162 -4028 7326 0
-7326 971 4030 0
-7326 971 4031 0
7326 -971 0
7326 -4030 -4031 0
7327 1115 -7329 0
7327 -1115 1140 7328 0
7327 -1115 -1140 -7328 0
-7327 1115 7329 0
-7327 -1115 -1140 7328 0
-7327 -1115 1140 -7328 0
7328 -1141 1145 0
7328 -1142 1145 0
-7328 -1145 0
-7328 1141 1142 0
7329 1092 -7330 0
7329 1033 1038 -1092 0
7329 -1033 -1038 -1092 0
-7329 1092 7330 0
-7329 -1033 1038 -1092 0
-7329 1033 -1038 -1092 0
7330 -7394 7443 0
7330 -7331 7443 -7451 0
-7330 -7443 0
-7330 7394 7451 0
-7330 7331 7394 0
7331 -7353 7383 7389 0
7331 -7332 7383 7389 0
-7331 -7389 0
-7331 -7383 0
-7331 7332 7353 0
7332 -7334 7348 7351 0
7332 -7333 7348 7351 0
-7332 -7351 0
-7332 -7348 0
-7332 7333 7334 0
7333 -8291 6697 0
-7333 8291 0
-7333 -6697 0
-7334 7335 7341 0
7334 -7335 0
7334 -7341 0
-7335 7336 7338 0
7335 -7336 0
7335 -7338 0
7336 -8292 7337 0
7336 8292 -7337 0
-7336 8292 7337 0
-7336 -8292 -7337 0
-7337 8291 6831 0
-7337 6831 -7084 0
-7337 -8291 -6831 7084 0
7337 -6831 -7084 0
7337 8291 -6831 0
7337 -8291 6831 7084 0
7338 -8293 7339 0
7338 8293 -7339 0
-7338 8293 7339 0
-7338 -8293 -7339 0
-7339 7090 -7084 0
-7339 7089 7084 7340 0
-7339 -7089 7084 -7340 0
7339 -7090 -7084 0
7339 7089 7084 -7340 0
7339 -7089 7084 7340 0
7340 -8291 6831 0
-7340 8291 0
-7340 -6831 0
-7341 7342 7345 0
7341 -7342 0
7341 -7345 0
7342 -8294 7343 0
7342 8294 -7343 0
-7342 8294 7343 0
-7342 -8294 -7343 0
-7343 7093 -7084 0
-7343 7092 7084 7344 0
-7343 -7092 7084 -7344 0
7343 -7093 -7084 0
7343 7092 7084 -7344 0
7343 -7092 7084 7344 0
7344 -8292 7090 0
7344 -8291 6831 7090 0
7344 -8291 -8292 6831 0
-7344 -6831 -7090 0
-7344 8291 8292 0
-7344 8292 -7090 0
-7344 8292 -6831 0
-7344 8291 -7090 0
7345 -8295 7346 0
7345 8295 -7346 0
-7345 8295 7346 0
-7345 -8295 -7346 0
-7346 7096 -7084 0
-7346 7095 7084 7347 0
-7346 -7095 7084 -7347 0
7346 -7096 -7084 0
7346 7095 7084 -7347 0
7346 -7095 7084 7347 0
7347 -7092 7100 0
7347 7100 -7344 0
-7347 -7100 0
-7347 7092 7344 0
7348 7341 -7349 0
-7348 -7341 0
-7348 7349 0
-7349 -8293 7339 0
-7349 7339 7350 0
-7349 -8293 7350 0
7349 -7339 -7350 0
7349 8293 -7339 0
7349 8293 -7350 0
7350 8292 -7337 0
-7350 -8292 0
-7350 7337 0
-7351 -8295 7346 0
-7351 7346 7352 0
-7351 -8295 7352 0
7351 -7346 -7352 0
7351 8295 -7346 0
7351 8295 -7352 0
7352 8294 -7343 0
-7352 -8294 0
-7352 7343 0
-7353 7354 7368 0
7353 -7354 0
7353 -7368 0
-7354 7355 7361 0
7354 -7355 0
7354 -7361 0
-7355 7356 7358 0
7355 -7356 0
7355 -7358 0
7356 -8296 7357 0
7356 8296 -7357 0
-7356 8296 7357 0
-7356 -8296 -7357 0
-7357 7105 -7084 0
-7357 -7086 -7104 7084 0
-7357 7086 7104 7084 0
7357 -7105 -7084 0
7357 -7086 7104 7084 0
7357 7086 -7104 7084 0
7358 -8297 7359 0
7358 8297 -7359 0
-7358 8297 7359 0
-7358 -8297 -7359 0
-7359 7107 -7084 0
-7359 7106 7084 7360 0
-7359 -7106 7084 -7360 0
7359 -7107 -7084 0
7359 7106 7084 -7360 0
7359 -7106 7084 7360 0
7360 -7086 7135 0
7360 -7104 7135 0
-7360 -7135 0
-7360 7086 7104 0
-7361 7362 7365 0
7361 -7362 0
7361 -7365 0
7362 -8298 7363 0
7362 8298 -7363 0
-7362 8298 7363 0
-7362 -8298 -7363 0
-7363 7111 -7084 0
-7363 7110 7084 7364 0
-7363 -7110 7084 -7364 0
7363 -7111 -7084 0
7363 7110 7084 -7364 0
7363 -7110 7084 7364 0
7364 -7086 7134 0
7364 -7103 7134 0
-7364 -7134 0
-7364 7086 7103 0
7365 -8299 7366 0
7365 8299 -7366 0
-7365 8299 7366 0
-7365 -8299 -7366 0
-7366 7114 -7084 0
-7366 7113 7084 7367 0
-7366 -7113 7084 -7367 0
7366 -7114 -7084 0
7366 7113 7084 -7367 0
7366 -7113 7084 7367 0
7367 -7110 7136 0
7367 7136 -7364 0
-7367 -7136 0
-7367 7110 7364 0
-7368 7369 7376 0
7368 -7369 0
7368 -7376 0
-7369 7370 7373 0
7369 -7370 0
7369 -7373 0
7370 -8300 7371 0
7370 8300 -7371 0
-7370 8300 7371 0
-7370 -8300 -7371 0
-7371 7119 -7084 0
-7371 7118 7084 7372 0
-7371 -7118 7084 -7372 0
7371 -7119 -7084 0
7371 7118 7084 -7372 0
7371 -7118 7084 7372 0
7372 -7086 7132 0
7372 -7102 7132 0
-7372 -7132 0
-7372 7086 7102 0
7373 -8301 7374 0
7373 8301 -7374 0
-7373 8301 7374 0
-7373 -8301 -7374 0
-7374 7122 -7084 0
-7374 7121 7084 7375 0
-7374 -7121 7084 -7375 0
7374 -7122 -7084 0
7374 7121 7084 -7375 0
7374 -7121 7084 7375 0
7375 -7118 7140 0
7375 7140 -7372 0
-7375 -7140 0
-7375 7118 7372 0
-7376 7377 7380 0
7376 -7377 0
7376 -7380 0
7377 -8302 7378 0
7377 8302 -7378 0
-7377 8302 7378 0
-7377 -8302 -7378 0
-7378 7126 -7084 0
-7378 7125 7084 7379 0
-7378 -7125 7084 -7379 0
7378 -7126 -7084 0
7378 7125 7084 -7379 0
7378 -7125 7084 7379 0
7379 -7117 7139 0
7379 7139 -7372 0
-7379 -7139 0
-7379 7117 7372 0
7380 -8303 7381 0
7380 8303 -7381 0
-7380 8303 7381 0
-7380 -8303 -7381 0
-7381 7129 -7084 0
-7381 7128 7084 7382 0
-7381 -7128 7084 -7382 0
7381 -7129 -7084 0
7381 7128 7084 -7382 0
7381 -7128 7084 7382 0
7382 -7125 7141 0
7382 7141 -7379 0
-7382 -7141 0
-7382 7125 7379 0
7383 7368 -7384 0
-7383 -7368 0
-7383 7384 0
-7384 -8299 7385 7388 0
-7384 -8299 7366 7385 0
-7384 7366 7385 7388 0
7384 -7366 -7388 0
7384 8299 -7388 0
7384 -7385 0
7384 8299 -7366 0
7385 7361 -7386 0
-7385 -7361 0
-7385 7386 0
-7386 -8297 7359 0
-7386 7359 7387 0
-7386 -8297 7387 0
7386 -7359 -7387 0
7386 8297 -7359 0
7386 8297 -7387 0
7387 8296 -7357 0
-7387 -8296 0
-7387 7357 0
7388 8298 -7363 0
-7388 -8298 0
-7388 7363 0
-7389 -8303 7390 7393 0
-7389 -8303 7381 7390 0
-7389 7381 7390 7393 0
7389 -7381 -7393 0
7389 8303 -7393 0
7389 -7390 0
7389 8303 -7381 0
7390 7376 -7391 0
-7390 -7376 0
-7390 7391 0
-7391 -8301 7374 0
-7391 7374 7392 0
-7391 -8301 7392 0
7391 -7374 -7392 0
7391 8301 -7374 0
7391 8301 -7392 0
7392 8300 -7371 0
-7392 -8300 0
-7392 7371 0
7393 8302 -7378 0
-7393 -8302 0
-7393 7378 0
-7394 7395 7418 0
7394 -7395 0
7394 -7418 0
-7395 7396 7408 0
7395 -7396 0
7395 -7408 0
-7396 7397 7404 0
7396 -7397 0
7396 -7404 0
-7397 7398 7402 0
7397 -7398 0
7397 -7402 0
-7398 7146 -7084 0
-7398 7146 7399 0
-7398 -7146 7084 -7399 0
7398 -7146 -7084 0
7398 -7146 7399 0
7398 7146 7084 -7399 0
7399 7152 -7400 0
-7399 -7152 0
-7399 7400 0
7400 7157 7161 -7401 0
-7400 -7157 0
-7400 -7161 0
-7400 7401 0
7401 -7085 7193 0
7401 -7166 7193 0
-7401 -7193 0
-7401 7085 7166 0
-7402 7150 -7084 0
-7402 7150 7403 0
-7402 -7150 7084 -7403 0
7402 -7150 -7084 0
7402 -7150 7403 0
7402 7150 7084 -7403 0
7403 7146 -7399 0
-7403 -7146 0
-7403 7399 0
-7404 7405 7406 0
7404 -7405 0
7404 -7406 0
-7405 7153 -7084 0
-7405 7153 7400 0
-7405 -7153 7084 -7400 0
7405 -7153 -7084 0
7405 -7153 7400 0
7405 7153 7084 -7400 0
-7406 7154 -7084 0
-7406 7154 7407 0
-7406 -7154 7084 -7407 0
7406 -7154 -7084 0
7406 -7154 7407 0
7406 7154 7084 -7407 0
7407 7153 -7400 0
-7407 -7153 0
-7407 7400 0
-7408 7409 7413 0
7408 -7409 0
7408 -7413 0
-7409 7410 7411 0
7409 -7410 0
7409 -7411 0
-7410 7158 -7084 0
-7410 7158 7401 0
-7410 -7158 7084 -7401 0
7410 -7158 -7084 0
7410 -7158 7401 0
7410 7158 7084 -7401 0
-7411 7159 -7084 0
-7411 7159 7412 0
-7411 -7159 7084 -7412 0
7411 -7159 -7084 0
7411 -7159 7412 0
7411 7159 7084 -7412 0
7412 7158 -7401 0
-7412 -7158 0
-7412 7401 0
-7413 7414 7416 0
7413 -7414 0
7413 -7416 0
-7414 7162 -7084 0
-7414 7162 7415 0
-7414 -7162 7084 -7415 0
7414 -7162 -7084 0
7414 -7162 7415 0
7414 7162 7084 -7415 0
7415 7157 -7401 0
-7415 -7157 0
-7415 7401 0
-7416 7164 -7084 0
-7416 7164 7417 0
-7416 -7164 7084 -7417 0
7416 -7164 -7084 0
7416 -7164 7417 0
7416 7164 7084 -7417 0
7417 7162 -7415 0
-7417 -7162 0
-7417 7415 0
-7418 7419 7432 0
7418 -7419 0
7418 -7432 0
-7419 7420 7426 0
7419 -7420 0
7419 -7426 0
-7420 7421 7423 0
7420 -7421 0
7420 -7423 0
7421 -8304 7422 0
7421 8304 -7422 0
-7421 8304 7422 0
-7421 -8304 -7422 0
-7422 7170 -7084 0
-7422 -7085 -7169 7084 0
-7422 7085 7169 7084 0
7422 -7170 -7084 0
7422 -7085 7169 7084 0
7422 7085 -7169 7084 0
7423 -8305 7424 0
7423 8305 -7424 0
-7423 8305 7424 0
-7423 -8305 -7424 0
-7424 7172 -7084 0
-7424 7171 7084 7425 0
-7424 -7171 7084 -7425 0
7424 -7172 -7084 0
7424 7171 7084 -7425 0
7424 -7171 7084 7425 0
7425 -7085 7197 0
7425 -7169 7197 0
-7425 -7197 0
-7425 7085 7169 0
-7426 7427 7430 0
7426 -7427 0
7426 -7430 0
7427 -8306 7428 0
7427 8306 -7428 0
-7427 8306 7428 0
-7427 -8306 -7428 0
-7428 7176 -7084 0
-7428 7175 7084 7429 0
-7428 -7175 7084 -7429 0
7428 -7176 -7084 0
7428 7175 7084 -7429 0
7428 -7175 7084 7429 0
7429 -7085 7196 0
7429 -7168 7196 0
-7429 -7196 0
-7429 7085 7168 0
-7430 7179 -7084 0
-7430 7178 7084 7431 0
-7430 -7178 7084 -7431 0
7430 -7179 -7084 0
7430 7178 7084 -7431 0
7430 -7178 7084 7431 0
7431 -7175 7198 0
7431 7198 -7429 0
-7431 -7198 0
-7431 7175 7429 0
-7432 7433 7438 0
7432 -7433 0
7432 -7438 0
-7433 7434 7436 0
7433 -7434 0
7433 -7436 0
-7434 7183 -7084 0
-7434 7183 7435 0
-7434 -7183 7084 -7435 0
7434 -7183 -7084 0
7434 -7183 7435 0
7434 7183 7084 -7435 0
7435 -7085 7194 0
7435 -7167 7194 0
-7435 -7194 0
-7435 7085 7167 0
-7436 7185 -7084 0
-7436 7185 7437 0
-7436 -7185 7084 -7437 0
7436 -7185 -7084 0
7436 -7185 7437 0
7436 7185 7084 -7437 0
7437 7183 -7435 0
-7437 -7183 0
-7437 7435 0
-7438 7439 7441 0
7438 -7439 0
7438 -7441 0
-7439 7188 -7084 0
-7439 7188 7440 0
-7439 -7188 7084 -7440 0
7439 -7188 -7084 0
7439 -7188 7440 0
7439 7188 7084 -7440 0
7440 7182 -7435 0
-7440 -7182 0
-7440 7435 0
-7441 7190 -7084 0
-7441 7190 7442 0
-7441 -7190 7084 -7442 0
7441 -7190 -7084 0
7441 -7190 7442 0
7441 7190 7084 -7442 0
7442 7188 -7440 0
-7442 -7188 0
-7442 7440 0
-7443 7397 7404 7444 7450 0
7443 -7450 0
7443 -7397 0
7443 -7404 0
7443 -7444 0
7444 7395 -7445 0
-7444 -7395 0
-7444 7445 0
-7445 7433 7438 7446 0
7445 -7433 0
7445 -7438 0
7445 -7446 0
-7446 -7427 7430 7449 0
-7446 7430 7447 7449 0
7446 -7430 0
7446 -7449 0
7446 7427 -7447 0
-7447 -8305 7424 0
-7447 7424 7448 0
-7447 -8305 7448 0
7447 -7424 -7448 0
7447 8305 -7424 0
7447 8305 -7448 0
7448 8304 -7422 0
-7448 -8304 0
-7448 7422 0
7449 8306 -7428 0
-7449 -8306 0
-7449 7428 0
-7450 7409 7413 0
7450 -7409 0
7450 -7413 0
-7451 6949 7334 7353 7452 0
7451 -7452 0
7451 -6949 0
7451 -7353 0
7451 -7334 0
-7452 6953 7453 0
7452 -6953 0
7452 -7453 0
7453 -8291 7203 0
7453 8291 -6697 0
-7453 8291 6697 0
-7453 -8291 -7203 0
7454 -7518 7567 0
7454 -7455 7567 -7575 0
-7454 -7567 0
-7454 7518 7575 0
-7454 7455 7518 0
7455 -7477 7507 7513 0
7455 -7456 7507 7513 0
-7455 -7513 0
-7455 -7507 0
-7455 7456 7477 0
7456 -7458 7472 7475 0
7456 -7457 7472 7475 0
-7456 -7475 0
-7456 -7472 0
-7456 7457 7458 0
7457 -8291 6818 0
-7457 8291 0
-7457 -6818 0
-7458 7459 7465 0
7458 -7459 0
7458 -7465 0
-7459 7460 7462 0
7459 -7460 0
7459 -7462 0
7460 -8292 7461 0
7460 8292 -7461 0
-7460 8292 7461 0
-7460 -8292 -7461 0
-7461 8291 6958 0
-7461 6958 -7204 0
-7461 -8291 -6958 7204 0
7461 -6958 -7204 0
7461 8291 -6958 0
7461 -8291 6958 7204 0
7462 -8293 7463 0
7462 8293 -7463 0
-7462 8293 7463 0
-7462 -8293 -7463 0
-7463 7210 -7204 0
-7463 7209 7204 7464 0
-7463 -7209 7204 -7464 0
7463 -7210 -7204 0
7463 7209 7204 -7464 0
7463 -7209 7204 7464 0
7464 -8291 6958 0
-7464 8291 0
-7464 -6958 0
-7465 7466 7469 0
7465 -7466 0
7465 -7469 0
7466 -8294 7467 0
7466 8294 -7467 0
-7466 8294 7467 0
-7466 -8294 -7467 0
-7467 7213 -7204 0
-7467 7212 7204 7468 0
-7467 -7212 7204 -7468 0
7467 -7213 -7204 0
7467 7212 7204 -7468 0
7467 -7212 7204 7468 0
7468 -8292 7210 0
7468 -8291 6958 7210 0
7468 -8291 -8292 6958 0
-7468 -6958 -7210 0
-7468 8291 8292 0
-7468 8292 -7210 0
-7468 8292 -6958 0
-7468 8291 -7210 0
7469 -8295 7470 0
7469 8295 -7470 0
-7469 8295 7470 0
-7469 -8295 -7470 0
-7470 7216 -7204 0
-7470 7215 7204 7471 0
-7470 -7215 7204 -7471 0
7470 -7216 -7204 0
7470 7215 7204 -7471 0
7470 -7215 7204 7471 0
7471 -7212 7220 0
7471 7220 -7468 0
-7471 -7220 0
-7471 7212 7468 0
7472 7465 -7473 0
-7472 -7465 0
-7472 7473 0
-7473 -8293 7463 0
-7473 7463 7474 0
-7473 -8293 7474 0
7473 -7463 -7474 0
7473 8293 -7463 0
7473 8293 -7474 0
7474 8292 -7461 0
-7474 -8292 0
-7474 7461 0
-7475 -8295 7470 0
-7475 7470 7476 0
-7475 -8295 7476 0
7475 -7470 -7476 0
7475 8295 -7470 0
7475 8295 -7476 0
7476 8294 -7467 0
-7476 -8294 0
-7476 7467 0
-7477 7478 7492 0
7477 -7478 0
7477 -7492 0
-7478 7479 7485 0
7478 -7479 0
7478 -7485 0
-7479 7480 7482 0
7479 -7480 0
7479 -7482 0
7480 -8296 7481 0
7480 8296 -7481 0
-7480 8296 7481 0
-7480 -8296 -7481 0
-7481 7225 -7204 0
-7481 -7206 -7224 7204 0
-7481 7206 7224 7204 0
7481 -7225 -7204 0
7481 -7206 7224 7204 0
7481 7206 -7224 7204 0
7482 -8297 7483 0
7482 8297 -7483 0
-7482 8297 7483 0
-7482 -8297 -7483 0
-7483 7227 -7204 0
-7483 7226 7204 7484 0
-7483 -7226 7204 -7484 0
7483 -7227 -7204 0
7483 7226 7204 -7484 0
7483 -7226 7204 7484 0
7484 -7206 7255 0
7484 -7224 7255 0
-7484 -7255 0
-7484 7206 7224 0
-7485 7486 7489 0
7485 -7486 0
7485 -7489 0
7486 -8298 7487 0
7486 8298 -7487 0
-7486 8298 7487 0
-7486 -8298 -7487 0
-7487 7231 -7204 0
-7487 7230 7204 7488 0
-7487 -7230 7204 -7488 0
7487 -7231 -7204 0
7487 7230 7204 -7488 0
7487 -7230 7204 7488 0
7488 -7206 7254 0
7488 -7223 7254 0
-7488 -7254 0
-7488 7206 7223 0
7489 -8299 7490 0
7489 8299 -7490 0
-7489 8299 7490 0
-7489 -8299 -7490 0
-7490 7234 -7204 0
-7490 7233 7204 7491 0
-7490 -7233 7204 -7491 0
7490 -7234 -7204 0
7490 7233 7204 -7491 0
7490 -7233 7204 7491 0
7491 -7230 7256 0
7491 7256 -7488 0
-7491 -7256 0
-7491 7230 7488 0
-7492 7493 7500 0
7492 -7493 0
7492 -7500 0
-7493 7494 7497 0
7493 -7494 0
7493 -7497 0
7494 -8300 7495 0
7494 8300 -7495 0
-7494 8300 7495 0
-7494 -8300 -7495 0
-7495 7239 -7204 0
-7495 7238 7204 7496 0
-7495 -7238 7204 -7496 0
7495 -7239 -7204 0
7495 7238 7204 -7496 0
7495 -7238 7204 7496 0
7496 -7206 7252 0
7496 -7222 7252 0
-7496 -7252 0
-7496 7206 7222 0
7497 -8301 7498 0
7497 8301 -7498 0
-7497 8301 7498 0
-7497 -8301 -7498 0
-7498 7242 -7204 0
-7498 7241 7204 7499 0
-7498 -7241 7204 -7499 0
7498 -7242 -7204 0
7498 7241 7204 -7499 0
7498 -7241 7204 7499 0
7499 -7238 7260 0
7499 7260 -7496 0
-7499 -7260 0
-7499 7238 7496 0
-7500 7501 7504 0
7500 -7501 0
7500 -7504 0
7501 -8302 7502 0
7501 8302 -7502 0
-7501 8302 7502 0
-7501 -8302 -7502 0
-7502 7246 -7204 0
-7502 7245 7204 7503 0
-7502 -7245 7204 -7503 0
7502 -7246 -7204 0
7502 7245 7204 -7503 0
7502 -7245 7204 7503 0
7503 -7237 7259 0
7503 7259 -7496 0
-7503 -7259 0
-7503 7237 7496 0
7504 -8303 7505 0
7504 8303 -7505 0
-7504 8303 7505 0
-7504 -8303 -7505 0
-7505 7249 -7204 0
-7505 7248 7204 7506 0
-7505 -7248 7204 -7506 0
7505 -7249 -7204 0
7505 7248 7204 -7506 0
7505 -7248 7204 7506 0
7506 -7245 7261 0
7506 7261 -7503 0
-7506 -7261 0
-7506 7245 7503 0
7507 7492 -7508 0
-7507 -7492 0
-7507 7508 0
-7508 -8299 7509 7512 0
-7508 -8299 7490 7509 0
-7508 7490 7509 7512 0
7508 -7490 -7512 0
7508 8299 -7512 0
7508 -7509 0
7508 8299 -7490 0
7509 7485 -7510 0
-7509 -7485 0
-7509 7510 0
-7510 -8297 7483 0
-7510 7483 7511 0
-7510 -8297 7511 0
7510 -7483 -7511 0
7510 8297 -7483 0
7510 8297 -7511 0
7511 8296 -7481 0
-7511 -8296 0
-7511 7481 0
7512 8298 -7487 0
-7512 -8298 0
-7512 7487 0
-7513 -8303 7514 7517 0
-7513 -8303 7505 7514 0
-7513 7505 7514 7517 0
7513 -7505 -7517 0
7513 8303 -7517 0
7513 -7514 0
7513 8303 -7505 0
7514 7500 -7515 0
-7514 -7500 0
-7514 7515 0
-7515 -8301 7498 0
-7515 7498 7516 0
-7515 -8301 7516 0
7515 -7498 -7516 0
7515 8301 -7498 0
7515 8301 -7516 0
7516 8300 -7495 0
-7516 -8300 0
-7516 7495 0
7517 8302 -7502 0
-7517 -8302 0
-7517 7502 0
-7518 7519 7542 0
7518 -7519 0
7518 -7542 0
-7519 7520 7532 0
7519 -7520 0
7519 -7532 0
-7520 7521 7528 0
7520 -7521 0
7520 -7528 0
-7521 7522 7526 0
7521 -7522 0
7521 -7526 0
-7522 7266 -7204 0
-7522 7266 7523 0
-7522 -7266 7204 -7523 0
7522 -7266 -7204 0
7522 -7266 7523 0
7522 7266 7204 -7523 0
7523 7272 -7524 0
-7523 -7272 0
-7523 7524 0
7524 7277 7281 -7525 0
-7524 -7277 0
-7524 -7281 0
-7524 7525 0
7525 -7205 7313 0
7525 -7286 7313 0
-7525 -7313 0
-7525 7205 7286 0
-7526 7270 -7204 0
-7526 7270 7527 0
-7526 -7270 7204 -7527 0
7526 -7270 -7204 0
7526 -7270 7527 0
7526 7270 7204 -7527 0
7527 7266 -7523 0
-7527 -7266 0
-7527 7523 0
-7528 7529 7530 0
7528 -7529 0
7528 -7530 0
-7529 7273 -7204 0
-7529 7273 7524 0
-7529 -7273 7204 -7524 0
7529 -7273 -7204 0
7529 -7273 7524 0
7529 7273 7204 -7524 0
-7530 7274 -7204 0
-7530 7274 7531 0
-7530 -7274 7204 -7531 0
7530 -7274 -7204 0
7530 -7274 7531 0
7530 7274 7204 -7531 0
7531 7273 -7524 0
-7531 -7273 0
-7531 7524 0
-7532 7533 7537 0
7532 -7533 0
7532 -7537 0
-7533 7534 7535 0
7533 -7534 0
7533 -7535 0
-7534 7278 -7204 0
-7534 7278 7525 0
-7534 -7278 7204 -7525 0
7534 -7278 -7204 0
7534 -7278 7525 0
7534 7278 7204 -7525 0
-7535 7279 -7204 0
-7535 7279 7536 0
-7535 -7279 7204 -7536 0
7535 -7279 -7204 0
7535 -7279 7536 0
7535 7279 7204 -7536 0
7536 7278 -7525 0
-7536 -7278 0
-7536 7525 0
-7537 7538 7540 0
7537 -7538 0
7537 -7540 0
-7538 7282 -7204 0
-7538 7282 7539 0
-7538 -7282 7204 -7539 0
7538 -7282 -7204 0
7538 -7282 7539 0
7538 7282 7204 -7539 0
7539 7277 -7525 0
-7539 -7277 0
-7539 7525 0
-7540 7284 -7204 0
-7540 7284 7541 0
-7540 -7284 7204 -7541 0
7540 -7284 -7204 0
7540 -7284 7541 0
7540 7284 7204 -7541 0
7541 7282 -7539 0
-7541 -7282 0
-7541 7539 0
-7542 7543 7556 0
7542 -7543 0
7542 -7556 0
-7543 7544 7550 0
7543 -7544 0
7543 -7550 0
-7544 7545 7547 0
7544 -7545 0
7544 -7547 0
7545 -8304 7546 0
7545 8304 -7546 0
-7545 8304 7546 0
-7545 -8304 -7546 0
-7546 7290 -7204 0
-7546 -7205 -7289 7204 0
-7546 7205 7289 7204 0
7546 -7290 -7204 0
7546 -7205 7289 7204 0
7546 7205 -7289 7204 0
7547 -8305 7548 0
7547 8305 -7548 0
-7547 8305 7548 0
-7547 -8305 -7548 0
-7548 7292 -7204 0
-7548 7291 7204 7549 0
-7548 -7291 7204 -7549 0
7548 -7292 -7204 0
7548 7291 7204 -7549 0
7548 -7291 7204 7549 0
7549 -7205 7317 0
7549 -7289 7317 0
-7549 -7317 0
-7549 7205 7289 0
-7550 7551 7554 0
7550 -7551 0
7550 -7554 0
7551 -8306 7552 0
7551 8306 -7552 0
-7551 8306 7552 0
-7551 -8306 -7552 0
-7552 7296 -7204 0
-7552 7295 7204 7553 0
-7552 -7295 7204 -7553 0
7552 -7296 -7204 0
7552 7295 7204 -7553 0
7552 -7295 7204 7553 0
7553 -7205 7316 0
7553 -7288 7316 0
-7553 -7316 0
-7553 7205 7288 0
-7554 7299 -7204 0
-7554 7298 7204 7555 0
-7554 -7298 7204 -7555 0
7554 -7299 -7204 0
7554 7298 7204 -7555 0
7554 -7298 7204 7555 0
7555 -7295 7318 0
7555 7318 -7553 0
-7555 -7318 0
-7555 7295 7553 0
-7556 7557 7562 0
7556 -7557 0
7556 -7562 0
-7557 7558 7560 0
7557 -7558 0
7557 -7560 0
-7558 7303 -7204 0
-7558 7303 7559 0
-7558 -7303 7204 -7559 0
7558 -7303 -7204 0
7558 -7303 7559 0
7558 7303 7204 -7559 0
7559 -7205 7314 0
7559 -7287 7314 0
-7559 -7314 0
-7559 7205 7287 0
-7560 7305 -7204 0
-7560 7305 7561 0
-7560 -7305 7204 -7561 0
7560 -7305 -7204 0
7560 -7305 7561 0
7560 7305 7204 -7561 0
7561 7303 -7559 0
-7561 -7303 0
-7561 7559 0
-7562 7563 7565 0
7562 -7563 0
7562 -7565 0
-7563 7308 -7204 0
-7563 7308 7564 0
-7563 -7308 7204 -7564 0
7563 -7308 -7204 0
7563 -7308 7564 0
7563 7308 7204 -7564 0
7564 7302 -7559 0
-7564 -7302 0
-7564 7559 0
-7565 7310 -7204 0
-7565 7310 7566 0
-7565 -7310 7204 -7566 0
7565 -7310 -7204 0
7565 -7310 7566 0
7565 7310 7204 -7566 0
7566 7308 -7564 0
-7566 -7308 0
-7566 7564 0
-7567 7521 7528 7568 7574 0
7567 -7574 0
7567 -7521 0
7567 -7528 0
7567 -7568 0
7568 7519 -7569 0
-7568 -7519 0
-7568 7569 0
-7569 7557 7562 7570 0
7569 -7557 0
7569 -7562 0
7569 -7570 0
-7570 -7551 7554 7573 0
-7570 7554 7571 7573 0
7570 -7554 0
7570 -7573 0
7570 7551 -7571 0
-7571 -8305 7548 0
-7571 7548 7572 0
-7571 -8305 7572 0
7571 -7548 -7572 0
7571 8305 -7548 0
7571 8305 -7572 0
7572 8304 -7546 0
-7572 -8304 0
-7572 7546 0
7573 8306 -7552 0
-7573 -8306 0
-7573 7552 0
-7574 7533 7537 0
7574 -7533 0
7574 -7537 0
-7575 7076 7458 7477 7576 0
7575 -7576 0
7575 -7076 0
7575 -7477 0
7575 -7458 0
-7576 7080 7577 0
7576 -7080 0
7576 -7577 0
7577 -8291 7323 0
7577 8291 -6818 0
-7577 8291 6818 0
-7577 -8291 -7323 0
-7578 -1162 -7579 0
-7578 1162 -4030 -4031 0
-7578 1162 4030 4031 0
7578 -1162 7579 0
7578 1162 4030 -4031 0
7578 1162 -4030 4031 0
7579 1115 -7580 0
7579 -1115 1141 1142 0
7579 -1115 -1141 -1142 0
-7579 1115 7580 0
-7579 -1115 -1141 1142 0
-7579 -1115 1141 -1142 0
7580 1092 -7581 0
7580 1034 1037 -1092 0
7580 -1034 -1037 -1092 0
-7580 1092 7581 0
-7580 -1034 1037 -1092 0
-7580 1034 -1037 -1092 0
7581 -7652 7700 0
7581 -7582 7700 -7707 0
-7581 -7700 0
-7581 7652 7707 0
-7581 7582 7652 0
7582 -7611 7641 7647 0
7582 -7583 7641 7647 0
-7582 -7647 0
-7582 -7641 0
-7582 7583 7611 0
7583 -7592 7606 7609 0
7583 -7584 7606 7609 0
-7583 -7609 0
-7583 -7606 0
-7583 7584 7592 0
7584 -8292 7585 -7589 0
7584 -8292 7588 -7589 0
7584 7585 7588 -7589 0
-7584 -7585 -7588 0
-7584 8292 -7588 0
-7584 7589 0
-7584 8292 -7585 0
7585 8291 -7586 0
-7585 -8291 0
-7585 7586 0
-7586 7587 0
7586 -7587 0
-7587 6454 0
7587 -6454 0
-7588 7203 -7330 0
-7588 8291 6697 7330 0
-7588 -8291 -7203 7330 0
7588 -7203 -7330 0
7588 8291 -6697 7330 0
7588 -8291 7203 7330 0
-7589 7590 7591 0
7589 -7590 0
7589 -7591 0
7590 -8292 7588 0
7590 8292 -7588 0
-7590 8292 7588 0
-7590 -8292 -7588 0
7591 -8291 7586 0
7591 8291 -6953 0
-7591 8291 6953 0
-7591 -8291 -7586 0
-7592 7593 7599 0
7592 -7593 0
7592 -7599 0
-7593 7594 7596 0
7593 -7594 0
7593 -7596 0
7594 -8293 7595 0
7594 8293 -7595 0
-7594 8293 7595 0
-7594 -8293 -7595 0
-7595 7337 -7330 0
-7595 -7333 -7336 7330 0
-7595 7333 7336 7330 0
7595 -7337 -7330 0
7595 -7333 7336 7330 0
7595 7333 -7336 7330 0
7596 -8294 7597 0
7596 8294 -7597 0
-7596 8294 7597 0
-7596 -8294 -7597 0
-7597 7339 -7330 0
-7597 7338 7330 7598 0
-7597 -7338 7330 -7598 0
7597 -7339 -7330 0
7597 7338 7330 -7598 0
7597 -7338 7330 7598 0
7598 -7333 7350 0
7598 -7336 7350 0
-7598 -7350 0
-7598 7333 7336 0
-7599 7600 7603 0
7599 -7600 0
7599 -7603 0
7600 -8295 7601 0
7600 8295 -7601 0
-7600 8295 7601 0
-7600 -8295 -7601 0
-7601 7343 -7330 0
-7601 7342 7330 7602 0
-7601 -7342 7330 -7602 0
7601 -7343 -7330 0
7601 7342 7330 -7602 0
7601 -7342 7330 7602 0
7602 -7333 7349 0
7602 -7335 7349 0
-7602 -7349 0
-7602 7333 7335 0
7603 -8296 7604 0
7603 8296 -7604 0
-7603 8296 7604 0
-7603 -8296 -7604 0
-7604 7346 -7330 0
-7604 7345 7330 7605 0
-7604 -7345 7330 -7605 0
7604 -7346 -7330 0
7604 7345 7330 -7605 0
7604 -7345 7330 7605 0
7605 -7342 7352 0
7605 7352 -7602 0
-7605 -7352 0
-7605 7342 7602 0
7606 7599 -7607 0
-7606 -7599 0
-7606 7607 0
-7607 -8294 7597 0
-7607 7597 7608 0
-7607 -8294 7608 0
7607 -7597 -7608 0
7607 8294 -7597 0
7607 8294 -7608 0
7608 8293 -7595 0
-7608 -8293 0
-7608 7595 0
-7609 -8296 7604 0
-7609 7604 7610 0
-7609 -8296 7610 0
7609 -7604 -7610 0
7609 8296 -7604 0
7609 8296 -7610 0
7610 8295 -7601 0
-7610 -8295 0
-7610 7601 0
-7611 7612 7626 0
7611 -7612 0
7611 -7626 0
-7612 7613 7619 0
7612 -7613 0
7612 -7619 0
-7613 7614 7616 0
7613 -7614 0
7613 -7616 0
7614 -8297 7615 0
7614 8297 -7615 0
-7614 8297 7615 0
-7614 -8297 -7615 0
-7615 7357 -7330 0
-7615 -7332 -7356 7330 0
-7615 7332 7356 7330 0
7615 -7357 -7330 0
7615 -7332 7356 7330 0
7615 7332 -7356 7330 0
7616 -8298 7617 0
7616 8298 -7617 0
-7616 8298 7617 0
-7616 -8298 -7617 0
-7617 7359 -7330 0
-7617 7358 7330 7618 0
-7617 -7358 7330 -7618 0
7617 -7359 -7330 0
7617 7358 7330 -7618 0
7617 -7358 7330 7618 0
7618 -7332 7387 0
7618 -7356 7387 0
-7618 -7387 0
-7618 7332 7356 0
-7619 7620 7623 0
7619 -7620 0
7619 -7623 0
7620 -8299 7621 0
7620 8299 -7621 0
-7620 8299 7621 0
-7620 -8299 -7621 0
-7621 7363 -7330 0
-7621 7362 7330 7622 0
-7621 -7362 7330 -7622 0
7621 -7363 -7330 0
7621 7362 7330 -7622 0
7621 -7362 7330 7622 0
7622 -7332 7386 0
7622 -7355 7386 0
-7622 -7386 0
-7622 7332 7355 0
7623 -8300 7624 0
7623 8300 -7624 0
-7623 8300 7624 0
-7623 -8300 -7624 0
-7624 7366 -7330 0
-7624 7365 7330 7625 0
-7624 -7365 7330 -7625 0
7624 -7366 -7330 0
7624 7365 7330 -7625 0
7624 -7365 7330 7625 0
7625 -7362 7388 0
7625 7388 -7622 0
-7625 -7388 0
-7625 7362 7622 0
-7626 7627 7634 0
7626 -7627 0
7626 -7634 0
-7627 7628 7631 0
7627 -7628 0
7627 -7631 0
7628 -8301 7629 0
7628 8301 -7629 0
-7628 8301 7629 0
-7628 -8301 -7629 0
-7629 7371 -7330 0
-7629 7370 7330 7630 0
-7629 -7370 7330 -7630 0
7629 -7371 -7330 0
7629 7370 7330 -7630 0
7629 -7370 7330 7630 0
7630 -7332 7384 0
7630 -7354 7384 0
-7630 -7384 0
-7630 7332 7354 0
7631 -8302 7632 0
7631 8302 -7632 0
-7631 8302 7632 0
-7631 -8302 -7632 0
-7632 7374 -7330 0
-7632 7373 7330 7633 0
-7632 -7373 7330 -7633 0
7632 -7374 -7330 0
7632 7373 7330 -7633 0
7632 -7373 7330 7633 0
7633 -7370 7392 0
7633 7392 -7630 0
-7633 -7392 0
-7633 7370 7630 0
-7634 7635 7638 0
7634 -7635 0
7634 -7638 0
7635 -8303 7636 0
7635 8303 -7636 0
-7635 8303 7636 0
-7635 -8303 -7636 0
-7636 7378 -7330 0
-7636 7377 7330 7637 0
-7636 -7377 7330 -7637 0
7636 -7378 -7330 0
7636 7377 7330 -7637 0
7636 -7377 7330 7637 0
7637 -7369 7391 0
7637 7391 -7630 0
-7637 -7391 0
-7637 7369 7630 0
7638 -8304 7639 0
7638 8304 -7639 0
-7638 8304 7639 0
-7638 -8304 -7639 0
-7639 7381 -7330 0
-7639 7380 7330 7640 0
-7639 -7380 7330 -7640 0
7639 -7381 -7330 0
7639 7380 7330 -7640 0
7639 -7380 7330 7640 0
7640 -7377 7393 0
7640 7393 -7637 0
-7640 -7393 0
-7640 7377 7637 0
7641 7626 -7642 0
-7641 -7626 0
-7641 7642 0
-7642 -8300 7643 7646 0
-7642 -8300 7624 7643 0
-7642 7624 7643 7646 0
7642 -7624 -7646 0
7642 8300 -7646 0
7642 -7643 0
7642 8300 -7624 0
7643 7619 -7644 0
-7643 -7619 0
-7643 7644 0
-7644 -8298 7617 0
-7644 7617 7645 0
-7644 -8298 7645 0
7644 -7617 -7645 0
7644 8298 -7617 0
7644 8298 -7645 0
7645 8297 -7615 0
-7645 -8297 0
-7645 7615 0
7646 8299 -7621 0
-7646 -8299 0
-7646 7621 0
-7647 -8304 7648 7651 0
-7647 -8304 7639 7648 0
-7647 7639 7648 7651 0
7647 -7639 -7651 0
7647 8304 -7651 0
7647 -7648 0
7647 8304 -7639 0
7648 7634 -7649 0
-7648 -7634 0
-7648 7649 0
-7649 -8302 7632 0
-7649 7632 7650 0
-7649 -8302 7650 0
7649 -7632 -7650 0
7649 8302 -7632 0
7649 8302 -7650 0
7650 8301 -7629 0
-7650 -8301 0
-7650 7629 0
7651 8303 -7636 0
-7651 -8303 0
-7651 7636 0
-7652 7653 7676 0
7652 -7653 0
7652 -7676 0
-7653 7654 7666 0
7653 -7654 0
7653 -7666 0
-7654 7655 7662 0
7654 -7655 0
7654 -7662 0
-7655 7656 7660 0
7655 -7656 0
7655 -7660 0
-7656 7398 -7330 0
-7656 7398 7657 0
-7656 -7398 7330 -7657 0
7656 -7398 -7330 0
7656 -7398 7657 0
7656 7398 7330 -7657 0
7657 7404 -7658 0
-7657 -7404 0
-7657 7658 0
7658 7409 7413 -7659 0
-7658 -7409 0
-7658 -7413 0
-7658 7659 0
7659 -7331 7445 0
7659 -7418 7445 0
-7659 -7445 0
-7659 7331 7418 0
-7660 7402 -7330 0
-7660 7402 7661 0
-7660 -7402 7330 -7661 0
7660 -7402 -7330 0
7660 -7402 7661 0
7660 7402 7330 -7661 0
7661 7398 -7657 0
-7661 -7398 0
-7661 7657 0
-7662 7663 7664 0
7662 -7663 0
7662 -7664 0
-7663 7405 -7330 0
-7663 7405 7658 0
-7663 -7405 7330 -7658 0
7663 -7405 -7330 0
7663 -7405 7658 0
7663 7405 7330 -7658 0
-7664 7406 -7330 0
-7664 7406 7665 0
-7664 -7406 7330 -7665 0
7664 -7406 -7330 0
7664 -7406 7665 0
7664 7406 7330 -7665 0
7665 7405 -7658 0
-7665 -7405 0
-7665 7658 0
-7666 7667 7671 0
7666 -7667 0
7666 -7671 0
-7667 7668 7669 0
7667 -7668 0
7667 -7669 0
-7668 7410 -7330 0
-7668 7410 7659 0
-7668 -7410 7330 -7659 0
7668 -7410 -7330 0
7668 -7410 7659 0
7668 7410 7330 -7659 0
-7669 7411 -7330 0
-7669 7411 7670 0
-7669 -7411 7330 -7670 0
7669 -7411 -7330 0
7669 -7411 7670 0
7669 7411 7330 -7670 0
7670 7410 -7659 0
-7670 -7410 0
-7670 7659 0
-7671 7672 7674 0
7671 -7672 0
7671 -7674 0
-7672 7414 -7330 0
-7672 7414 7673 0
-7672 -7414 7330 -7673 0
7672 -7414 -7330 0
7672 -7414 7673 0
7672 7414 7330 -7673 0
7673 7409 -7659 0
-7673 -7409 0
-7673 7659 0
-7674 7416 -7330 0
-7674 7416 7675 0
-7674 -7416 7330 -7675 0
7674 -7416 -7330 0
7674 -7416 7675 0
7674 7416 7330 -7675 0
7675 7414 -7673 0
-7675 -7414 0
-7675 7673 0
-7676 7677 7689 0
7676 -7677 0
7676 -7689 0
-7677 7678 7684 0
7677 -7678 0
7677 -7684 0
-7678 7679 7681 0
7678 -7679 0
7678 -7681 0
7679 -8305 7680 0
7679 8305 -7680 0
-7679 8305 7680 0
-7679 -8305 -7680 0
-7680 7422 -7330 0
-7680 -7331 -7421 7330 0
-7680 7331 7421 7330 0
7680 -7422 -7330 0
7680 -7331 7421 7330 0
7680 7331 -7421 7330 0
7681 -8306 7682 0
7681 8306 -7682 0
-7681 8306 7682 0
-7681 -8306 -7682 0
-7682 7424 -7330 0
-7682 7423 7330 7683 0
-7682 -7423 7330 -7683 0
7682 -7424 -7330 0
7682 7423 7330 -7683 0
7682 -7423 7330 7683 0
7683 -7331 7448 0
7683 -7421 7448 0
-7683 -7448 0
-7683 7331 7421 0
-7684 7685 7687 0
7684 -7685 0
7684 -7687 0
-7685 7428 -7330 0
-7685 7427 7330 7686 0
-7685 -7427 7330 -7686 0
7685 -7428 -7330 0
7685 7427 7330 -7686 0
7685 -7427 7330 7686 0
7686 -7331 7447 0
7686 -7420 7447 0
-7686 -7447 0
-7686 7331 7420 0
-7687 7430 -7330 0
-7687 7430 7688 0
-7687 -7430 7330 -7688 0
7687 -7430 -7330 0
7687 -7430 7688 0
7687 7430 7330 -7688 0
7688 -7427 7449 0
7688 7449 -7686 0
-7688 -7449 0
-7688 7427 7686 0
-7689 7690 7695 0
7689 -7690 0
7689 -7695 0
-7690 7691 7693 0
7690 -7691 0
7690 -7693 0
-7691 7434 -7330 0
-7691 7434 7692 0
-7691 -7434 7330 -7692 0
7691 -7434 -7330 0
7691 -7434 7692 0
7691 7434 7330 -7692 0
7692 -7331 7446 0
7692 -7419 7446 0
-7692 -7446 0
-7692 7331 7419 0
-7693 7436 -7330 0
-7693 7436 7694 0
-7693 -7436 7330 -7694 0
7693 -7436 -7330 0
7693 -7436 7694 0
7693 7436 7330 -7694 0
7694 7434 -7692 0
-7694 -7434 0
-7694 7692 0
-7695 7696 7698 0
7695 -7696 0
7695 -7698 0
-7696 7439 -7330 0
-7696 7439 7697 0
-7696 -7439 7330 -7697 0
7696 -7439 -7330 0
7696 -7439 7697 0
7696 7439 7330 -7697 0
7697 7433 -7692 0
-7697 -7433 0
-7697 7692 0
-7698 7441 -7330 0
-7698 7441 7699 0
-7698 -7441 7330 -7699 0
7698 -7441 -7330 0
7698 -7441 7699 0
7698 7441 7330 -7699 0
7699 7439 -7697 0
-7699 -7439 0
-7699 7697 0
-7700 7655 7662 7701 7706 0
7700 -7706 0
7700 -7655 0
7700 -7662 0
7700 -7701 0
7701 7653 -7702 0
-7701 -7653 0
-7701 7702 0
-7702 7690 7695 7703 0
7702 -7690 0
7702 -7695 0
7702 -7703 0
-7703 7684 7704 0
7703 -7684 0
7703 -7704 0
-7704 -8306 7682 0
-7704 7682 7705 0
-7704 -8306 7705 0
7704 -7682 -7705 0
7704 8306 -7682 0
7704 8306 -7705 0
7705 8305 -7680 0
-7705 -8305 0
-7705 7680 0
-7706 7667 7671 0
7706 -7667 0
7706 -7671 0
-7707 6949 7589 7592 7611 0
7707 -7611 0
7707 -6949 0
7707 -7592 0
7707 -7589 0
7708 -7779 7827 0
7708 -7709 7827 -7834 0
-7708 -7827 0
-7708 7779 7834 0
-7708 7709 7779 0
7709 -7738 7768 7774 0
7709 -7710 7768 7774 0
-7709 -7774 0
-7709 -7768 0
-7709 7710 7738 0
7710 -7719 7733 7736 0
7710 -7711 7733 7736 0
-7710 -7736 0
-7710 -7733 0
-7710 7711 7719 0
7711 -8292 7712 -7716 0
7711 -8292 7715 -7716 0
7711 7712 7715 -7716 0
-7711 -7712 -7715 0
-7711 8292 -7715 0
-7711 7716 0
-7711 8292 -7712 0
7712 8291 -7713 0
-7712 -8291 0
-7712 7713 0
-7713 7714 0
7713 -7714 0
-7714 6573 0
7714 -6573 0
-7715 7323 -7454 0
-7715 8291 6818 7454 0
-7715 -8291 -7323 7454 0
7715 -7323 -7454 0
7715 8291 -6818 7454 0
7715 -8291 7323 7454 0
-7716 7717 7718 0
7716 -7717 0
7716 -7718 0
7717 -8292 7715 0
7717 8292 -7715 0
-7717 8292 7715 0
-7717 -8292 -7715 0
7718 -8291 7713 0
7718 8291 -7080 0
-7718 8291 7080 0
-7718 -8291 -7713 0
-7719 7720 7726 0
7719 -7720 0
7719 -7726 0
-7720 7721 7723 0
7720 -7721 0
7720 -7723 0
7721 -8293 7722 0
7721 8293 -7722 0
-7721 8293 7722 0
-7721 -8293 -7722 0
-7722 7461 -7454 0
-7722 -7457 -7460 7454 0
-7722 7457 7460 7454 0
7722 -7461 -7454 0
7722 -7457 7460 7454 0
7722 7457 -7460 7454 0
7723 -8294 7724 0
7723 8294 -7724 0
-7723 8294 7724 0
-7723 -8294 -7724 0
-7724 7463 -7454 0
-7724 7462 7454 7725 0
-7724 -7462 7454 -7725 0
7724 -7463 -7454 0
7724 7462 7454 -7725 0
7724 -7462 7454 7725 0
7725 -8292 -7457 0
7725 -7457 7461 0
7725 -8292 7461 0
-7725 8292 -7461 0
-7725 7457 -7461 0
-7725 8292 7457 0
-7726 7727 7730 0
7726 -7727 0
7726 -7730 0
7727 -8295 7728 0
7727 8295 -7728 0
-7727 8295 7728 0
-7727 -8295 -7728 0
-7728 7467 -7454 0
-7728 7466 7454 7729 0
-7728 -7466 7454 -7729 0
7728 -7467 -7454 0
7728 7466 7454 -7729 0
7728 -7466 7454 7729 0
7729 -7457 7473 0
7729 -7459 7473 0
-7729 -7473 0
-7729 7457 7459 0
7730 -8296 7731 0
7730 8296 -7731 0
-7730 8296 7731 0
-7730 -8296 -7731 0
-7731 7470 -7454 0
-7731 7469 7454 7732 0
-7731 -7469 7454 -7732 0
7731 -7470 -7454 0
7731 7469 7454 -7732 0
7731 -7469 7454 7732 0
7732 -7466 7476 0
7732 7476 -7729 0
-7732 -7476 0
-7732 7466 7729 0
7733 7726 -7734 0
-7733 -7726 0
-7733 7734 0
-7734 -8294 7724 0
-7734 7724 7735 0
-7734 -8294 7735 0
7734 -7724 -7735 0
7734 8294 -7724 0
7734 8294 -7735 0
7735 8293 -7722 0
-7735 -8293 0
-7735 7722 0
-7736 -8296 7731 0
-7736 7731 7737 0
-7736 -8296 7737 0
7736 -7731 -7737 0
7736 8296 -7731 0
7736 8296 -7737 0
7737 8295 -7728 0
-7737 -8295 0
-7737 7728 0
-7738 7739 7753 0
7738 -7739 0
7738 -7753 0
-7739 7740 7746 0
7739 -7740 0
7739 -7746 0
-7740 7741 7743 0
7740 -7741 0
7740 -7743 0
7741 -8297 7742 0
7741 8297 -7742 0
-7741 8297 7742 0
-7741 -8297 -7742 0
-7742 7481 -7454 0
-7742 -7456 -7480 7454 0
-7742 7456 7480 7454 0
7742 -7481 -7454 0
7742 -7456 7480 7454 0
7742 7456 -7480 7454 0
7743 -8298 7744 0
7743 8298 -7744 0
-7743 8298 7744 0
-7743 -8298 -7744 0
-7744 7483 -7454 0
-7744 7482 7454 7745 0
-7744 -7482 7454 -7745 0
7744 -7483 -7454 0
7744 7482 7454 -7745 0
7744 -7482 7454 7745 0
7745 -7456 7511 0
7745 -7480 7511 0
-7745 -7511 0
-7745 7456 7480 0
-7746 7747 7750 0
7746 -7747 0
7746 -7750 0
7747 -8299 7748 0
7747 8299 -7748 0
-7747 8299 7748 0
-7747 -8299 -7748 0
-7748 7487 -7454 0
-7748 7486 7454 7749 0
-7748 -7486 7454 -7749 0
7748 -7487 -7454 0
7748 7486 7454 -7749 0
7748 -7486 7454 7749 0
7749 -7456 7510 0
7749 -7479 7510 0
-7749 -7510 0
-7749 7456 7479 0
7750 -8300 7751 0
7750 8300 -7751 0
-7750 8300 7751 0
-7750 -8300 -7751 0
-7751 7490 -7454 0
-7751 7489 7454 7752 0
-7751 -7489 7454 -7752 0
7751 -7490 -7454 0
7751 7489 7454 -7752 0
7751 -7489 7454 7752 0
7752 -7486 7512 0
7752 7512 -7749 0
-7752 -7512 0
-7752 7486 7749 0
-7753 7754 7761 0
7753 -7754 0
7753 -7761 0
-7754 7755 7758 0
7754 -7755 0
7754 -7758 0
7755 -8301 7756 0
7755 8301 -7756 0
-7755 8301 7756 0
-7755 -8301 -7756 0
-7756 7495 -7454 0
-7756 7494 7454 7757 0
-7756 -7494 7454 -7757 0
7756 -7495 -7454 0
7756 7494 7454 -7757 0
7756 -7494 7454 7757 0
7757 -7456 7508 0
7757 -7478 7508 0
-7757 -7508 0
-7757 7456 7478 0
7758 -8302 7759 0
7758 8302 -7759 0
-7758 8302 7759 0
-7758 -8302 -7759 0
-7759 7498 -7454 0
-7759 7497 7454 7760 0
-7759 -7497 7454 -7760 0
7759 -7498 -7454 0
7759 7497 7454 -7760 0
7759 -7497 7454 7760 0
7760 -7494 7516 0
7760 7516 -7757 0
-7760 -7516 0
-7760 7494 7757 0
-7761 7762 7765 0
7761 -7762 0
7761 -7765 0
7762 -8303 7763 0
7762 8303 -7763 0
-7762 8303 7763 0
-7762 -8303 -7763 0
-7763 7502 -7454 0
-7763 7501 7454 7764 0
-7763 -7501 7454 -7764 0
7763 -7502 -7454 0
7763 7501 7454 -7764 0
7763 -7501 7454 7764 0
7764 -7493 7515 0
7764 7515 -7757 0
-7764 -7515 0
-7764 7493 7757 0
7765 -8304 7766 0
7765 8304 -7766 0
-7765 8304 7766 0
-7765 -8304 -7766 0
-7766 7505 -7454 0
-7766 7504 7454 7767 0
-7766 -7504 7454 -7767 0
7766 -7505 -7454 0
7766 7504 7454 -7767 0
7766 -7504 7454 7767 0
7767 -7501 7517 0
7767 7517 -7764 0
-7767 -7517 0
-7767 7501 7764 0
7768 7753 -7769 0
-7768 -7753 0
-7768 7769 0
-7769 -8300 7770 7773 0
-7769 -8300 7751 7770 0
-7769 7751 7770 7773 0
7769 -7751 -7773 0
7769 8300 -7773 0
7769 -7770 0
7769 8300 -7751 0
7770 7746 -7771 0
-7770 -7746 0
-7770 7771 0
-7771 -8298 7744 0
-7771 7744 7772 0
-7771 -8298 7772 0
7771 -7744 -7772 0
7771 8298 -7744 0
7771 8298 -7772 0
7772 8297 -7742 0
-7772 -8297 0
-7772 7742 0
7773 8299 -7748 0
-7773 -8299 0
-7773 7748 0
-7774 -8304 7775 7778 0
-7774 -8304 7766 7775 0
-7774 7766 7775 7778 0
7774 -7766 -7778 0
7774 8304 -7778 0
7774 -7775 0
7774 8304 -7766 0
7775 7761 -7776 0
-7775 -7761 0
-7775 7776 0
-7776 -8302 7759 0
-7776 7759 7777 0
-7776 -8302 7777 0
7776 -7759 -7777 0
7776 8302 -7759 0
7776 8302 -7777 0
7777 8301 -7756 0
-7777 -8301 0
-7777 7756 0
7778 8303 -7763 0
-7778 -8303 0
-7778 7763 0
-7779 7780 7803 0
7779 -7780 0
7779 -7803 0
-7780 7781 7793 0
7780 -7781 0
7780 -7793 0
-7781 7782 7789 0
7781 -7782 0
7781 -7789 0
-7782 7783 7787 0
7782 -7783 0
7782 -7787 0
-7783 7522 -7454 0
-7783 7522 7784 0
-7783 -7522 7454 -7784 0
7783 -7522 -7454 0
7783 -7522 7784 0
7783 7522 7454 -7784 0
7784 7528 -7785 0
-7784 -7528 0
-7784 7785 0
7785 7533 7537 -7786 0
-7785 -7533 0
-7785 -7537 0
-7785 7786 0
7786 -7455 7569 0
7786 -7542 7569 0
-7786 -7569 0
-7786 7455 7542 0
-7787 7526 -7454 0
-7787 7526 7788 0
-7787 -7526 7454 -7788 0
7787 -7526 -7454 0
7787 -7526 7788 0
7787 7526 7454 -7788 0
7788 7522 -7784 0
-7788 -7522 0
-7788 7784 0
-7789 7790 7791 0
7789 -7790 0
7789 -7791 0
-7790 7529 -7454 0
-7790 7529 7785 0
-7790 -7529 7454 -7785 0
7790 -7529 -7454 0
7790 -7529 7785 0
7790 7529 7454 -7785 0
-7791 7530 -7454 0
-7791 7530 7792 0
-7791 -7530 7454 -7792 0
7791 -7530 -7454 0
7791 -7530 7792 0
7791 7530 7454 -7792 0
7792 7529 -7785 0
-7792 -7529 0
-7792 7785 0
-7793 7794 7798 0
7793 -7794 0
7793 -7798 0
-7794 7795 7796 0
7794 -7795 0
7794 -7796 0
-7795 7534 -7454 0
-7795 7534 7786 0
-7795 -7534 7454 -7786 0
7795 -7534 -7454 0
7795 -7534 7786 0
7795 7534 7454 -7786 0
-7796 7535 -7454 0
-7796 7535 7797 0
-7796 -7535 7454 -7797 0
7796 -7535 -7454 0
7796 -7535 7797 0
7796 7535 7454 -7797 0
7797 7534 -7786 0
-7797 -7534 0
-7797 7786 0
-7798 7799 7801 0
7798 -7799 0
7798 -7801 0
-7799 7538 -7454 0
-7799 7538 7800 0
-7799 -7538 7454 -7800 0
7799 -7538 -7454 0
7799 -7538 7800 0
7799 7538 7454 -7800 0
7800 7533 -7786 0
-7800 -7533 0
-7800 7786 0
-7801 7540 -7454 0
-7801 7540 7802 0
-7801 -7540 7454 -7802 0
7801 -7540 -7454 0
7801 -7540 7802 0
7801 7540 7454 -7802 0
7802 7538 -7800 0
-7802 -7538 0
-7802 7800 0
-7803 7804 7816 0
7803 -7804 0
7803 -7816 0
-7804 7805 7811 0
7804 -7805 0
7804 -7811 0
-7805 7806 7808 0
7805 -7806 0
7805 -7808 0
7806 -8305 7807 0
7806 8305 -7807 0
-7806 8305 7807 0
-7806 -8305 -7807 0
-7807 7546 -7454 0
-7807 -7455 -7545 7454 0
-7807 7455 7545 7454 0
7807 -7546 -7454 0
7807 -7455 7545 7454 0
7807 7455 -7545 7454 0
7808 -8306 7809 0
7808 8306 -7809 0
-7808 8306 7809 0
-7808 -8306 -7809 0
-7809 7548 -7454 0
-7809 7547 7454 7810 0
-7809 -7547 7454 -7810 0
7809 -7548 -7454 0
7809 7547 7454 -7810 0
7809 -7547 7454 7810 0
7810 -7455 7572 0
7810 -7545 7572 0
-7810 -7572 0
-7810 7455 7545 0
-7811 7812 7814 0
7811 -7812 0
7811 -7814 0
-7812 7552 -7454 0
-7812 7551 7454 7813 0
-7812 -7551 7454 -7813 0
7812 -7552 -7454 0
7812 7551 7454 -7813 0
7812 -7551 7454 7813 0
7813 -7455 7571 0
7813 -7544 7571 0
-7813 -7571 0
-7813 7455 7544 0
-7814 7554 -7454 0
-7814 7554 7815 0
-7814 -7554 7454 -7815 0
7814 -7554 -7454 0
7814 -7554 7815 0
7814 7554 7454 -7815 0
7815 -7551 7573 0
7815 7573 -7813 0
-7815 -7573 0
-7815 7551 7813 0
-7816 7817 7822 0
7816 -7817 0
7816 -7822 0
-7817 7818 7820 0
7817 -7818 0
7817 -7820 0
-7818 7558 -7454 0
-7818 7558 7819 0
-7818 -7558 7454 -7819 0
7818 -7558 -7454 0
7818 -7558 7819 0
7818 7558 7454 -7819 0
7819 -7455 7570 0
7819 -7543 7570 0
-7819 -7570 0
-7819 7455 7543 0
-7820 7560 -7454 0
-7820 7560 7821 0
-7820 -7560 7454 -7821 0
7820 -7560 -7454 0
7820 -7560 7821 0
7820 7560 7454 -7821 0
7821 7558 -7819 0
-7821 -7558 0
-7821 7819 0
-7822 7823 7825 0
7822 -7823 0
7822 -7825 0
-7823 7563 -7454 0
-7823 7563 7824 0
-7823 -7563 7454 -7824 0
7823 -7563 -7454 0
7823 -7563 7824 0
7823 7563 7454 -7824 0
7824 7557 -7819 0
-7824 -7557 0
-7824 7819 0
-7825 7565 -7454 0
-7825 7565 7826 0
-7825 -7565 7454 -7826 0
7825 -7565 -7454 0
7825 -7565 7826 0
7825 7565 7454 -7826 0
7826 7563 -7824 0
-7826 -7563 0
-7826 7824 0
-7827 7782 7789 7828 7833 0
7827 -7833 0
7827 -7782 0
7827 -7789 0
7827 -7828 0
7828 7780 -7829 0
-7828 -7780 0
-7828 7829 0
-7829 7817 7822 7830 0
7829 -7817 0
7829 -7822 0
7829 -7830 0
-7830 7811 7831 0
7830 -7811 0
7830 -7831 0
-7831 -8306 7809 0
-7831 7809 7832 0
-7831 -8306 7832 0
7831 -7809 -7832 0
7831 8306 -7809 0
7831 8306 -7832 0
7832 8305 -7807 0
-7832 -8305 0
-7832 7807 0
-7833 7794 7798 0
7833 -7794 0
7833 -7798 0
-7834 7076 7716 7719 7738 0
7834 -7738 0
7834 -7076 0
7834 -7719 0
7834 -7716 0
7835 -7836 7972 -8104 8187 0
7835 7836 -7972 -8104 8187 0
7835 -7836 7972 8104 -8187 0
7835 7836 -7972 8104 -8187 0
-7835 -7836 -7972 0
-7835 7836 7972 0
-7835 8104 8187 0
-7835 -8104 -8187 0
-7836 -1162 -7837 0
-7836 1162 -4032 -4033 0
-7836 1162 4032 4033 0
7836 -1162 7837 0
7836 1162 4032 -4033 0
7836 1162 -4032 4033 0
7837 1115 -7839 0
7837 -1115 1143 7838 0
7837 -1115 -1143 -7838 0
-7837 1115 7839 0
-7837 -1115 -1143 7838 0
-7837 -1115 1143 -7838 0
7838 8276 -8292 0
7838 8292 -391 0
-7838 -8276 -8292 0
-7838 8292 391 0
7839 1092 -7840 0
7839 -1035 -1036 -1092 0
7839 1035 1036 -1092 0
-7839 1092 7840 0
-7839 1035 -1036 -1092 0
-7839 -1035 1036 -1092 0
7840 -7914 7961 0
7840 -7841 7961 -7968 0
-7840 -7961 0
-7840 7914 7968 0
-7840 7841 7914 0
7841 -7873 7903 7909 0
7841 -7842 7903 7909 0
-7841 -7909 0
-7841 -7903 0
-7841 7842 7873 0
7842 -7854 7868 7871 0
7842 -7843 7868 7871 0
-7842 -7871 0
-7842 -7868 0
-7842 7843 7854 0
7843 -8293 -7846 7853 0
7843 -8293 7844 -7846 0
7843 7844 -7846 7853 0
-7843 -7844 -7853 0
-7843 8293 -7853 0
-7843 7846 0
-7843 8293 -7844 0
-7844 7588 -7581 0
-7844 7590 7581 7845 0
-7844 -7590 7581 -7845 0
7844 -7588 -7581 0
7844 7590 7581 -7845 0
7844 -7590 7581 7845 0
7845 -8291 6953 0
-7845 8291 0
-7845 -6953 0
-7846 7847 7849 0
7846 -7847 0
7846 -7849 0
7847 -8291 7848 0
-7847 8291 0
-7847 -7848 0
-7848 6951 0
7848 -6951 0
-7849 7850 7852 0
7849 -7850 0
7849 -7852 0
7850 -8292 7851 0
7850 8292 -7851 0
-7850 8292 7851 0
-7850 -8292 -7851 0
-7851 7586 -7581 0
-7851 8291 6953 7581 0
-7851 -8291 -7586 7581 0
7851 -7586 -7581 0
7851 8291 -6953 7581 0
7851 -8291 7586 7581 0
7852 -8293 7844 0
7852 8293 -7844 0
-7852 8293 7844 0
-7852 -8293 -7844 0
7853 8292 -7851 0
-7853 -8292 0
-7853 7851 0
-7854 7855 7861 0
7854 -7855 0
7854 -7861 0
-7855 7856 7858 0
7855 -7856 0
7855 -7858 0
7856 -8294 7857 0
7856 8294 -7857 0
-7856 8294 7857 0
-7856 -8294 -7857 0
-7857 7595 -7581 0
-7857 -7584 -7594 7581 0
-7857 7584 7594 7581 0
7857 -7595 -7581 0
7857 -7584 7594 7581 0
7857 7584 -7594 7581 0
7858 -8295 7859 0
7858 8295 -7859 0
-7858 8295 7859 0
-7858 -8295 -7859 0
-7859 7597 -7581 0
-7859 7596 7581 7860 0
-7859 -7596 7581 -7860 0
7859 -7597 -7581 0
7859 7596 7581 -7860 0
7859 -7596 7581 7860 0
7860 -7584 7608 0
7860 -7594 7608 0
-7860 -7608 0
-7860 7584 7594 0
-7861 7862 7865 0
7861 -7862 0
7861 -7865 0
7862 -8296 7863 0
7862 8296 -7863 0
-7862 8296 7863 0
-7862 -8296 -7863 0
-7863 7601 -7581 0
-7863 7600 7581 7864 0
-7863 -7600 7581 -7864 0
7863 -7601 -7581 0
7863 7600 7581 -7864 0
7863 -7600 7581 7864 0
7864 -7584 7607 0
7864 -7593 7607 0
-7864 -7607 0
-7864 7584 7593 0
7865 -8297 7866 0
7865 8297 -7866 0
-7865 8297 7866 0
-7865 -8297 -7866 0
-7866 7604 -7581 0
-7866 7603 7581 7867 0
-7866 -7603 7581 -7867 0
7866 -7604 -7581 0
7866 7603 7581 -7867 0
7866 -7603 7581 7867 0
7867 -7600 7610 0
7867 7610 -7864 0
-7867 -7610 0
-7867 7600 7864 0
7868 7861 -7869 0
-7868 -7861 0
-7868 7869 0
-7869 -8295 7859 0
-7869 7859 7870 0
-7869 -8295 7870 0
7869 -7859 -7870 0
7869 8295 -7859 0
7869 8295 -7870 0
7870 8294 -7857 0
-7870 -8294 0
-7870 7857 0
-7871 -8297 7866 0
-7871 7866 7872 0
-7871 -8297 7872 0
7871 -7866 -7872 0
7871 8297 -7866 0
7871 8297 -7872 0
7872 8296 -7863 0
-7872 -8296 0
-7872 7863 0
-7873 7874 7888 0
7873 -7874 0
7873 -7888 0
-7874 7875 7881 0
7874 -7875 0
7874 -7881 0
-7875 7876 7878 0
7875 -7876 0
7875 -7878 0
7876 -8298 7877 0
7876 8298 -7877 0
-7876 8298 7877 0
-7876 -8298 -7877 0
-7877 7615 -7581 0
-7877 -7583 -7614 7581 0
-7877 7583 7614 7581 0
7877 -7615 -7581 0
7877 -7583 7614 7581 0
7877 7583 -7614 7581 0
7878 -8299 7879 0
7878 8299 -7879 0
-7878 8299 7879 0
-7878 -8299 -7879 0
-7879 7617 -7581 0
-7879 7616 7581 7880 0
-7879 -7616 7581 -7880 0
7879 -7617 -7581 0
7879 7616 7581 -7880 0
7879 -7616 7581 7880 0
7880 -7583 7645 0
7880 -7614 7645 0
-7880 -7645 0
-7880 7583 7614 0
-7881 7882 7885 0
7881 -7882 0
7881 -7885 0
7882 -8300 7883 0
7882 8300 -7883 0
-7882 8300 7883 0
-7882 -8300 -7883 0
-7883 7621 -7581 0
-7883 7620 7581 7884 0
-7883 -7620 7581 -7884 0
7883 -7621 -7581 0
7883 7620 7581 -7884 0
7883 -7620 7581 7884 0
7884 -7583 7644 0
7884 -7613 7644 0
-7884 -7644 0
-7884 7583 7613 0
7885 -8301 7886 0
7885 8301 -7886 0
-7885 8301 7886 0
-7885 -8301 -7886 0
-7886 7624 -7581 0
-7886 7623 7581 7887 0
-7886 -7623 7581 -7887 0
7886 -7624 -7581 0
7886 7623 7581 -7887 0
7886 -7623 7581 7887 0
7887 -7620 7646 0
7887 7646 -7884 0
-7887 -7646 0
-7887 7620 7884 0
-7888 7889 7896 0
7888 -7889 0
7888 -7896 0
-7889 7890 7893 0
7889 -7890 0
7889 -7893 0
7890 -8302 7891 0
7890 8302 -7891 0
-7890 8302 7891 0
-7890 -8302 -7891 0
-7891 7629 -7581 0
-7891 7628 7581 7892 0
-7891 -7628 7581 -7892 0
7891 -7629 -7581 0
7891 7628 7581 -7892 0
7891 -7628 7581 7892 0
7892 -7583 7642 0
7892 -7612 7642 0
-7892 -7642 0
-7892 7583 7612 0
7893 -8303 7894 0
7893 8303 -7894 0
-7893 8303 7894 0
-7893 -8303 -7894 0
-7894 7632 -7581 0
-7894 7631 7581 7895 0
-7894 -7631 7581 -7895 0
7894 -7632 -7581 0
7894 7631 7581 -7895 0
7894 -7631 7581 7895 0
7895 -7628 7650 0
7895 7650 -7892 0
-7895 -7650 0
-7895 7628 7892 0
-7896 7897 7900 0
7896 -7897 0
7896 -7900 0
7897 -8304 7898 0
7897 8304 -7898 0
-7897 8304 7898 0
-7897 -8304 -7898 0
-7898 7636 -7581 0
-7898 7635 7581 7899 0
-7898 -7635 7581 -7899 0
7898 -7636 -7581 0
7898 7635 7581 -7899 0
7898 -7635 7581 7899 0
7899 -7627 7649 0
7899 7649 -7892 0
-7899 -7649 0
-7899 7627 7892 0
7900 -8305 7901 0
7900 8305 -7901 0
-7900 8305 7901 0
-7900 -8305 -7901 0
-7901 7639 -7581 0
-7901 7638 7581 7902 0
-7901 -7638 7581 -7902 0
7901 -7639 -7581 0
7901 7638 7581 -7902 0
7901 -7638 7581 7902 0
7902 -7635 7651 0
7902 7651 -7899 0
-7902 -7651 0
-7902 7635 7899 0
7903 7888 -7904 0
-7903 -7888 0
-7903 7904 0
-7904 -8301 7905 7908 0
-7904 -8301 7886 7905 0
-7904 7886 7905 7908 0
7904 -7886 -7908 0
7904 8301 -7908 0
7904 -7905 0
7904 8301 -7886 0
7905 7881 -7906 0
-7905 -7881 0
-7905 7906 0
-7906 -8299 7879 0
-7906 7879 7907 0
-7906 -8299 7907 0
7906 -7879 -7907 0
7906 8299 -7879 0
7906 8299 -7907 0
7907 8298 -7877 0
-7907 -8298 0
-7907 7877 0
7908 8300 -7883 0
-7908 -8300 0
-7908 7883 0
-7909 -8305 7910 7913 0
-7909 -8305 7901 7910 0
-7909 7901 7910 7913 0
7909 -7901 -7913 0
7909 8305 -7913 0
7909 -7910 0
7909 8305 -7901 0
7910 7896 -7911 0
-7910 -7896 0
-7910 7911 0
-7911 -8303 7894 0
-7911 7894 7912 0
-7911 -8303 7912 0
7911 -7894 -7912 0
7911 8303 -7894 0
7911 8303 -7912 0
7912 8302 -7891 0
-7912 -8302 0
-7912 7891 0
7913 8304 -7898 0
-7913 -8304 0
-7913 7898 0
-7914 7915 7938 0
7914 -7915 0
7914 -7938 0
-7915 7916 7928 0
7915 -7916 0
7915 -7928 0
-7916 7917 7924 0
7916 -7917 0
7916 -7924 0
-7917 7918 7922 0
7917 -7918 0
7917 -7922 0
-7918 7656 -7581 0
-7918 7656 7919 0
-7918 -7656 7581 -7919 0
7918 -7656 -7581 0
7918 -7656 7919 0
7918 7656 7581 -7919 0
7919 7662 -7920 0
-7919 -7662 0
-7919 7920 0
7920 7667 7671 -7921 0
-7920 -7667 0
-7920 -7671 0
-7920 7921 0
7921 -7582 7702 0
7921 -7676 7702 0
-7921 -7702 0
-7921 7582 7676 0
-7922 7660 -7581 0
-7922 7660 7923 0
-7922 -7660 7581 -7923 0
7922 -7660 -7581 0
7922 -7660 7923 0
7922 7660 7581 -7923 0
7923 7656 -7919 0
-7923 -7656 0
-7923 7919 0
-7924 7925 7926 0
7924 -7925 0
7924 -7926 0
-7925 7663 -7581 0
-7925 7663 7920 0
-7925 -7663 7581 -7920 0
7925 -7663 -7581 0
7925 -7663 7920 0
7925 7663 7581 -7920 0
-7926 7664 -7581 0
-7926 7664 7927 0
-7926 -7664 7581 -7927 0
7926 -7664 -7581 0
7926 -7664 7927 0
7926 7664 7581 -7927 0
7927 7663 -7920 0
-7927 -7663 0
-7927 7920 0
-7928 7929 7933 0
7928 -7929 0
7928 -7933 0
-7929 7930 7931 0
7929 -7930 0
7929 -7931 0
-7930 7668 -7581 0
-7930 7668 7921 0
-7930 -7668 7581 -7921 0
7930 -7668 -7581 0
7930 -7668 7921 0
7930 7668 7581 -7921 0
-7931 7669 -7581 0
-7931 7669 7932 0
-7931 -7669 7581 -7932 0
7931 -7669 -7581 0
7931 -7669 7932 0
7931 7669 7581 -7932 0
7932 7668 -7921 0
-7932 -7668 0
-7932 7921 0
-7933 7934 7936 0
7933 -7934 0
7933 -7936 0
-7934 7672 -7581 0
-7934 7672 7935 0
-7934 -7672 7581 -7935 0
7934 -7672 -7581 0
7934 -7672 7935 0
7934 7672 7581 -7935 0
7935 7667 -7921 0
-7935 -7667 0
-7935 7921 0
-7936 7674 -7581 0
-7936 7674 7937 0
-7936 -7674 7581 -7937 0
7936 -7674 -7581 0
7936 -7674 7937 0
7936 7674 7581 -7937 0
7937 7672 -7935 0
-7937 -7672 0
-7937 7935 0
-7938 7939 7950 0
7938 -7939 0
7938 -7950 0
-7939 7940 7945 0
7939 -7940 0
7939 -7945 0
-7940 7941 7943 0
7940 -7941 0
7940 -7943 0
7941 -8306 7942 0
7941 8306 -7942 0
-7941 8306 7942 0
-7941 -8306 -7942 0
-7942 7680 -7581 0
-7942 -7582 -7679 7581 0
-7942 7582 7679 7581 0
7942 -7680 -7581 0
7942 -7582 7679 7581 0
7942 7582 -7679 7581 0
-7943 7682 -7581 0
-7943 7681 7581 7944 0
-7943 -7681 7581 -7944 0
7943 -7682 -7581 0
7943 7681 7581 -7944 0
7943 -7681 7581 7944 0
7944 -7582 7705 0
7944 -7679 7705 0
-7944 -7705 0
-7944 7582 7679 0
-7945 7946 7948 0
7945 -7946 0
7945 -7948 0
-7946 7685 -7581 0
-7946 7685 7947 0
-7946 -7685 7581 -7947 0
7946 -7685 -7581 0
7946 -7685 7947 0
7946 7685 7581 -7947 0
7947 -7582 7704 0
7947 -7678 7704 0
-7947 -7704 0
-7947 7582 7678 0
-7948 7687 -7581 0
-7948 7687 7949 0
-7948 -7687 7581 -7949 0
7948 -7687 -7581 0
7948 -7687 7949 0
7948 7687 7581 -7949 0
7949 7685 -7947 0
-7949 -7685 0
-7949 7947 0
-7950 7951 7956 0
7950 -7951 0
7950 -7956 0
-7951 7952 7954 0
7951 -7952 0
7951 -7954 0
-7952 7691 -7581 0
-7952 7691 7953 0
-7952 -7691 7581 -7953 0
7952 -7691 -7581 0
7952 -7691 7953 0
7952 7691 7581 -7953 0
7953 -7582 7703 0
7953 -7677 7703 0
-7953 -7703 0
-7953 7582 7677 0
-7954 7693 -7581 0
-7954 7693 7955 0
-7954 -7693 7581 -7955 0
7954 -7693 -7581 0
7954 -7693 7955 0
7954 7693 7581 -7955 0
7955 7691 -7953 0
-7955 -7691 0
-7955 7953 0
-7956 7957 7959 0
7956 -7957 0
7956 -7959 0
-7957 7696 -7581 0
-7957 7696 7958 0
-7957 -7696 7581 -7958 0
7957 -7696 -7581 0
7957 -7696 7958 0
7957 7696 7581 -7958 0
7958 7690 -7953 0
-7958 -7690 0
-7958 7953 0
-7959 7698 -7581 0
-7959 7698 7960 0
-7959 -7698 7581 -7960 0
7959 -7698 -7581 0
7959 -7698 7960 0
7959 7698 7581 -7960 0
7960 7696 -7958 0
-7960 -7696 0
-7960 7958 0
-7961 7917 7924 7962 7967 0
7961 -7967 0
7961 -7917 0
7961 -7924 0
7961 -7962 0
7962 7915 -7963 0
-7962 -7915 0
-7962 7963 0
-7963 7951 7956 7964 0
7963 -7951 0
7963 -7956 0
7963 -7964 0
-7964 7945 7965 0
7964 -7945 0
7964 -7965 0
-7965 7943 7966 0
7965 -7943 0
7965 -7966 0
7966 8306 -7942 0
-7966 -8306 0
-7966 7942 0
-7967 7929 7933 0
7967 -7929 0
7967 -7933 0
-7968 7849 7854 7873 7969 0
7968 -7969 0
7968 -7849 0
7968 -7873 0
7968 -7854 0
-7969 7970 7971 0
7969 -7970 0
7969 -7971 0
-7970 6950 0
7970 -6950 0
7971 -8291 7848 0
7971 8291 -7848 0
-7971 8291 7848 0
-7971 -8291 -7848 0
7972 -8046 8093 0
7972 -7973 8093 -8100 0
-7972 -8093 0
-7972 8046 8100 0
-7972 7973 8046 0
7973 -8005 8035 8041 0
7973 -7974 8035 8041 0
-7973 -8041 0
-7973 -8035 0
-7973 7974 8005 0
7974 -7986 8000 8003 0
7974 -7975 8000 8003 0
-7974 -8003 0
-7974 -8000 0
-7974 7975 7986 0
7975 -8293 -7978 7985 0
7975 -8293 7976 -7978 0
7975 7976 -7978 7985 0
-7975 -7976 -7985 0
-7975 8293 -7985 0
-7975 7978 0
-7975 8293 -7976 0
-7976 7715 -7708 0
-7976 7717 7708 7977 0
-7976 -7717 7708 -7977 0
7976 -7715 -7708 0
7976 7717 7708 -7977 0
7976 -7717 7708 7977 0
7977 -8291 7080 0
-7977 8291 0
-7977 -7080 0
-7978 7979 7981 0
7978 -7979 0
7978 -7981 0
7979 -8291 7980 0
-7979 8291 0
-7979 -7980 0
-7980 7078 0
7980 -7078 0
-7981 7982 7984 0
7981 -7982 0
7981 -7984 0
7982 -8292 7983 0
7982 8292 -7983 0
-7982 8292 7983 0
-7982 -8292 -7983 0
-7983 7713 -7708 0
-7983 8291 7080 7708 0
-7983 -8291 -7713 7708 0
7983 -7713 -7708 0
7983 8291 -7080 7708 0
7983 -8291 7713 7708 0
7984 -8293 7976 0
7984 8293 -7976 0
-7984 8293 7976 0
-7984 -8293 -7976 0
7985 8292 -7983 0
-7985 -8292 0
-7985 7983 0
-7986 7987 7993 0
7986 -7987 0
7986 -7993 0
-7987 7988 7990 0
7987 -7988 0
7987 -7990 0
7988 -8294 7989 0
7988 8294 -7989 0
-7988 8294 7989 0
-7988 -8294 -7989 0
-7989 7722 -7708 0
-7989 -7711 -7721 7708 0
-7989 7711 7721 7708 0
7989 -7722 -7708 0
7989 -7711 7721 7708 0
7989 7711 -7721 7708 0
7990 -8295 7991 0
7990 8295 -7991 0
-7990 8295 7991 0
-7990 -8295 -7991 0
-7991 7724 -7708 0
-7991 7723 7708 7992 0
-7991 -7723 7708 -7992 0
7991 -7724 -7708 0
7991 7723 7708 -7992 0
7991 -7723 7708 7992 0
7992 -7711 7735 0
7992 -7721 7735 0
-7992 -7735 0
-7992 7711 7721 0
-7993 7994 7997 0
7993 -7994 0
7993 -7997 0
7994 -8296 7995 0
7994 8296 -7995 0
-7994 8296 7995 0
-7994 -8296 -7995 0
-7995 7728 -7708 0
-7995 7727 7708 7996 0
-7995 -7727 7708 -7996 0
7995 -7728 -7708 0
7995 7727 7708 -7996 0
7995 -7727 7708 7996 0
7996 -7711 7734 0
7996 -7720 7734 0
-7996 -7734 0
-7996 7711 7720 0
7997 -8297 7998 0
7997 8297 -7998 0
-7997 8297 7998 0
-7997 -8297 -7998 0
-7998 7731 -7708 0
-7998 7730 7708 7999 0
-7998 -7730 7708 -7999 0
7998 -7731 -7708 0
7998 7730 7708 -7999 0
7998 -7730 7708 7999 0
7999 -7727 7737 0
7999 7737 -7996 0
-7999 -7737 0
-7999 7727 7996 0
8000 7993 -8001 0
-8000 -7993 0
-8000 8001 0
-8001 -8295 7991 0
-8001 7991 8002 0
-8001 -8295 8002 0
8001 -7991 -8002 0
8001 8295 -7991 0
8001 8295 -8002 0
8002 8294 -7989 0
-8002 -8294 0
-8002 7989 0
-8003 -8297 7998 0
-8003 7998 8004 0
-8003 -8297 8004 0
8003 -7998 -8004 0
8003 8297 -7998 0
8003 8297 -8004 0
8004 8296 -7995 0
-8004 -8296 0
-8004 7995 0
-8005 8006 8020 0
8005 -8006 0
8005 -8020 0
-8006 8007 8013 0
8006 -8007 0
8006 -8013 0
-8007 8008 8010 0
8007 -8008 0
8007 -8010 0
8008 -8298 8009 0
8008 8298 -8009 0
-8008 8298 8009 0
-8008 -8298 -8009 0
-8009 7742 -7708 0
-8009 -7710 -7741 7708 0
-8009 7710 7741 7708 0
8009 -7742 -7708 0
8009 -7710 7741 7708 0
8009 7710 -7741 7708 0
8010 -8299 8011 0
8010 8299 -8011 0
-8010 8299 8011 0
-8010 -8299 -8011 0
-8011 7744 -7708 0
-8011 7743 7708 8012 0
-8011 -7743 7708 -8012 0
8011 -7744 -7708 0
8011 7743 7708 -8012 0
8011 -7743 7708 8012 0
8012 -7710 7772 0
8012 -7741 7772 0
-8012 -7772 0
-8012 7710 7741 0
-8013 8014 8017 0
8013 -8014 0
8013 -8017 0
8014 -8300 8015 0
8014 8300 -8015 0
-8014 8300 8015 0
-8014 -8300 -8015 0
-8015 7748 -7708 0
-8015 7747 7708 8016 0
-8015 -7747 7708 -8016 0
8015 -7748 -7708 0
8015 7747 7708 -8016 0
8015 -7747 7708 8016 0
8016 -7710 7771 0
8016 -7740 7771 0
-8016 -7771 0
-8016 7710 7740 0
8017 -8301 8018 0
8017 8301 -8018 0
-8017 8301 8018 0
-8017 -8301 -8018 0
-8018 7751 -7708 0
-8018 7750 7708 8019 0
-8018 -7750 7708 -8019 0
8018 -7751 -7708 0
8018 7750 7708 -8019 0
8018 -7750 7708 8019 0
8019 -7747 7773 0
8019 7773 -8016 0
-8019 -7773 0
-8019 7747 8016 0
-8020 8021 8028 0
8020 -8021 0
8020 -8028 0
-8021 8022 8025 0
8021 -8022 0
8021 -8025 0
8022 -8302 8023 0
8022 8302 -8023 0
-8022 8302 8023 0
-8022 -8302 -8023 0
-8023 7756 -7708 0
-8023 7755 7708 8024 0
-8023 -7755 7708 -8024 0
8023 -7756 -7708 0
8023 7755 7708 -8024 0
8023 -7755 7708 8024 0
8024 -7710 7769 0
8024 -7739 7769 0
-8024 -7769 0
-8024 7710 7739 0
8025 -8303 8026 0
8025 8303 -8026 0
-8025 8303 8026 0
-8025 -8303 -8026 0
-8026 7759 -7708 0
-8026 7758 7708 8027 0
-8026 -7758 7708 -8027 0
8026 -7759 -7708 0
8026 7758 7708 -8027 0
8026 -7758 7708 8027 0
8027 -7755 7777 0
8027 7777 -8024 0
-8027 -7777 0
-8027 7755 8024 0
-8028 8029 8032 0
8028 -8029 0
8028 -8032 0
8029 -8304 8030 0
8029 8304 -8030 0
-8029 8304 8030 0
-8029 -8304 -8030 0
-8030 7763 -7708 0
-8030 7762 7708 8031 0
-8030 -7762 7708 -8031 0
8030 -7763 -7708 0
8030 7762 7708 -8031 0
8030 -7762 7708 8031 0
8031 -7754 7776 0
8031 7776 -8024 0
-8031 -7776 0
-8031 7754 8024 0
8032 -8305 8033 0
8032 8305 -8033 0
-8032 8305 8033 0
-8032 -8305 -8033 0
-8033 7766 -7708 0
-8033 7765 7708 8034 0
-8033 -7765 7708 -8034 0
8033 -7766 -7708 0
8033 7765 7708 -8034 0
8033 -7765 7708 8034 0
8034 -7762 7778 0
8034 7778 -8031 0
-8034 -7778 0
-8034 7762 8031 0
8035 8020 -8036 0
-8035 -8020 0
-8035 8036 0
-8036 -8301 8037 8040 0
-8036 -8301 8018 8037 0
-8036 8018 8037 8040 0
8036 -8018 -8040 0
8036 8301 -8040 0
8036 -8037 0
8036 8301 -8018 0
8037 8013 -8038 0
-8037 -8013 0
-8037 8038 0
-8038 -8299 8011 0
-8038 8011 8039 0
-8038 -8299 8039 0
8038 -8011 -8039 0
8038 8299 -8011 0
8038 8299 -8039 0
8039 8298 -8009 0
-8039 -8298 0
-8039 8009 0
8040 8300 -8015 0
-8040 -8300 0
-8040 8015 0
-8041 -8305 8042 8045 0
-8041 -8305 8033 8042 0
-8041 8033 8042 8045 0
8041 -8033 -8045 0
8041 8305 -8045 0
8041 -8042 0
8041 8305 -8033 0
8042 8028 -8043 0
-8042 -8028 0
-8042 8043 0
-8043 -8303 8026 0
-8043 8026 8044 0
-8043 -8303 8044 0
8043 -8026 -8044 0
8043 8303 -8026 0
8043 8303 -8044 0
8044 8302 -8023 0
-8044 -8302 0
-8044 8023 0
8045 8304 -8030 0
-8045 -8304 0
-8045 8030 0
-8046 8047 8070 0
8046 -8047 0
8046 -8070 0
-8047 8048 8060 0
8047 -8048 0
8047 -8060 0
-8048 8049 8056 0
8048 -8049 0
8048 -8056 0
-8049 8050 8054 0
8049 -8050 0
8049 -8054 0
-8050 7783 -7708 0
-8050 7783 8051 0
-8050 -7783 7708 -8051 0
8050 -7783 -7708 0
8050 -7783 8051 0
8050 7783 7708 -8051 0
8051 7789 -8052 0
-8051 -7789 0
-8051 8052 0
8052 7794 7798 -8053 0
-8052 -7794 0
-8052 -7798 0
-8052 8053 0
8053 -7709 7829 0
8053 -7803 7829 0
-8053 -7829 0
-8053 7709 7803 0
-8054 7787 -7708 0
-8054 7787 8055 0
-8054 -7787 7708 -8055 0
8054 -7787 -7708 0
8054 -7787 8055 0
8054 7787 7708 -8055 0
8055 7783 -8051 0
-8055 -7783 0
-8055 8051 0
-8056 8057 8058 0
8056 -8057 0
8056 -8058 0
-8057 7790 -7708 0
-8057 7790 8052 0
-8057 -7790 7708 -8052 0
8057 -7790 -7708 0
8057 -7790 8052 0
8057 7790 7708 -8052 0
-8058 7791 -7708 0
-8058 7791 8059 0
-8058 -7791 7708 -8059 0
8058 -7791 -7708 0
8058 -7791 8059 0
8058 7791 7708 -8059 0
8059 7790 -8052 0
-8059 -7790 0
-8059 8052 0
-8060 8061 8065 0
8060 -8061 0
8060 -8065 0
-8061 8062 8063 0
8061 -8062 0
8061 -8063 0
-8062 7795 -7708 0
-8062 7795 8053 0
-8062 -7795 7708 -8053 0
8062 -7795 -7708 0
8062 -7795 8053 0
8062 7795 7708 -8053 0
-8063 7796 -7708 0
-8063 7796 8064 0
-8063 -7796 7708 -8064 0
8063 -7796 -7708 0
8063 -7796 8064 0
8063 7796 7708 -8064 0
8064 7795 -8053 0
-8064 -7795 0
-8064 8053 0
-8065 8066 8068 0
8065 -8066 0
8065 -8068 0
-8066 7799 -7708 0
-8066 7799 8067 0
-8066 -7799 7708 -8067 0
8066 -7799 -7708 0
8066 -7799 8067 0
8066 7799 7708 -8067 0
8067 7794 -8053 0
-8067 -7794 0
-8067 8053 0
-8068 7801 -7708 0
-8068 7801 8069 0
-8068 -7801 7708 -8069 0
8068 -7801 -7708 0
8068 -7801 8069 0
8068 7801 7708 -8069 0
8069 7799 -8067 0
-8069 -7799 0
-8069 8067 0
-8070 8071 8082 0
8070 -8071 0
8070 -8082 0
-8071 8072 8077 0
8071 -8072 0
8071 -8077 0
-8072 8073 8075 0
8072 -8073 0
8072 -8075 0
8073 -8306 8074 0
8073 8306 -8074 0
-8073 8306 8074 0
-8073 -8306 -8074 0
-8074 7807 -7708 0
-8074 -7709 -7806 7708 0
-8074 7709 7806 7708 0
8074 -7807 -7708 0
8074 -7709 7806 7708 0
8074 7709 -7806 7708 0
-8075 7809 -7708 0
-8075 7808 7708 8076 0
-8075 -7808 7708 -8076 0
8075 -7809 -7708 0
8075 7808 7708 -8076 0
8075 -7808 7708 8076 0
8076 -7709 7832 0
8076 -7806 7832 0
-8076 -7832 0
-8076 7709 7806 0
-8077 8078 8080 0
8077 -8078 0
8077 -8080 0
-8078 7812 -7708 0
-8078 7812 8079 0
-8078 -7812 7708 -8079 0
8078 -7812 -7708 0
8078 -7812 8079 0
8078 7812 7708 -8079 0
8079 -7709 7831 0
8079 -7805 7831 0
-8079 -7831 0
-8079 7709 7805 0
-8080 7814 -7708 0
-8080 7814 8081 0
-8080 -7814 7708 -8081 0
8080 -7814 -7708 0
8080 -7814 8081 0
8080 7814 7708 -8081 0
8081 7812 -8079 0
-8081 -7812 0
-8081 8079 0
-8082 8083 8088 0
8082 -8083 0
8082 -8088 0
-8083 8084 8086 0
8083 -8084 0
8083 -8086 0
-8084 7818 -7708 0
-8084 7818 8085 0
-8084 -7818 7708 -8085 0
8084 -7818 -7708 0
8084 -7818 8085 0
8084 7818 7708 -8085 0
8085 -7709 7830 0
8085 -7804 7830 0
-8085 -7830 0
-8085 7709 7804 0
-8086 7820 -7708 0
-8086 7820 8087 0
-8086 -7820 7708 -8087 0
8086 -7820 -7708 0
8086 -7820 8087 0
8086 7820 7708 -8087 0
8087 7818 -8085 0
-8087 -7818 0
-8087 8085 0
-8088 8089 8091 0
8088 -8089 0
8088 -8091 0
-8089 7823 -7708 0
-8089 7823 8090 0
-8089 -7823 7708 -8090 0
8089 -7823 -7708 0
8089 -7823 8090 0
8089 7823 7708 -8090 0
8090 7817 -8085 0
-8090 -7817 0
-8090 8085 0
-8091 7825 -7708 0
-8091 7825 8092 0
-8091 -7825 7708 -8092 0
8091 -7825 -7708 0
8091 -7825 8092 0
8091 7825 7708 -8092 0
8092 7823 -8090 0
-8092 -7823 0
-8092 8090 0
-8093 8049 8056 8094 8099 0
8093 -8099 0
8093 -8049 0
8093 -8056 0
8093 -8094 0
8094 8047 -8095 0
-8094 -8047 0
-8094 8095 0
-8095 8083 8088 8096 0
8095 -8083 0
8095 -8088 0
8095 -8096 0
-8096 8077 8097 0
8096 -8077 0
8096 -8097 0
-8097 8075 8098 0
8097 -8075 0
8097 -8098 0
8098 8306 -8074 0
-8098 -8306 0
-8098 8074 0
-8099 8061 8065 0
8099 -8061 0
8099 -8065 0
-8100 7981 7986 8005 8101 0
8100 -8101 0
8100 -7981 0
8100 -8005 0
8100 -7986 0
-8101 8102 8103 0
8101 -8102 0
8101 -8103 0
-8102 7077 0
8102 -7077 0
8103 -8291 7980 0
8103 8291 -7980 0
-8103 8291 7980 0
-8103 -8291 -7980 0
8104 -8160 8181 0
8104 -8105 8181 -8184 0
-8104 -8181 0
-8104 8160 8184 0
-8104 8105 8160 0
8105 -8129 8153 8156 0
8105 -8106 8153 8156 0
-8105 -8156 0
-8105 -8153 0
-8105 8106 8129 0
8106 -8107 -8113 8128 0
8106 -8113 8127 8128 0
-8106 -8128 0
-8106 8113 0
-8106 8107 -8127 0
-8107 8297 8108 8110 0
-8107 -8297 -8108 8110 0
8107 -8110 0
8107 8297 -8108 0
8107 -8297 8108 0
-8108 7995 -7972 0
-8108 7994 7972 8109 0
-8108 -7994 7972 -8109 0
8108 -7995 -7972 0
8108 7994 7972 -8109 0
8108 -7994 7972 8109 0
8109 -7975 8001 0
8109 -7987 8001 0
-8109 -8001 0
-8109 7975 7987 0
8110 -8298 8111 0
8110 8298 -8111 0
-8110 8298 8111 0
-8110 -8298 -8111 0
-8111 7998 -7972 0
-8111 7997 7972 8112 0
-8111 -7997 7972 -8112 0
8111 -7998 -7972 0
8111 7997 7972 -8112 0
8111 -7997 7972 8112 0
8112 -7994 8004 0
8112 8004 -8109 0
-8112 -8004 0
-8112 7994 8109 0
-8113 -8121 8122 0
-8113 8114 8116 8122 0
8113 -8122 0
8113 -8114 8121 0
8113 -8116 8121 0
8114 -8292 8115 0
8114 -8291 8102 8115 0
8114 -8291 -8292 8102 0
-8114 -8102 -8115 0
-8114 8291 8292 0
-8114 8292 -8115 0
-8114 8292 -8102 0
-8114 8291 -8115 0
-8115 8291 7980 0
-8115 7980 -7972 0
-8115 -8291 -7980 7972 0
8115 -7980 -7972 0
8115 8291 -7980 0
8115 -8291 7980 7972 0
-8116 8293 8117 8118 0
-8116 -8293 -8117 8118 0
8116 -8118 0
8116 8293 -8117 0
8116 -8293 8117 0
-8117 7983 -7972 0
-8117 -7979 -7982 7972 0
-8117 7979 7982 7972 0
8117 -7983 -7972 0
8117 -7979 7982 7972 0
8117 7979 -7982 7972 0
8118 -8294 8119 0
8118 8294 -8119 0
-8118 8294 8119 0
-8118 -8294 -8119 0
-8119 7976 -7972 0
-8119 7984 7972 8120 0
-8119 -7984 7972 -8120 0
8119 -7976 -7972 0
8119 7984 7972 -8120 0
8119 -7984 7972 8120 0
8120 -8292 -7979 0
8120 -7979 7983 0
8120 -8292 7983 0
-8120 8292 -7983 0
-8120 7979 -7983 0
-8120 8292 7979 0
-8121 -8293 -8294 0
-8121 -8294 8119 0
-8121 -8293 8119 0
-8121 -8294 8117 0
-8121 8117 8119 0
8121 8294 -8119 0
8121 8293 -8117 -8119 0
8121 8293 8294 -8117 0
-8122 -8295 -8123 8124 8107 0
-8122 8295 8123 8124 8107 0
8122 -8107 0
8122 8295 -8123 0
8122 -8124 0
8122 -8295 8123 0
-8123 7989 -7972 0
-8123 -7975 -7988 7972 0
-8123 7975 7988 7972 0
8123 -7989 -7972 0
8123 -7975 7988 7972 0
8123 7975 -7988 7972 0
8124 -8296 8125 0
8124 8296 -8125 0
-8124 8296 8125 0
-8124 -8296 -8125 0
-8125 7991 -7972 0
-8125 7990 7972 8126 0
-8125 -7990 7972 -8126 0
8125 -7991 -7972 0
8125 7990 7972 -8126 0
8125 -7990 7972 8126 0
8126 -7975 8002 0
8126 -7988 8002 0
-8126 -8002 0
-8126 7975 7988 0
-8127 -8295 -8296 0
-8127 -8296 8125 0
-8127 -8295 8125 0
-8127 -8296 8123 0
-8127 8123 8125 0
8127 8296 -8125 0
8127 8295 -8123 -8125 0
8127 8295 8296 -8123 0
-8128 -8297 -8298 0
-8128 -8298 8111 0
-8128 -8297 8111 0
-8128 -8298 8108 0
-8128 8108 8111 0
8128 8298 -8111 0
8128 8297 -8108 -8111 0
8128 8297 8298 -8108 0
-8129 8130 8132 8135 8141 0
8129 -8130 0
8129 -8141 0
8129 -8135 0
8129 -8132 0
8130 -8299 8131 0
8130 8299 -8131 0
-8130 8299 8131 0
-8130 -8299 -8131 0
-8131 8009 -7972 0
-8131 -7974 -8008 7972 0
-8131 7974 8008 7972 0
8131 -8009 -7972 0
8131 -7974 8008 7972 0
8131 7974 -8008 7972 0
8132 -8300 8133 0
8132 8300 -8133 0
-8132 8300 8133 0
-8132 -8300 -8133 0
-8133 8011 -7972 0
-8133 8010 7972 8134 0
-8133 -8010 7972 -8134 0
8133 -8011 -7972 0
8133 8010 7972 -8134 0
8133 -8010 7972 8134 0
8134 -7974 8039 0
8134 -8008 8039 0
-8134 -8039 0
-8134 7974 8008 0
-8135 8301 8136 8138 0
-8135 -8301 -8136 8138 0
8135 -8138 0
8135 8301 -8136 0
8135 -8301 8136 0
-8136 8015 -7972 0
-8136 8014 7972 8137 0
-8136 -8014 7972 -8137 0
8136 -8015 -7972 0
8136 8014 7972 -8137 0
8136 -8014 7972 8137 0
8137 -7974 8038 0
8137 -8007 8038 0
-8137 -8038 0
-8137 7974 8007 0
8138 -8302 8139 0
8138 8302 -8139 0
-8138 8302 8139 0
-8138 -8302 -8139 0
-8139 8018 -7972 0
-8139 8017 7972 8140 0
-8139 -8017 7972 -8140 0
8139 -8018 -7972 0
8139 8017 7972 -8140 0
8139 -8017 7972 8140 0
8140 -8014 8040 0
8140 8040 -8137 0
-8140 -8040 0
-8140 8014 8137 0
-8141 -8303 -8142 8144 8147 0
-8141 8303 8142 8144 8147 0
8141 -8147 0
8141 8303 -8142 0
8141 -8144 0
8141 -8303 8142 0
-8142 8023 -7972 0
-8142 8022 7972 8143 0
-8142 -8022 7972 -8143 0
8142 -8023 -7972 0
8142 8022 7972 -8143 0
8142 -8022 7972 8143 0
8143 -7974 8036 0
8143 -8006 8036 0
-8143 -8036 0
-8143 7974 8006 0
8144 -8304 8145 0
8144 8304 -8145 0
-8144 8304 8145 0
-8144 -8304 -8145 0
-8145 8026 -7972 0
-8145 8025 7972 8146 0
-8145 -8025 7972 -8146 0
8145 -8026 -7972 0
8145 8025 7972 -8146 0
8145 -8025 7972 8146 0
8146 -8022 8044 0
8146 8044 -8143 0
-8146 -8044 0
-8146 8022 8143 0
-8147 8305 8148 8150 0
-8147 -8305 -8148 8150 0
8147 -8150 0
8147 8305 -8148 0
8147 -8305 8148 0
-8148 8030 -7972 0
-8148 8029 7972 8149 0
-8148 -8029 7972 -8149 0
8148 -8030 -7972 0
8148 8029 7972 -8149 0
8148 -8029 7972 8149 0
8149 -8021 8043 0
8149 8043 -8143 0
-8149 -8043 0
-8149 8021 8143 0
8150 -8306 8151 0
8150 8306 -8151 0
-8150 8306 8151 0
-8150 -8306 -8151 0
-8151 8033 -7972 0
-8151 8032 7972 8152 0
-8151 -8032 7972 -8152 0
8151 -8033 -7972 0
8151 8032 7972 -8152 0
8151 -8032 7972 8152 0
8152 -8029 8045 0
8152 8045 -8149 0
-8152 -8045 0
-8152 8029 8149 0
8153 8141 -8155 0
8153 8135 8141 -8154 0
-8153 -8141 0
-8153 -8135 8155 0
-8153 8154 8155 0
-8154 -8299 -8300 0
-8154 -8300 8133 0
-8154 -8299 8133 0
-8154 -8300 8131 0
-8154 8131 8133 0
8154 8300 -8133 0
8154 8299 -8131 -8133 0
8154 8299 8300 -8131 0
-8155 -8301 -8302 0
-8155 -8302 8139 0
-8155 -8301 8139 0
-8155 -8302 8136 0
-8155 8136 8139 0
8155 8302 -8139 0
8155 8301 -8136 -8139 0
8155 8301 8302 -8136 0
-8156 -8306 8157 8159 0
-8156 -8306 8151 8157 0
-8156 8151 8157 8159 0
8156 -8151 -8159 0
8156 8306 -8159 0
8156 -8157 0
8156 8306 -8151 0
8157 8304 8147 -8158 0
8157 -8145 8147 -8158 0
8157 8304 -8145 8147 0
-8157 -8304 8145 0
-8157 -8304 8158 0
-8157 -8147 0
-8157 8145 8158 0
8158 8303 -8142 0
-8158 -8303 0
-8158 8142 0
8159 8305 -8148 0
-8159 -8305 0
-8159 8148 0
-8160 8161 8164 8166 8171 0
8160 -8171 0
8160 -8161 0
8160 -8166 0
8160 -8164 0
-8161 8075 8162 8163 0
-8161 8075 -7972 8162 0
-8161 -8075 7972 8162 -8163 0
8161 -8075 -7972 0
8161 -8075 8163 0
8161 -8162 0
8161 8075 7972 -8163 0
-8162 8074 -7972 0
-8162 -7973 -8073 7972 0
-8162 7973 8073 7972 0
8162 -8074 -7972 0
8162 -7973 8073 7972 0
8162 7973 -8073 7972 0
8163 -7973 8098 0
8163 -8073 8098 0
-8163 -8098 0
-8163 7973 8073 0
-8164 8078 8080 8165 0
-8164 8078 8080 -7972 0
-8164 -8078 8080 7972 -8165 0
8164 -8078 -7972 0
8164 8078 7972 -8165 0
8164 -8080 0
8164 -8078 8165 0
8165 -7973 8097 0
8165 -8072 8097 0
-8165 -8097 0
-8165 7973 8072 0
-8166 8167 8169 0
8166 -8167 0
8166 -8169 0
-8167 8084 8086 8168 0
-8167 8084 8086 -7972 0
-8167 -8084 8086 7972 -8168 0
8167 -8084 -7972 0
8167 8084 7972 -8168 0
8167 -8086 0
8167 -8084 8168 0
8168 -7973 8096 0
8168 -8071 8096 0
-8168 -8096 0
-8168 7973 8071 0
-8169 8089 8091 8170 0
-8169 8089 8091 -7972 0
-8169 -8089 8091 7972 -8170 0
8169 -8089 -7972 0
8169 8089 7972 -8170 0
8169 -8091 0
8169 -8089 8170 0
8170 8083 -8168 0
-8170 -8083 0
-8170 8168 0
-8171 8172 8174 8176 0
8171 -8172 0
8171 -8174 0
8171 -8176 0
-8172 8062 8063 8173 0
-8172 8062 8063 -7972 0
-8172 -8062 8063 7972 -8173 0
8172 -8062 -7972 0
8172 8062 7972 -8173 0
8172 -8063 0
8172 -8062 8173 0
8173 -7973 8095 0
8173 -8070 8095 0
-8173 -8095 0
-8173 7973 8070 0
-8174 8066 8068 8175 0
-8174 8066 8068 -7972 0
-8174 -8066 8068 7972 -8175 0
8174 -8066 -7972 0
8174 8066 7972 -8175 0
8174 -8068 0
8174 -8066 8175 0
8175 8061 -8173 0
-8175 -8061 0
-8175 8173 0
-8176 8177 8179 0
8176 -8177 0
8176 -8179 0
-8177 8057 8058 8178 0
-8177 8057 8058 -7972 0
-8177 -8057 8058 7972 -8178 0
8177 -8057 -7972 0
8177 8057 7972 -8178 0
8177 -8058 0
8177 -8057 8178 0
8178 8061 8065 -8173 0
-8178 -8061 0
-8178 -8065 0
-8178 8173 0
-8179 8050 8054 8180 0
-8179 8050 8054 -7972 0
-8179 -8050 8054 7972 -8180 0
8179 -8050 -7972 0
8179 8050 7972 -8180 0
8179 -8054 0
8179 -8050 8180 0
8180 8056 -8178 0
-8180 -8056 0
-8180 8178 0
-8181 8182 8183 0
-8181 -8171 8183 0
8181 -8183 0
8181 8171 -8182 0
-8182 8161 8164 8167 8169 0
8182 -8169 0
8182 -8161 0
8182 -8167 0
8182 -8164 0
-8183 8172 8174 8177 8179 0
8183 -8179 0
8183 -8172 0
8183 -8177 0
8183 -8174 0
-8184 8116 8122 8129 8185 0
8184 -8185 0
8184 -8116 0
8184 -8129 0
8184 -8122 0
-8185 8291 8102 8186 0
-8185 -8291 -8102 8186 0
8185 -8186 0
8185 8291 -8102 0
8185 -8291 8102 0
8186 -8292 8115 0
8186 8292 -8115 0
-8186 8292 8115 0
-8186 -8292 -8115 0
-8187 -1162 -8188 0
-8187 8291 444 1162 0
-8187 -8291 -444 1162 0
8187 -1162 8188 0
8187 -8291 444 1162 0
8187 8291 -444 1162 0
8188 1115 -8189 0
8188 8291 444 -1115 0
8188 -8291 -444 -1115 0
-8188 1115 8189 0
-8188 -8291 444 -1115 0
-8188 8291 -444 -1115 0
8189 -1092 4033 0
8189 1092 -8190 0
-8189 -1092 -4033 0
-8189 1092 8190 0
8190 -8246 8267 0
8190 -8191 8267 -8270 0
-8190 -8267 0
-8190 8246 8270 0
-8190 8191 8246 0
8191 -8215 8239 8242 0
8191 -8192 8239 8242 0
-8191 -8242 0
-8191 -8239 0
-8191 8192 8215 0
8192 -8193 -8199 8214 0
8192 -8199 8213 8214 0
-8192 -8214 0
-8192 8199 0
-8192 8193 -8213 0
-8193 8297 8194 8196 0
-8193 -8297 -8194 8196 0
8193 -8196 0
8193 8297 -8194 0
8193 -8297 8194 0
-8194 7863 -7840 0
-8194 7862 7840 8195 0
-8194 -7862 7840 -8195 0
8194 -7863 -7840 0
8194 7862 7840 -8195 0
8194 -7862 7840 8195 0
8195 -7843 7869 0
8195 -7855 7869 0
-8195 -7869 0
-8195 7843 7855 0
8196 -8298 8197 0
8196 8298 -8197 0
-8196 8298 8197 0
-8196 -8298 -8197 0
-8197 7866 -7840 0
-8197 7865 7840 8198 0
-8197 -7865 7840 -8198 0
8197 -7866 -7840 0
8197 7865 7840 -8198 0
8197 -7865 7840 8198 0
8198 -7862 7872 0
8198 7872 -8195 0
-8198 -7872 0
-8198 7862 8195 0
-8199 -8207 8208 0
-8199 8200 8202 8208 0
8199 -8208 0
8199 -8200 8207 0
8199 -8202 8207 0
8200 -8292 8201 0
8200 -8291 7970 8201 0
8200 -8291 -8292 7970 0
-8200 -7970 -8201 0
-8200 8291 8292 0
-8200 8292 -8201 0
-8200 8292 -7970 0
-8200 8291 -8201 0
-8201 8291 7848 0
-8201 7848 -7840 0
-8201 -8291 -7848 7840 0
8201 -7848 -7840 0
8201 8291 -7848 0
8201 -8291 7848 7840 0
-8202 8293 8203 8204 0
-8202 -8293 -8203 8204 0
8202 -8204 0
8202 8293 -8203 0
8202 -8293 8203 0
-8203 7851 -7840 0
-8203 -7847 -7850 7840 0
-8203 7847 7850 7840 0
8203 -7851 -7840 0
8203 -7847 7850 7840 0
8203 7847 -7850 7840 0
8204 -8294 8205 0
8204 8294 -8205 0
-8204 8294 8205 0
-8204 -8294 -8205 0
-8205 7844 -7840 0
-8205 7852 7840 8206 0
-8205 -7852 7840 -8206 0
8205 -7844 -7840 0
8205 7852 7840 -8206 0
8205 -7852 7840 8206 0
8206 -8292 -7847 0
8206 -7847 7851 0
8206 -8292 7851 0
-8206 8292 -7851 0
-8206 7847 -7851 0
-8206 8292 7847 0
-8207 -8293 -8294 0
-8207 -8294 8205 0
-8207 -8293 8205 0
-8207 -8294 8203 0
-8207 8203 8205 0
8207 8294 -8205 0
8207 8293 -8203 -8205 0
8207 8293 8294 -8203 0
-8208 -8295 -8209 8210 8193 0
-8208 8295 8209 8210 8193 0
8208 -8193 0
8208 8295 -8209 0
8208 -8210 0
8208 -8295 8209 0
-8209 7857 -7840 0
-8209 -7843 -7856 7840 0
-8209 7843 7856 7840 0
8209 -7857 -7840 0
8209 -7843 7856 7840 0
8209 7843 -7856 7840 0
8210 -8296 8211 0
8210 8296 -8211 0
-8210 8296 8211 0
-8210 -8296 -8211 0
-8211 7859 -7840 0
-8211 7858 7840 8212 0
-8211 -7858 7840 -8212 0
8211 -7859 -7840 0
8211 7858 7840 -8212 0
8211 -7858 7840 8212 0
8212 -7843 7870 0
8212 -7856 7870 0
-8212 -7870 0
-8212 7843 7856 0
-8213 -8295 -8296 0
-8213 -8296 8211 0
-8213 -8295 8211 0
-8213 -8296 8209 0
-8213 8209 8211 0
8213 8296 -8211 0
8213 8295 -8209 -8211 0
8213 8295 8296 -8209 0
-8214 -8297 -8298 0
-8214 -8298 8197 0
-8214 -8297 8197 0
-8214 -8298 8194 0
-8214 8194 8197 0
8214 8298 -8197 0
8214 8297 -8194 -8197 0
8214 8297 8298 -8194 0
-8215 8216 8218 8221 8227 0
8215 -8216 0
8215 -8227 0
8215 -8221 0
8215 -8218 0
8216 -8299 8217 0
8216 8299 -8217 0
-8216 8299 8217 0
-8216 -8299 -8217 0
-8217 7877 -7840 0
-8217 -7842 -7876 7840 0
-8217 7842 7876 7840 0
8217 -7877 -7840 0
8217 -7842 7876 7840 0
8217 7842 -7876 7840 0
8218 -8300 8219 0
8218 8300 -8219 0
-8218 8300 8219 0
-8218 -8300 -8219 0
-8219 7879 -7840 0
-8219 7878 7840 8220 0
-8219 -7878 7840 -8220 0
8219 -7879 -7840 0
8219 7878 7840 -8220 0
8219 -7878 7840 8220 0
8220 -7842 7907 0
8220 -7876 7907 0
-8220 -7907 0
-8220 7842 7876 0
-8221 8301 8222 8224 0
-8221 -8301 -8222 8224 0
8221 -8224 0
8221 8301 -8222 0
8221 -8301 8222 0
-8222 7883 -7840 0
-8222 7882 7840 8223 0
-8222 -7882 7840 -8223 0
8222 -7883 -7840 0
8222 7882 7840 -8223 0
8222 -7882 7840 8223 0
8223 -7842 7906 0
8223 -7875 7906 0
-8223 -7906 0
-8223 7842 7875 0
8224 -8302 8225 0
8224 8302 -8225 0
-8224 8302 8225 0
-8224 -8302 -8225 0
-8225 7886 -7840 0
-8225 7885 7840 8226 0
-8225 -7885 7840 -8226 0
8225 -7886 -7840 0
8225 7885 7840 -8226 0
8225 -7885 7840 8226 0
8226 -7882 7908 0
8226 7908 -8223 0
-8226 -7908 0
-8226 7882 8223 0
-8227 -8303 -8228 8230 8233 0
-8227 8303 8228 8230 8233 0
8227 -8233 0
8227 8303 -8228 0
8227 -8230 0
8227 -8303 8228 0
-8228 7891 -7840 0
-8228 7890 7840 8229 0
-8228 -7890 7840 -8229 0
8228 -7891 -7840 0
8228 7890 7840 -8229 0
8228 -7890 7840 8229 0
8229 -7842 7904 0
8229 -7874 7904 0
-8229 -7904 0
-8229 7842 7874 0
8230 -8304 8231 0
8230 8304 -8231 0
-8230 8304 8231 0
-8230 -8304 -8231 0
-8231 7894 -7840 0
-8231 7893 7840 8232 0
-8231 -7893 7840 -8232 0
8231 -7894 -7840 0
8231 7893 7840 -8232 0
8231 -7893 7840 8232 0
8232 -7890 7912 0
8232 7912 -8229 0
-8232 -7912 0
-8232 7890 8229 0
-8233 8305 8234 8236 0
-8233 -8305 -8234 8236 0
8233 -8236 0
8233 8305 -8234 0
8233 -8305 8234 0
-8234 7898 -7840 0
-8234 7897 7840 8235 0
-8234 -7897 7840 -8235 0
8234 -7898 -7840 0
8234 7897 7840 -8235 0
8234 -7897 7840 8235 0
8235 -7889 7911 0
8235 7911 -8229 0
-8235 -7911 0
-8235 7889 8229 0
8236 -8306 8237 0
8236 8306 -8237 0
-8236 8306 8237 0
-8236 -8306 -8237 0
-8237 7901 -7840 0
-8237 7900 7840 8238 0
-8237 -7900 7840 -8238 0
8237 -7901 -7840 0
8237 7900 7840 -8238 0
8237 -7900 7840 8238 0
8238 -7897 7913 0
8238 7913 -8235 0
-8238 -7913 0
-8238 7897 8235 0
8239 8227 -8241 0
8239 8221 8227 -8240 0
-8239 -8227 0
-8239 -8221 8241 0
-8239 8240 8241 0
-8240 -8299 -8300 0
-8240 -8300 8219 0
-8240 -8299 8219 0
-8240 -8300 8217 0
-8240 8217 8219 0
8240 8300 -8219 0
8240 8299 -8217 -8219 0
8240 8299 8300 -8217 0
-8241 -8301 -8302 0
-8241 -8302 8225 0
-8241 -8301 8225 0
-8241 -8302 8222 0
-8241 8222 8225 0
8241 8302 -8225 0
8241 8301 -8222 -8225 0
8241 8301 8302 -8222 0
-8242 -8306 8243 8245 0
-8242 -8306 8237 8243 0
-8242 8237 8243 8245 0
8242 -8237 -8245 0
8242 8306 -8245 0
8242 -8243 0
8242 8306 -8237 0
8243 8304 8233 -8244 0
8243 -8231 8233 -8244 0
8243 8304 -8231 8233 0
-8243 -8304 8231 0
-8243 -8304 8244 0
-8243 -8233 0
-8243 8231 8244 0
8244 8303 -8228 0
-8244 -8303 0
-8244 8228 0
8245 8305 -8234 0
-8245 -8305 0
-8245 8234 0
-8246 8247 8250 8252 8257 0
8246 -8257 0
8246 -8247 0
8246 -8252 0
8246 -8250 0
-8247 7943 8248 8249 0
-8247 7943 -7840 8248 0
-8247 -7943 7840 8248 -8249 0
8247 -7943 -7840 0
8247 -7943 8249 0
8247 -8248 0
8247 7943 7840 -8249 0
-8248 7942 -7840 0
-8248 -7841 -7941 7840 0
-8248 7841 7941 7840 0
8248 -7942 -7840 0
8248 -7841 7941 7840 0
8248 7841 -7941 7840 0
8249 -7841 7966 0
8249 -7941 7966 0
-8249 -7966 0
-8249 7841 7941 0
-8250 7946 7948 8251 0
-8250 7946 7948 -7840 0
-8250 -7946 7948 7840 -8251 0
8250 -7946 -7840 0
8250 7946 7840 -8251 0
8250 -7948 0
8250 -7946 8251 0
8251 -7841 7965 0
8251 -7940 7965 0
-8251 -7965 0
-8251 7841 7940 0
-8252 8253 8255 0
8252 -8253 0
8252 -8255 0
-8253 7952 7954 8254 0
-8253 7952 7954 -7840 0
-8253 -7952 7954 7840 -8254 0
8253 -7952 -7840 0
8253 7952 7840 -8254 0
8253 -7954 0
8253 -7952 8254 0
8254 -7841 7964 0
8254 -7939 7964 0
-8254 -7964 0
-8254 7841 7939 0
-8255 7957 7959 8256 0
-8255 7957 7959 -7840 0
-8255 -7957 7959 7840 -8256 0
8255 -7957 -7840 0
8255 7957 7840 -8256 0
8255 -7959 0
8255 -7957 8256 0
8256 7951 -8254 0
-8256 -7951 0
-8256 8254 0
-8257 8258 8260 8262 0
8257 -8258 0
8257 -8260 0
8257 -8262 0
-8258 7930 7931 8259 0
-8258 7930 7931 -7840 0
-8258 -7930 7931 7840 -8259 0
8258 -7930 -7840 0
8258 7930 7840 -8259 0
8258 -7931 0
8258 -7930 8259 0
8259 -7841 7963 0
8259 -7938 7963 0
-8259 -7963 0
-8259 7841 7938 0
-8260 7934 7936 8261 0
-8260 7934 7936 -7840 0
-8260 -7934 7936 7840 -8261 0
8260 -7934 -7840 0
8260 7934 7840 -8261 0
8260 -7936 0
8260 -7934 8261 0
8261 7929 -8259 0
-8261 -7929 0
-8261 8259 0
-8262 8263 8265 0
8262 -8263 0
8262 -8265 0
-8263 7925 7926 8264 0
-8263 7925 7926 -7840 0
-8263 -7925 7926 7840 -8264 0
8263 -7925 -7840 0
8263 7925 7840 -8264 0
8263 -7926 0
8263 -7925 8264 0
8264 7929 7933 -8259 0
-8264 -7929 0
-8264 -7933 0
-8264 8259 0
-8265 7918 7922 8266 0
-8265 7918 7922 -7840 0
-8265 -7918 7922 7840 -8266 0
8265 -7918 -7840 0
8265 7918 7840 -8266 0
8265 -7922 0
8265 -7918 8266 0
8266 7924 -8264 0
-8266 -7924 0
-8266 8264 0
-8267 8268 8269 0
-8267 -8257 8269 0
8267 -8269 0
8267 8257 -8268 0
-8268 8247 8250 8253 8255 0
8268 -8255 0
8268 -8247 0
8268 -8253 0
8268 -8250 0
-8269 8258 8260 8263 8265 0
8269 -8265 0
8269 -8258 0
8269 -8263 0
8269 -8260 0
-8270 8202 8208 8215 8271 0
8270 -8271 0
8270 -8202 0
8270 -8215 0
8270 -8208 0
-8271 8291 7970 8272 0
-8271 -8291 -7970 8272 0
8271 -8272 0
8271 8291 -7970 0
8271 -8291 7970 0
8272 -8292 8201 0
8272 8292 -8201 0
-8272 8292 8201 0
-8272 -8292 -8201 0
8273 -8309 -8310 8274 0
-8273 8309 0
-8273 8310 0
-8273 -8274 0
-8274 8307 8308 0
8274 -8307 0
8274 -8308 0
-8311 0
-2 0
8273 0

