c Result of efficient AIG-to-CNF conversion using package CNF
p cnf 1328 5266
-2 3 797 1061 1190 0
2 -1190 0
2 -3 0
2 -1061 0
2 -797 0
-3 4 546 613 687 0
3 -687 0
3 -4 0
3 -613 0
3 -546 0
-4 5 251 527 529 0
-4 -5 -251 -527 -529 0
-4 5 251 -527 -529 0
-4 -5 -251 527 529 0
4 5 -251 0
4 -5 251 0
4 -527 529 0
4 527 -529 0
-5 6 248 0
-5 -6 -248 0
5 -6 248 0
5 6 -248 0
-6 7 240 0
-6 7 239 0
-6 239 240 0
6 -239 -240 0
6 -7 -240 0
6 -7 -239 0
-7 8 237 0
-7 52 237 0
-7 73 237 0
7 -237 0
7 -8 -52 -73 0
-8 9 43 0
-8 -9 -43 0
8 -9 43 0
8 9 -43 0
9 -10 -34 0
-9 10 0
-9 34 0
-10 11 12 0
-10 12 25 0
-10 11 25 0
10 -12 -25 0
10 -11 -12 0
10 -11 -25 0
11 -1314 -1315 -1319 -1320 0
-11 1320 0
-11 1314 0
-11 1319 0
-11 1315 0
-12 13 16 0
-12 16 20 0
-12 13 20 0
12 -13 -20 0
12 -16 -20 0
12 -13 -16 0
-13 -14 -15 0
-13 14 15 0
13 14 -15 0
13 -14 15 0
14 -1315 -1319 0
-14 1315 0
-14 1319 0
15 -1314 -1320 0
-15 1314 0
-15 1320 0
-16 17 19 0
-16 18 19 0
-16 17 18 0
16 -17 -18 0
16 -18 -19 0
16 -17 -19 0
17 -1312 -1321 0
-17 1312 0
-17 1321 0
18 -1311 -1322 0
-18 1311 0
-18 1322 0
19 -1310 -1323 0
-19 1310 0
-19 1323 0
-20 -21 -24 0
-20 21 24 0
20 21 -24 0
20 -21 24 0
-21 -22 -23 0
-21 22 23 0
21 22 -23 0
21 -22 23 0
22 -1312 -1322 0
-22 1312 0
-22 1322 0
23 -1311 -1323 0
-23 1311 0
-23 1323 0
24 -1313 -1321 0
-24 1313 0
-24 1321 0
-25 26 27 0
-25 -26 -27 0
25 -26 27 0
25 26 -27 0
26 -1315 -1320 0
-26 1315 0
-26 1320 0
-27 28 29 0
-27 -28 -29 0
27 -28 29 0
27 28 -29 0
-28 22 24 0
-28 23 24 0
-28 22 23 0
28 -22 -23 0
28 -23 -24 0
28 -22 -24 0
-29 30 31 0
-29 -30 -31 0
29 -30 31 0
29 30 -31 0
30 -1314 -1321 0
-30 1314 0
-30 1321 0
-31 -32 -33 0
-31 32 33 0
31 32 -33 0
31 -32 33 0
32 -1313 -1322 0
-32 1313 0
-32 1322 0
33 -1312 -1323 0
-33 1312 0
-33 1323 0
-34 35 36 0
-34 -35 -36 0
34 -35 36 0
34 35 -36 0
-35 26 28 0
-35 28 29 0
-35 26 29 0
35 -28 -29 0
35 -26 -28 0
35 -26 -29 0
-36 37 38 0
-36 -37 -38 0
36 -37 38 0
36 37 -38 0
-37 30 33 0
-37 32 33 0
-37 30 32 0
37 -30 -32 0
37 -32 -33 0
37 -30 -33 0
-38 39 40 0
-38 -39 -40 0
38 -39 40 0
38 39 -40 0
39 -1315 -1321 0
-39 1315 0
-39 1321 0
-40 -41 -42 0
-40 41 42 0
40 41 -42 0
40 -41 42 0
41 -1313 -1323 0
-41 1313 0
-41 1323 0
42 -1314 -1322 0
-42 1314 0
-42 1322 0
-43 44 45 0
-43 -44 -45 0
43 -44 45 0
43 44 -45 0
44 -35 -36 0
-44 35 0
-44 36 0
-45 46 47 0
-45 -46 -47 0
45 -46 47 0
45 46 -47 0
46 -37 -38 0
-46 37 0
-46 38 0
-47 48 49 0
-47 -48 -49 0
47 -48 49 0
47 48 -49 0
-48 39 42 0
-48 41 42 0
-48 39 41 0
48 -39 -41 0
48 -41 -42 0
48 -39 -42 0
-49 -50 -51 0
-49 50 51 0
49 50 -51 0
49 -50 51 0
50 -1315 -1322 0
-50 1315 0
-50 1322 0
51 -1314 -1323 0
-51 1314 0
-51 1323 0
-52 53 72 0
-52 -53 -72 0
52 -53 72 0
52 53 -72 0
53 -54 -70 0
-53 54 0
-53 70 0
-54 55 59 0
-54 59 68 0
-54 55 68 0
54 -55 -68 0
54 -59 -68 0
54 -55 -59 0
-55 56 58 0
-55 57 58 0
-55 56 57 0
55 -56 -57 0
55 -57 -58 0
55 -56 -58 0
56 -1315 -1318 0
-56 1315 0
-56 1318 0
57 -1314 -1319 0
-57 1314 0
-57 1319 0
58 -1313 -1320 0
-58 1313 0
-58 1320 0
-59 60 62 0
-59 62 66 0
-59 60 66 0
59 -60 -66 0
59 -62 -66 0
59 -60 -62 0
-60 56 61 0
-60 -56 -61 0
60 -56 61 0
60 56 -61 0
-61 -57 -58 0
-61 57 58 0
61 57 -58 0
61 -57 58 0
-62 63 65 0
-62 64 65 0
-62 63 64 0
62 -63 -64 0
62 -64 -65 0
62 -63 -65 0
63 -1311 -1321 0
-63 1311 0
-63 1321 0
64 -1310 -1322 0
-64 1310 0
-64 1322 0
65 -1309 -1323 0
-65 1309 0
-65 1323 0
-66 17 67 0
-66 -17 -67 0
66 -17 67 0
66 17 -67 0
-67 -18 -19 0
-67 18 19 0
67 18 -19 0
67 -18 19 0
-68 13 69 0
-68 -13 -69 0
68 -13 69 0
68 13 -69 0
-69 16 20 0
-69 -16 -20 0
69 -16 20 0
69 16 -20 0
-70 11 71 0
-70 -11 -71 0
70 -11 71 0
70 11 -71 0
-71 12 25 0
-71 -12 -25 0
71 -12 25 0
71 12 -25 0
-72 10 34 0
-72 -10 -34 0
72 -10 34 0
72 10 -34 0
-73 117 232 0
-73 74 232 0
-73 162 232 0
73 -232 0
73 -74 -117 -162 0
74 -75 -96 0
-74 75 0
-74 96 0
-75 76 95 0
-75 -76 -95 0
75 -76 95 0
75 76 -95 0
76 -77 -93 0
-76 77 0
-76 93 0
-77 78 82 0
-77 82 91 0
-77 78 91 0
77 -78 -91 0
77 -82 -91 0
77 -78 -82 0
-78 79 81 0
-78 80 81 0
-78 79 80 0
78 -79 -80 0
78 -80 -81 0
78 -79 -81 0
79 -1314 -1318 0
-79 1314 0
-79 1318 0
80 -1313 -1319 0
-80 1313 0
-80 1319 0
81 -1312 -1320 0
-81 1312 0
-81 1320 0
-82 83 85 0
-82 85 89 0
-82 83 89 0
82 -83 -89 0
82 -85 -89 0
82 -83 -85 0
-83 79 84 0
-83 -79 -84 0
83 -79 84 0
83 79 -84 0
-84 -80 -81 0
-84 80 81 0
84 80 -81 0
84 -80 81 0
-85 86 88 0
-85 87 88 0
-85 86 87 0
85 -86 -87 0
85 -87 -88 0
85 -86 -88 0
86 -1310 -1321 0
-86 1310 0
-86 1321 0
87 -1309 -1322 0
-87 1309 0
-87 1322 0
88 -1308 -1323 0
-88 1308 0
-88 1323 0
-89 63 90 0
-89 -63 -90 0
89 -63 90 0
89 63 -90 0
-90 -64 -65 0
-90 64 65 0
90 64 -65 0
90 -64 65 0
-91 60 92 0
-91 -60 -92 0
91 -60 92 0
91 60 -92 0
-92 62 66 0
-92 -62 -66 0
92 -62 66 0
92 62 -66 0
-93 55 94 0
-93 -55 -94 0
93 -55 94 0
93 55 -94 0
-94 59 68 0
-94 -59 -68 0
94 -59 68 0
94 59 -68 0
-95 54 70 0
-95 -54 -70 0
95 -54 70 0
95 54 -70 0
-96 97 116 0
-96 -97 -116 0
96 -97 116 0
96 97 -116 0
-97 98 103 0
-97 103 114 0
-97 98 114 0
97 -103 -114 0
97 -98 -103 0
97 -98 -114 0
98 -1315 -1317 -99 0
-98 1315 0
-98 1317 0
-98 99 0
-99 100 102 0
-99 101 102 0
-99 100 101 0
99 -100 -101 0
99 -101 -102 0
99 -100 -102 0
100 -1313 -1318 0
-100 1313 0
-100 1318 0
101 -1312 -1319 0
-101 1312 0
-101 1319 0
102 -1311 -1320 0
-102 1311 0
-102 1320 0
-103 104 106 0
-103 106 112 0
-103 104 112 0
103 -104 -112 0
103 -106 -112 0
103 -104 -106 0
-104 105 99 0
-104 -105 -99 0
104 -105 99 0
104 105 -99 0
105 -1315 -1317 0
-105 1315 0
-105 1317 0
-106 107 110 0
-106 107 109 0
-106 109 110 0
106 -109 -110 0
106 -107 -110 0
106 -107 -109 0
-107 100 108 0
-107 -100 -108 0
107 -100 108 0
107 100 -108 0
-108 -101 -102 0
-108 101 102 0
108 101 -102 0
108 -101 102 0
109 -1308 -1309 -1321 -1322 0
-109 1322 0
-109 1308 0
-109 1321 0
-109 1309 0
-110 86 111 0
-110 -86 -111 0
110 -86 111 0
110 86 -111 0
-111 -87 -88 0
-111 87 88 0
111 87 -88 0
111 -87 88 0
-112 83 113 0
-112 -83 -113 0
112 -83 113 0
112 83 -113 0
-113 85 89 0
-113 -85 -89 0
113 -85 89 0
113 85 -89 0
-114 78 115 0
-114 -78 -115 0
114 -78 115 0
114 78 -115 0
-115 82 91 0
-115 -82 -91 0
115 -82 91 0
115 82 -91 0
-116 77 93 0
-116 -77 -93 0
116 -77 93 0
116 77 -93 0
117 -118 -142 0
-117 118 0
-117 142 0
-118 119 140 0
-118 -119 -140 0
118 -119 140 0
118 119 -140 0
-119 120 127 0
-119 127 138 0
-119 120 138 0
119 -120 -138 0
119 -127 -138 0
119 -120 -127 0
-120 122 123 0
-120 121 122 0
-120 121 123 0
120 -121 -122 0
120 -122 -123 0
120 -121 -123 0
121 -1315 -1316 0
-121 1315 0
-121 1316 0
122 -1314 -1317 0
-122 1314 0
-122 1317 0
-123 124 126 0
-123 125 126 0
-123 124 125 0
123 -124 -125 0
123 -125 -126 0
123 -124 -126 0
124 -1312 -1318 0
-124 1312 0
-124 1318 0
125 -1310 -1320 0
-125 1310 0
-125 1320 0
126 -1311 -1319 0
-126 1311 0
-126 1319 0
-127 128 136 0
-127 128 130 0
-127 130 136 0
127 -130 -136 0
127 -128 -136 0
127 -128 -130 0
-128 121 129 0
-128 -121 -129 0
128 -121 129 0
128 121 -129 0
-129 122 123 0
-129 -122 -123 0
129 -122 123 0
129 122 -123 0
130 -131 -133 0
-130 131 0
-130 133 0
-131 124 132 0
-131 -124 -132 0
131 -124 132 0
131 124 -132 0
-132 -125 -126 0
-132 125 126 0
132 125 -126 0
132 -125 126 0
-133 -134 -135 0
-133 134 135 0
133 134 -135 0
133 -134 135 0
134 -1309 -1321 0
-134 1309 0
-134 1321 0
135 -1308 -1322 0
-135 1308 0
-135 1322 0
-136 107 137 0
-136 -107 -137 0
136 -107 137 0
136 107 -137 0
-137 109 110 0
-137 -109 -110 0
137 -109 110 0
137 109 -110 0
-138 104 139 0
-138 -104 -139 0
138 -104 139 0
138 104 -139 0
-139 106 112 0
-139 -106 -112 0
139 -106 112 0
139 106 -112 0
-140 98 141 0
-140 -98 -141 0
140 -98 141 0
140 98 -141 0
-141 103 114 0
-141 -103 -114 0
141 -103 114 0
141 103 -114 0
-142 143 160 0
-142 -143 -160 0
142 -143 160 0
142 143 -160 0
-143 144 151 0
-143 151 158 0
-143 144 158 0
143 -144 -158 0
143 -151 -158 0
143 -144 -151 0
-144 146 147 0
-144 145 146 0
-144 145 147 0
144 -145 -146 0
144 -146 -147 0
144 -145 -147 0
145 -1314 -1316 0
-145 1314 0
-145 1316 0
146 -1313 -1317 0
-146 1313 0
-146 1317 0
-147 148 150 0
-147 149 150 0
-147 148 149 0
147 -148 -149 0
147 -149 -150 0
147 -148 -150 0
148 -1311 -1318 0
-148 1311 0
-148 1318 0
149 -1310 -1319 0
-149 1310 0
-149 1319 0
150 -1309 -1320 0
-150 1309 0
-150 1320 0
-151 152 157 0
-151 152 154 0
-151 154 157 0
151 -154 -157 0
151 -152 -157 0
151 -152 -154 0
-152 145 153 0
-152 -145 -153 0
152 -145 153 0
152 145 -153 0
-153 146 147 0
-153 -146 -147 0
153 -146 147 0
153 146 -147 0
154 -1308 -1321 -155 0
-154 1308 0
-154 1321 0
-154 155 0
-155 148 156 0
-155 -148 -156 0
155 -148 156 0
155 148 -156 0
-156 -149 -150 0
-156 149 150 0
156 149 -150 0
156 -149 150 0
-157 131 133 0
-157 -131 -133 0
157 -131 133 0
157 131 -133 0
-158 128 159 0
-158 -128 -159 0
158 -128 159 0
158 128 -159 0
-159 130 136 0
-159 -130 -136 0
159 -130 136 0
159 130 -136 0
-160 120 161 0
-160 -120 -161 0
160 -120 161 0
160 120 -161 0
-161 127 138 0
-161 -127 -138 0
161 -127 138 0
161 127 -138 0
-162 196 227 0
-162 163 227 0
-162 219 227 0
162 -227 0
162 -163 -196 -219 0
163 -164 -182 0
-163 164 0
-163 182 0
-164 165 180 0
-164 -165 -180 0
164 -165 180 0
164 165 -180 0
-165 166 178 0
-165 166 173 0
-165 173 178 0
165 -173 -178 0
165 -166 -178 0
165 -166 -173 0
-166 168 169 0
-166 167 168 0
-166 167 169 0
166 -167 -168 0
166 -168 -169 0
166 -167 -169 0
167 -1313 -1316 0
-167 1313 0
-167 1316 0
168 -1312 -1317 0
-168 1312 0
-168 1317 0
-169 170 172 0
-169 171 172 0
-169 170 171 0
169 -170 -171 0
169 -171 -172 0
169 -170 -172 0
170 -1309 -1319 0
-170 1309 0
-170 1319 0
171 -1308 -1320 0
-171 1308 0
-171 1320 0
172 -1310 -1318 0
-172 1310 0
-172 1318 0
173 -174 -176 0
-173 174 0
-173 176 0
-174 167 175 0
-174 -167 -175 0
174 -167 175 0
174 167 -175 0
-175 168 169 0
-175 -168 -169 0
175 -168 169 0
175 168 -169 0
-176 -155 -177 0
-176 155 177 0
176 155 -177 0
176 -155 177 0
177 -1308 -1321 0
-177 1308 0
-177 1321 0
-178 152 179 0
-178 -152 -179 0
178 -152 179 0
178 152 -179 0
-179 154 157 0
-179 -154 -157 0
179 -154 157 0
179 154 -157 0
-180 144 181 0
-180 -144 -181 0
180 -144 181 0
180 144 -181 0
-181 151 158 0
-181 -151 -158 0
181 -151 158 0
181 151 -158 0
-182 183 194 0
-182 -183 -194 0
182 -183 194 0
182 183 -194 0
-183 184 193 0
-183 184 188 0
-183 188 193 0
183 -188 -193 0
183 -184 -193 0
183 -184 -188 0
-184 185 187 0
-184 186 187 0
-184 185 186 0
184 -185 -186 0
184 -186 -187 0
184 -185 -187 0
185 -1312 -1316 0
-185 1312 0
-185 1316 0
186 -1311 -1317 0
-186 1311 0
-186 1317 0
187 -1308 -1309 -1318 -1319 0
-187 1319 0
-187 1308 0
-187 1318 0
-187 1309 0
188 -189 -191 0
-188 189 0
-188 191 0
-189 185 190 0
-189 -185 -190 0
189 -185 190 0
189 185 -190 0
-190 -186 -187 0
-190 186 187 0
190 186 -187 0
190 -186 187 0
-191 -192 -172 0
-191 192 172 0
191 192 -172 0
191 -192 172 0
-192 -170 -171 0
-192 170 171 0
192 170 -171 0
192 -170 171 0
-193 174 176 0
-193 -174 -176 0
193 -174 176 0
193 174 -176 0
-194 166 195 0
-194 -166 -195 0
194 -166 195 0
194 166 -195 0
-195 173 178 0
-195 -173 -178 0
195 -173 178 0
195 173 -178 0
196 -197 -209 0
-196 197 0
-196 209 0
-197 198 207 0
-197 -198 -207 0
197 -198 207 0
197 198 -207 0
-198 206 0
-198 199 201 0
-198 200 201 0
198 -201 -206 0
198 -199 -200 -206 0
199 -1311 -1316 0
-199 1311 0
-199 1316 0
200 -1310 -1317 0
-200 1310 0
-200 1317 0
201 -202 -203 0
-201 202 0
-201 203 0
-202 -199 -200 0
-202 199 200 0
202 199 -200 0
202 -199 200 0
-203 -204 -205 0
-203 204 205 0
203 204 -205 0
203 -204 205 0
204 -1309 -1318 0
-204 1309 0
-204 1318 0
205 -1308 -1319 0
-205 1308 0
-205 1319 0
-206 189 191 0
-206 -189 -191 0
206 -189 191 0
206 189 -191 0
-207 184 208 0
-207 -184 -208 0
207 -184 208 0
207 184 -208 0
-208 188 193 0
-208 -188 -193 0
208 -188 193 0
208 188 -193 0
-209 210 216 0
-209 -210 -216 0
209 -210 216 0
209 210 -216 0
-210 215 0
-210 211 213 0
-210 212 213 0
210 -213 -215 0
210 -211 -212 -215 0
211 -1310 -1316 0
-211 1310 0
-211 1316 0
212 -1309 -1317 0
-212 1309 0
-212 1317 0
213 -1308 -1318 -214 0
-213 1308 0
-213 1318 0
-213 214 0
-214 -211 -212 0
-214 211 212 0
214 211 -212 0
214 -211 212 0
-215 202 203 0
-215 -202 -203 0
215 -202 203 0
215 202 -203 0
-216 217 218 0
-216 -217 -218 0
216 -217 218 0
216 217 -218 0
217 -1310 -1311 -1316 -1317 0
-217 1317 0
-217 1310 0
-217 1316 0
-217 1311 0
-218 201 206 0
-218 -201 -206 0
218 -201 206 0
218 201 -206 0
219 -220 -224 0
-219 220 0
-219 224 0
220 -221 -222 0
-220 221 0
-220 222 0
221 -1308 -1309 -1316 -1317 0
-221 1317 0
-221 1308 0
-221 1316 0
-221 1309 0
-222 -214 -223 0
-222 214 223 0
222 214 -223 0
222 -214 223 0
223 -1308 -1318 0
-223 1308 0
-223 1318 0
-224 225 226 0
-224 -225 -226 0
224 -225 226 0
224 225 -226 0
225 -1310 -1316 -212 0
-225 1310 0
-225 1316 0
-225 212 0
-226 213 215 0
-226 -213 -215 0
226 -213 215 0
226 213 -215 0
-227 165 228 231 0
-227 165 180 228 0
-227 180 228 231 0
227 -180 -231 0
227 -165 -231 0
227 -228 0
227 -165 -180 0
228 -163 -229 0
-228 163 0
-228 229 0
-229 207 197 0
-229 198 230 0
-229 198 197 0
-229 207 230 0
229 -197 -230 0
229 -198 -207 0
230 -210 -216 0
-230 210 0
-230 216 0
231 -183 -194 0
-231 183 0
-231 194 0
-232 233 235 0
-232 74 235 0
232 -235 0
232 -74 -233 0
-233 119 140 0
-233 140 234 0
-233 119 234 0
233 -140 -234 0
233 -119 -140 0
233 -119 -234 0
234 -143 -160 0
-234 143 0
-234 160 0
-235 95 236 0
-235 76 75 0
-235 95 75 0
-235 76 236 0
235 -75 -236 0
235 -76 -95 0
236 -97 -116 0
-236 97 0
-236 116 0
-237 43 238 0
-237 9 8 0
-237 43 8 0
-237 9 238 0
237 -8 -238 0
237 -9 -43 0
238 -53 -72 0
-238 53 0
-238 72 0
239 -44 -45 0
-239 44 0
-239 45 0
-240 241 242 0
-240 -241 -242 0
240 -241 242 0
240 241 -242 0
241 -46 -47 0
-241 46 0
-241 47 0
-242 243 244 0
-242 -243 -244 0
242 -243 244 0
242 243 -244 0
243 -48 -49 0
-243 48 0
-243 49 0
-244 245 0
244 -245 0
245 246 -247 0
-245 -246 0
-245 247 0
246 -1314 -1315 -1322 -1323 0
-246 1323 0
-246 1314 0
-246 1322 0
-246 1315 0
247 -1315 -1323 0
-247 1315 0
-247 1323 0
-248 249 250 0
-248 -249 -250 0
248 -249 250 0
248 249 -250 0
249 -241 -242 0
-249 241 0
-249 242 0
-250 247 244 0
-250 243 246 0
-250 246 244 0
-250 243 247 0
250 -246 -247 0
250 -243 -244 0
251 -506 -526 0
251 252 505 -526 0
-251 526 0
-251 -505 506 0
-251 -252 506 0
252 500 -501 0
252 253 497 -500 0
252 -253 -497 -500 0
-252 500 501 0
-252 -253 497 -500 0
-252 253 -497 -500 0
-253 254 491 0
-253 254 490 0
-253 490 491 0
253 -490 -491 0
253 -254 -491 0
253 -254 -490 0
-254 255 488 0
-254 303 488 0
-254 325 488 0
254 -488 0
254 -255 -303 -325 0
-255 256 294 0
-255 -256 -294 0
255 -256 294 0
255 256 -294 0
256 -257 -286 0
-256 257 0
-256 286 0
-257 258 263 0
-257 263 276 0
-257 258 276 0
257 -263 -276 0
257 -258 -263 0
257 -258 -276 0
258 -259 -261 0
-258 259 0
-258 261 0
259 -1319 -260 0
-259 1319 0
-259 260 0
-260 1315 0
-260 1323 -1324 -1325 0
260 -1315 -1323 0
260 -1315 1325 0
260 -1315 1324 0
261 -1320 -262 0
-261 1320 0
-261 262 0
-262 1314 0
-262 1322 -1324 -1325 0
262 -1314 -1322 0
262 -1314 1325 0
262 -1314 1324 0
-263 264 265 0
-263 265 272 0
-263 264 272 0
263 -264 -272 0
263 -265 -272 0
263 -264 -265 0
-264 -259 -261 0
-264 259 261 0
264 259 -261 0
264 -259 261 0
-265 266 270 0
-265 268 270 0
-265 266 268 0
265 -266 -268 0
265 -268 -270 0
265 -266 -270 0
266 -1321 -267 0
-266 1321 0
-266 267 0
-267 1312 0
-267 1320 -1324 -1325 0
267 -1312 -1320 0
267 -1312 1325 0
267 -1312 1324 0
268 -1322 -269 0
-268 1322 0
-268 269 0
-269 1311 0
-269 1319 -1324 -1325 0
269 -1311 -1319 0
269 -1311 1325 0
269 -1311 1324 0
270 -1323 -271 0
-270 1323 0
-270 271 0
-271 1310 0
-271 1318 -1324 -1325 0
271 -1310 -1318 0
271 -1310 1325 0
271 -1310 1324 0
-272 24 273 0
-272 -24 -273 0
272 -24 273 0
272 24 -273 0
-273 -274 -275 0
-273 274 275 0
273 274 -275 0
273 -274 275 0
274 -1322 -267 0
-274 1322 0
-274 267 0
275 -1323 -269 0
-275 1323 0
-275 269 0
-276 277 278 0
-276 -277 -278 0
276 -277 278 0
276 277 -278 0
277 -1320 -260 0
-277 1320 0
-277 260 0
-278 279 280 0
-278 -279 -280 0
278 -279 280 0
278 279 -280 0
-279 24 275 0
-279 274 275 0
-279 24 274 0
279 -24 -274 0
279 -274 -275 0
279 -24 -275 0
-280 281 282 0
-280 -281 -282 0
280 -281 282 0
280 281 -282 0
281 -1321 -262 0
-281 1321 0
-281 262 0
-282 -283 -285 0
-282 283 285 0
282 283 -285 0
282 -283 285 0
283 -1322 -284 0
-283 1322 0
-283 284 0
-284 1313 0
-284 1321 -1324 -1325 0
284 -1313 -1321 0
284 -1313 1325 0
284 -1313 1324 0
285 -1323 -267 0
-285 1323 0
-285 267 0
-286 287 288 0
-286 -287 -288 0
286 -287 288 0
286 287 -288 0
-287 277 279 0
-287 279 280 0
-287 277 280 0
287 -279 -280 0
287 -277 -279 0
287 -277 -280 0
-288 289 290 0
-288 -289 -290 0
288 -289 290 0
288 289 -290 0
-289 281 285 0
-289 283 285 0
-289 281 283 0
289 -281 -283 0
289 -283 -285 0
289 -281 -285 0
-290 291 292 0
-290 -291 -292 0
290 -291 292 0
290 291 -292 0
291 -1321 -260 0
-291 1321 0
-291 260 0
-292 -42 -293 0
-292 42 293 0
292 42 -293 0
292 -42 293 0
293 -1323 -284 0
-293 1323 0
-293 284 0
-294 295 296 0
-294 -295 -296 0
294 -295 296 0
294 295 -296 0
295 -287 -288 0
-295 287 0
-295 288 0
-296 297 298 0
-296 -297 -298 0
296 -297 298 0
296 297 -298 0
297 -289 -290 0
-297 289 0
-297 290 0
-298 299 300 0
-298 -299 -300 0
298 -299 300 0
298 299 -300 0
-299 42 293 0
-299 291 293 0
-299 42 291 0
299 -42 -291 0
299 -291 -293 0
299 -42 -293 0
-300 -301 -302 0
-300 301 302 0
300 301 -302 0
300 -301 302 0
301 -1322 -260 0
-301 1322 0
-301 260 0
302 -1323 -262 0
-302 1323 0
-302 262 0
-303 304 324 0
-303 -304 -324 0
303 -304 324 0
303 304 -324 0
304 -305 -322 0
-304 305 0
-304 322 0
-305 306 310 0
-305 310 320 0
-305 306 320 0
305 -306 -320 0
305 -310 -320 0
305 -306 -310 0
-306 307 309 0
-306 308 309 0
-306 307 308 0
306 -307 -308 0
306 -308 -309 0
306 -307 -309 0
307 -1318 -260 0
-307 1318 0
-307 260 0
308 -1319 -262 0
-308 1319 0
-308 262 0
309 -1320 -284 0
-309 1320 0
-309 284 0
-310 311 313 0
-310 313 318 0
-310 311 318 0
310 -311 -318 0
310 -313 -318 0
310 -311 -313 0
-311 307 312 0
-311 -307 -312 0
311 -307 312 0
311 307 -312 0
-312 -308 -309 0
-312 308 309 0
312 308 -309 0
312 -308 309 0
-313 314 316 0
-313 315 316 0
-313 314 315 0
313 -314 -315 0
313 -315 -316 0
313 -314 -316 0
314 -1321 -269 0
-314 1321 0
-314 269 0
315 -1322 -271 0
-315 1322 0
-315 271 0
316 -1323 -317 0
-316 1323 0
-316 317 0
-317 1309 0
-317 1317 -1324 -1325 0
317 -1309 -1317 0
317 -1309 1325 0
317 -1309 1324 0
-318 266 319 0
-318 -266 -319 0
318 -266 319 0
318 266 -319 0
-319 -268 -270 0
-319 268 270 0
319 268 -270 0
319 -268 270 0
-320 264 321 0
-320 -264 -321 0
320 -264 321 0
320 264 -321 0
-321 265 272 0
-321 -265 -272 0
321 -265 272 0
321 265 -272 0
-322 258 323 0
-322 -258 -323 0
322 -258 323 0
322 258 -323 0
-323 263 276 0
-323 -263 -276 0
323 -263 276 0
323 263 -276 0
-324 257 286 0
-324 -257 -286 0
324 -257 286 0
324 257 -286 0
-325 371 483 0
-325 326 483 0
-325 414 483 0
325 -483 0
325 -326 -371 -414 0
326 -327 -348 0
-326 327 0
-326 348 0
-327 328 347 0
-327 -328 -347 0
327 -328 347 0
327 328 -347 0
328 -329 -345 0
-328 329 0
-328 345 0
-329 330 333 0
-329 333 343 0
-329 330 343 0
329 -330 -343 0
329 -333 -343 0
329 -330 -333 0
-330 81 332 0
-330 331 332 0
-330 81 331 0
330 -81 -331 0
330 -331 -332 0
330 -81 -332 0
331 -1318 -262 0
-331 1318 0
-331 262 0
332 -1319 -284 0
-332 1319 0
-332 284 0
-333 334 336 0
-333 336 341 0
-333 334 341 0
333 -334 -341 0
333 -336 -341 0
333 -334 -336 0
-334 331 335 0
-334 -331 -335 0
334 -331 335 0
334 331 -335 0
-335 -81 -332 0
-335 81 332 0
335 81 -332 0
335 -81 332 0
-336 337 339 0
-336 338 339 0
-336 337 338 0
336 -337 -338 0
336 -338 -339 0
336 -337 -339 0
337 -1321 -271 0
-337 1321 0
-337 271 0
338 -1322 -317 0
-338 1322 0
-338 317 0
339 -1323 -340 0
-339 1323 0
-339 340 0
-340 1308 0
-340 1316 -1325 0
-340 1324 -1325 0
340 -1308 1325 0
340 -1308 -1316 -1324 0
-341 314 342 0
-341 -314 -342 0
341 -314 342 0
341 314 -342 0
-342 -315 -316 0
-342 315 316 0
342 315 -316 0
342 -315 316 0
-343 311 344 0
-343 -311 -344 0
343 -311 344 0
343 311 -344 0
-344 313 318 0
-344 -313 -318 0
344 -313 318 0
344 313 -318 0
-345 306 346 0
-345 -306 -346 0
345 -306 346 0
345 306 -346 0
-346 310 320 0
-346 -310 -320 0
346 -310 320 0
346 310 -320 0
-347 305 322 0
-347 -305 -322 0
347 -305 322 0
347 305 -322 0
-348 349 370 0
-348 -349 -370 0
348 -349 370 0
348 349 -370 0
-349 350 356 0
-349 356 368 0
-349 350 368 0
349 -356 -368 0
349 -350 -356 0
349 -350 -368 0
350 -351 -352 0
-350 351 0
-350 352 0
351 -1317 -260 0
-351 1317 0
-351 260 0
-352 353 355 0
-352 354 355 0
-352 353 354 0
352 -353 -354 0
352 -354 -355 0
352 -353 -355 0
353 -1318 -284 0
-353 1318 0
-353 284 0
354 -1319 -267 0
-354 1319 0
-354 267 0
355 -1320 -269 0
-355 1320 0
-355 269 0
-356 357 358 0
-356 358 366 0
-356 357 366 0
356 -357 -366 0
356 -358 -366 0
356 -357 -358 0
-357 351 352 0
-357 -351 -352 0
357 -351 352 0
357 351 -352 0
-358 359 364 0
-358 359 361 0
-358 361 364 0
358 -361 -364 0
358 -359 -364 0
358 -359 -361 0
-359 353 360 0
-359 -353 -360 0
359 -353 360 0
359 353 -360 0
-360 -354 -355 0
-360 354 355 0
360 354 -355 0
360 -354 355 0
361 -362 -363 0
-361 362 0
-361 363 0
362 -1321 -317 0
-362 1321 0
-362 317 0
363 -1322 -340 0
-363 1322 0
-363 340 0
-364 337 365 0
-364 -337 -365 0
364 -337 365 0
364 337 -365 0
-365 -338 -339 0
-365 338 339 0
365 338 -339 0
365 -338 339 0
-366 334 367 0
-366 -334 -367 0
366 -334 367 0
366 334 -367 0
-367 336 341 0
-367 -336 -341 0
367 -336 341 0
367 336 -341 0
-368 330 369 0
-368 -330 -369 0
368 -330 369 0
368 330 -369 0
-369 333 343 0
-369 -333 -343 0
369 -333 343 0
369 333 -343 0
-370 329 345 0
-370 -329 -345 0
370 -329 345 0
370 329 -345 0
371 -372 -393 0
-371 372 0
-371 393 0
-372 373 391 0
-372 -373 -391 0
372 -373 391 0
372 373 -391 0
-373 374 380 0
-373 380 389 0
-373 374 389 0
373 -374 -389 0
373 -380 -389 0
373 -374 -380 0
-374 376 377 0
-374 375 376 0
-374 375 377 0
374 -375 -376 0
374 -376 -377 0
374 -375 -377 0
375 -1316 -260 0
-375 1316 0
-375 260 0
376 -1317 -262 0
-376 1317 0
-376 262 0
-377 126 379 0
-377 378 379 0
-377 126 378 0
377 -126 -378 0
377 -378 -379 0
377 -126 -379 0
378 -1318 -267 0
-378 1318 0
-378 267 0
379 -1320 -271 0
-379 1320 0
-379 271 0
-380 381 387 0
-380 381 383 0
-380 383 387 0
380 -383 -387 0
380 -381 -387 0
380 -381 -383 0
-381 375 382 0
-381 -375 -382 0
381 -375 382 0
381 375 -382 0
-382 376 377 0
-382 -376 -377 0
382 -376 377 0
382 376 -377 0
383 -384 -386 0
-383 384 0
-383 386 0
-384 378 385 0
-384 -378 -385 0
384 -378 385 0
384 378 -385 0
-385 -126 -379 0
-385 126 379 0
385 126 -379 0
385 -126 379 0
-386 -362 -363 0
-386 362 363 0
386 362 -363 0
386 -362 363 0
-387 359 388 0
-387 -359 -388 0
387 -359 388 0
387 359 -388 0
-388 361 364 0
-388 -361 -364 0
388 -361 364 0
388 361 -364 0
-389 357 390 0
-389 -357 -390 0
389 -357 390 0
389 357 -390 0
-390 358 366 0
-390 -358 -366 0
390 -358 366 0
390 358 -366 0
-391 350 392 0
-391 -350 -392 0
391 -350 392 0
391 350 -392 0
-392 356 368 0
-392 -356 -368 0
392 -356 368 0
392 356 -368 0
-393 394 412 0
-393 -394 -412 0
393 -394 412 0
393 394 -412 0
-394 395 402 0
-394 402 410 0
-394 395 410 0
394 -395 -410 0
394 -402 -410 0
394 -395 -402 0
-395 397 398 0
-395 396 397 0
-395 396 398 0
395 -396 -397 0
395 -397 -398 0
395 -396 -398 0
396 -1316 -262 0
-396 1316 0
-396 262 0
397 -1317 -284 0
-397 1317 0
-397 284 0
-398 399 401 0
-398 400 401 0
-398 399 400 0
398 -399 -400 0
398 -400 -401 0
398 -399 -401 0
399 -1318 -269 0
-399 1318 0
-399 269 0
400 -1319 -271 0
-400 1319 0
-400 271 0
401 -1320 -317 0
-401 1320 0
-401 317 0
-402 403 409 0
-402 403 405 0
-402 405 409 0
402 -405 -409 0
402 -403 -409 0
402 -403 -405 0
-403 396 404 0
-403 -396 -404 0
403 -396 404 0
403 396 -404 0
-404 397 398 0
-404 -397 -398 0
404 -397 398 0
404 397 -398 0
405 -406 -408 0
-405 406 0
-405 408 0
-406 399 407 0
-406 -399 -407 0
406 -399 407 0
406 399 -407 0
-407 -400 -401 0
-407 400 401 0
407 400 -401 0
407 -400 401 0
408 -1321 -340 0
-408 1321 0
-408 340 0
-409 384 386 0
-409 -384 -386 0
409 -384 386 0
409 384 -386 0
-410 381 411 0
-410 -381 -411 0
410 -381 411 0
410 381 -411 0
-411 383 387 0
-411 -383 -387 0
411 -383 387 0
411 383 -387 0
-412 374 413 0
-412 -374 -413 0
412 -374 413 0
412 374 -413 0
-413 380 389 0
-413 -380 -389 0
413 -380 389 0
413 380 -389 0
-414 448 478 0
-414 415 478 0
-414 469 478 0
414 -478 0
414 -415 -448 -469 0
415 -416 -432 0
-415 416 0
-415 432 0
-416 417 430 0
-416 -417 -430 0
416 -417 430 0
416 417 -430 0
-417 418 428 0
-417 418 424 0
-417 424 428 0
417 -424 -428 0
417 -418 -428 0
417 -418 -424 0
-418 420 421 0
-418 419 420 0
-418 419 421 0
418 -419 -420 0
418 -420 -421 0
418 -419 -421 0
419 -1316 -284 0
-419 1316 0
-419 284 0
420 -1317 -267 0
-420 1317 0
-420 267 0
-421 172 423 0
-421 422 423 0
-421 172 422 0
421 -172 -422 0
421 -422 -423 0
421 -172 -423 0
422 -1319 -317 0
-422 1319 0
-422 317 0
423 -1320 -340 0
-423 1320 0
-423 340 0
424 -425 -427 0
-424 425 0
-424 427 0
-425 419 426 0
-425 -419 -426 0
425 -419 426 0
425 419 -426 0
-426 420 421 0
-426 -420 -421 0
426 -420 421 0
426 420 -421 0
-427 -406 -408 0
-427 406 408 0
427 406 -408 0
427 -406 408 0
-428 403 429 0
-428 -403 -429 0
428 -403 429 0
428 403 -429 0
-429 405 409 0
-429 -405 -409 0
429 -405 409 0
429 405 -409 0
-430 395 431 0
-430 -395 -431 0
430 -395 431 0
430 395 -431 0
-431 402 410 0
-431 -402 -410 0
431 -402 410 0
431 402 -410 0
-432 433 446 0
-432 -433 -446 0
432 -433 446 0
432 433 -446 0
-433 434 445 0
-433 434 440 0
-433 440 445 0
433 -440 -445 0
433 -434 -445 0
433 -434 -440 0
-434 435 437 0
-434 436 437 0
-434 435 436 0
434 -435 -436 0
434 -436 -437 0
434 -435 -437 0
435 -1316 -267 0
-435 1316 0
-435 267 0
436 -1317 -269 0
-436 1317 0
-436 269 0
437 -438 -439 0
-437 438 0
-437 439 0
438 -1318 -317 0
-438 1318 0
-438 317 0
439 -1319 -340 0
-439 1319 0
-439 340 0
440 -441 -443 0
-440 441 0
-440 443 0
-441 435 442 0
-441 -435 -442 0
441 -435 442 0
441 435 -442 0
-442 -436 -437 0
-442 436 437 0
442 436 -437 0
442 -436 437 0
-443 172 444 0
-443 -172 -444 0
443 -172 444 0
443 172 -444 0
-444 -422 -423 0
-444 422 423 0
444 422 -423 0
444 -422 423 0
-445 425 427 0
-445 -425 -427 0
445 -425 427 0
445 425 -427 0
-446 418 447 0
-446 -418 -447 0
446 -418 447 0
446 418 -447 0
-447 424 428 0
-447 -424 -428 0
447 -424 428 0
447 424 -428 0
448 -449 -459 0
-448 449 0
-448 459 0
-449 450 457 0
-449 -450 -457 0
449 -450 457 0
449 450 -457 0
-450 456 0
-450 451 453 0
-450 452 453 0
450 -453 -456 0
450 -451 -452 -456 0
451 -1316 -269 0
-451 1316 0
-451 269 0
452 -1317 -271 0
-452 1317 0
-452 271 0
453 -454 -455 0
-453 454 0
-453 455 0
-454 -451 -452 0
-454 451 452 0
454 451 -452 0
454 -451 452 0
-455 -438 -439 0
-455 438 439 0
455 438 -439 0
455 -438 439 0
-456 441 443 0
-456 -441 -443 0
456 -441 443 0
456 441 -443 0
-457 434 458 0
-457 -434 -458 0
457 -434 458 0
457 434 -458 0
-458 440 445 0
-458 -440 -445 0
458 -440 445 0
458 440 -445 0
-459 460 466 0
-459 -460 -466 0
459 -460 466 0
459 460 -466 0
-460 465 0
-460 212 462 0
-460 461 462 0
460 -462 -465 0
460 -212 -461 -465 0
461 -1316 -271 0
-461 1316 0
-461 271 0
462 -463 -464 0
-462 463 0
-462 464 0
-463 -212 -461 0
-463 212 461 0
463 212 -461 0
463 -212 461 0
464 -1318 -340 0
-464 1318 0
-464 340 0
-465 454 455 0
-465 -454 -455 0
465 -454 455 0
465 454 -455 0
-466 467 468 0
-466 -467 -468 0
466 -467 468 0
466 467 -468 0
467 -451 -452 0
-467 451 0
-467 452 0
-468 453 456 0
-468 -453 -456 0
468 -453 456 0
468 453 -456 0
469 -470 -475 0
-469 470 0
-469 475 0
470 -471 -474 0
-470 471 0
-470 474 0
471 -472 -473 0
-471 472 0
-471 473 0
472 -1316 -317 0
-472 1316 0
-472 317 0
473 -1317 -340 0
-473 1317 0
-473 340 0
-474 -463 -464 0
-474 463 464 0
474 463 -464 0
474 -463 464 0
-475 476 477 0
-475 -476 -477 0
475 -476 477 0
475 476 -477 0
476 -212 -461 0
-476 212 0
-476 461 0
-477 462 465 0
-477 -462 -465 0
477 -462 465 0
477 462 -465 0
-478 417 479 482 0
-478 417 430 479 0
-478 430 479 482 0
478 -430 -482 0
478 -417 -482 0
478 -479 0
478 -417 -430 0
479 -415 -480 0
-479 415 0
-479 480 0
-480 457 449 0
-480 450 481 0
-480 450 449 0
-480 457 481 0
480 -449 -481 0
480 -450 -457 0
481 -460 -466 0
-481 460 0
-481 466 0
482 -433 -446 0
-482 433 0
-482 446 0
-483 484 486 0
-483 326 486 0
483 -486 0
483 -326 -484 0
-484 373 391 0
-484 391 485 0
-484 373 485 0
484 -391 -485 0
484 -373 -391 0
484 -373 -485 0
485 -394 -412 0
-485 394 0
-485 412 0
-486 347 487 0
-486 328 327 0
-486 347 327 0
-486 328 487 0
486 -327 -487 0
486 -328 -347 0
487 -349 -370 0
-487 349 0
-487 370 0
-488 294 489 0
-488 256 489 0
-488 256 294 0
488 -256 -489 0
488 -256 -294 0
488 -294 -489 0
489 -304 -324 0
-489 304 0
-489 324 0
490 -295 -296 0
-490 295 0
-490 296 0
-491 492 493 0
-491 -492 -493 0
491 -492 493 0
491 492 -493 0
492 -297 -298 0
-492 297 0
-492 298 0
-493 494 495 0
-493 -494 -495 0
493 -494 495 0
493 494 -495 0
494 -299 -300 0
-494 299 0
-494 300 0
-495 -247 -496 0
-495 247 496 0
495 247 -496 0
495 -247 496 0
496 -301 -302 0
-496 301 0
-496 302 0
-497 498 499 0
-497 -498 -499 0
497 -498 499 0
497 498 -499 0
498 -492 -493 0
-498 492 0
-498 493 0
-499 1323 496 0
-499 1315 494 0
-499 494 496 0
-499 1323 494 0
-499 1315 496 0
499 -494 -496 0
499 -1315 -1323 -496 0
499 -1315 -1323 -494 0
500 1326 -1327 0
-500 -1326 0
-500 1327 0
501 -1316 0
501 -502 0
-501 1316 502 0
-502 1317 1318 503 504 0
502 -1317 0
502 -504 0
502 -503 0
502 -1318 0
-503 1319 1320 0
503 -1319 0
503 -1320 0
-504 1321 1322 1323 0
504 -1321 0
504 -1323 0
504 -1322 0
505 -1326 1327 0
-505 1326 0
-505 -1327 0
506 -505 -507 521 0
506 -505 -514 521 0
-506 -521 0
-506 505 0
-506 507 514 0
-507 508 511 0
507 -508 0
507 -511 0
-508 509 510 0
508 -509 0
508 -510 0
509 1315 -1323 0
509 1323 -260 0
-509 -1315 -1323 0
-509 1323 260 0
510 1314 -1322 0
510 1322 -262 0
-510 -1314 -1322 0
-510 1322 262 0
-511 512 513 0
511 -512 0
511 -513 0
512 1313 -1321 0
512 1321 -284 0
-512 -1313 -1321 0
-512 1321 284 0
513 1312 -1320 0
513 1320 -267 0
-513 -1312 -1320 0
-513 1320 267 0
514 -515 519 0
514 -516 519 0
514 -517 519 0
-514 -519 0
-514 515 516 517 0
515 1311 -1319 0
515 1319 -269 0
-515 -1311 -1319 0
-515 1319 269 0
516 1310 -1318 0
516 1318 -271 0
-516 -1310 -1318 0
-516 1318 271 0
517 1309 -1317 0
517 317 -518 0
517 -1317 -518 0
-517 -1309 518 0
-517 1317 -317 0
-517 1317 518 0
518 -1316 340 0
-518 1316 0
-518 -340 0
-519 1311 -1319 0
-519 269 520 0
-519 -1319 520 0
519 -1311 -520 0
519 1319 -269 0
519 1319 -520 0
520 1318 -271 0
-520 -1318 0
-520 271 0
-521 522 524 0
-521 -508 524 0
521 -524 0
521 508 -522 0
-522 1313 -1321 0
-522 284 523 0
-522 -1321 523 0
522 -1313 -523 0
522 1321 -284 0
522 1321 -523 0
523 1320 -267 0
-523 -1320 0
-523 267 0
-524 1315 -1323 0
-524 260 525 0
-524 -1323 525 0
524 -1315 -525 0
524 1323 -260 0
524 1323 -525 0
525 1322 -262 0
-525 -1322 0
-525 262 0
-526 1326 1327 0
526 -1326 0
526 -1327 0
-527 7 528 0
-527 -7 -528 0
527 -7 528 0
527 7 -528 0
-528 239 240 0
-528 -239 -240 0
528 -239 240 0
528 239 -240 0
529 -506 -526 0
529 505 -526 530 0
-529 526 0
-529 -505 506 0
-529 506 -530 0
530 500 -532 0
530 254 531 -500 0
530 -254 -531 -500 0
-530 500 532 0
-530 -254 531 -500 0
-530 254 -531 -500 0
-531 490 491 0
-531 -490 -491 0
531 -490 491 0
531 490 -491 0
532 -543 0
532 -533 540 0
-532 533 543 0
-532 -540 543 0
-533 534 0
533 -534 0
-534 535 537 0
534 -535 0
534 -537 0
535 -536 0
-535 536 0
-536 1316 0
536 -1316 0
537 1317 -538 0
537 -1317 538 0
-537 -1317 -538 0
-537 1317 538 0
538 501 -539 0
-538 -501 0
-538 539 0
539 -1316 0
-539 1316 0
-540 541 0
540 -541 0
-541 542 0
541 -542 0
542 1317 -538 0
-542 -1317 0
-542 538 0
-543 1318 1319 544 545 0
543 -1318 0
543 -545 0
543 -544 0
543 -1319 0
-544 1320 1321 0
544 -1320 0
544 -1321 0
-545 1322 1323 0
545 -1322 0
545 -1323 0
-546 547 549 572 573 0
-546 -547 -549 -572 -573 0
-546 547 549 -572 -573 0
-546 -547 -549 572 573 0
546 547 -549 0
546 -547 549 0
546 -572 573 0
546 572 -573 0
-547 8 548 0
-547 -8 -548 0
547 -8 548 0
547 8 -548 0
-548 52 238 0
-548 73 238 0
548 -238 0
548 -52 -73 0
549 -506 -526 0
549 505 -526 550 0
-549 526 0
-549 -505 506 0
-549 506 -550 0
550 500 -552 0
550 -255 -500 -551 0
550 255 -500 551 0
-550 500 552 0
-550 -255 -500 551 0
-550 255 -500 -551 0
-551 303 489 0
-551 325 489 0
551 -489 0
551 -303 -325 0
552 -570 0
552 -553 566 0
-552 553 570 0
-552 -566 570 0
-553 554 0
553 -554 0
-554 555 564 0
554 -555 0
554 -564 0
-555 556 560 0
555 -556 0
555 -560 0
556 -1317 557 0
556 1317 -557 0
-556 1317 557 0
-556 -1317 -557 0
-557 558 0
557 -558 0
558 532 -559 0
-558 -532 0
-558 559 0
559 -535 0
-559 535 0
560 -1318 561 0
560 1318 -561 0
-560 1318 561 0
-560 -1318 -561 0
-561 538 -532 0
-561 537 532 562 0
-561 -537 532 -562 0
561 -538 -532 0
561 537 532 -562 0
561 -537 532 562 0
562 -563 0
-562 563 0
-563 535 0
563 -535 0
564 -565 0
-564 565 0
-565 1316 0
565 -1316 0
-566 567 0
566 -567 0
-567 568 0
567 -568 0
-568 -1318 561 0
-568 561 569 0
-568 -1318 569 0
568 -561 -569 0
568 1318 -561 0
568 1318 -569 0
569 1317 -557 0
-569 -1317 0
-569 557 0
-570 1319 1320 1323 571 0
570 -571 0
570 -1323 0
570 -1319 0
570 -1320 0
-571 1321 1322 0
571 -1321 0
571 -1322 0
-572 52 73 0
-572 -52 -73 0
572 -52 73 0
572 52 -73 0
573 -506 -526 0
573 505 -526 574 0
-573 526 0
-573 -505 506 0
-573 506 -574 0
574 500 -575 0
574 303 325 -500 0
574 -303 -325 -500 0
-574 500 575 0
-574 -303 325 -500 0
-574 303 -325 -500 0
575 -600 0
575 -576 594 -601 0
-575 576 600 0
-575 -594 600 0
-575 600 601 0
-576 577 0
576 -577 0
-577 578 587 0
577 -578 0
577 -587 0
-578 579 584 0
578 -579 0
578 -584 0
579 -1318 580 0
579 1318 -580 0
-579 1318 580 0
-579 -1318 -580 0
-580 557 -552 0
-580 556 552 581 0
-580 -556 552 -581 0
580 -557 -552 0
580 556 552 -581 0
580 -556 552 581 0
581 -582 0
-581 582 0
-582 583 0
582 -583 0
-583 564 0
583 -564 0
584 -1319 585 0
584 1319 -585 0
-584 1319 585 0
-584 -1319 -585 0
-585 561 -552 0
-585 560 552 586 0
-585 -560 552 -586 0
585 -561 -552 0
585 560 552 -586 0
585 -560 552 586 0
586 -1317 557 0
586 557 -581 0
586 -1317 -581 0
-586 1317 581 0
-586 -557 581 0
-586 1317 -557 0
-587 588 590 0
587 -588 0
587 -590 0
588 -589 0
-588 589 0
-589 1316 0
589 -1316 0
590 -1317 591 0
590 1317 -591 0
-590 1317 591 0
-590 -1317 -591 0
-591 592 0
591 -592 0
592 552 -593 0
-592 -552 0
-592 593 0
593 -564 0
-593 564 0
-594 595 0
594 -595 0
-595 -1319 596 599 0
-595 -1319 585 596 0
-595 585 596 599 0
595 -585 -599 0
595 1319 -599 0
595 -596 0
595 1319 -585 0
596 578 -597 0
-596 -578 0
-596 597 0
-597 598 0
597 -598 0
598 1317 -591 0
-598 -1317 0
-598 591 0
599 1318 -580 0
-599 -1318 0
-599 580 0
-600 1320 1321 545 0
600 -545 0
600 -1321 0
600 -1320 0
-601 602 603 576 0
601 -602 0
601 -603 0
601 -576 0
-602 269 271 317 340 0
602 -340 0
602 -269 0
602 -317 0
602 -271 0
-603 604 606 0
603 -604 0
603 -606 0
-604 267 605 0
604 -267 0
604 -605 0
-605 284 0
605 -284 0
-606 607 610 0
606 -607 0
606 -610 0
-607 608 0
607 -608 0
-608 609 0
608 -609 0
-609 262 0
609 -262 0
-610 611 0
610 -611 0
-611 612 0
611 -612 0
-612 260 0
612 -260 0
-613 614 617 648 649 0
-613 -614 -617 -648 -649 0
-613 614 617 -648 -649 0
-613 -614 -617 648 649 0
613 614 -617 0
613 -614 617 0
613 -648 649 0
613 648 -649 0
-614 75 615 0
-614 -75 -615 0
614 -75 615 0
614 75 -615 0
-615 96 236 0
-615 236 616 0
615 -236 0
615 -96 -616 0
-616 162 233 0
-616 117 233 0
616 -233 0
616 -117 -162 0
617 -506 -526 0
617 505 -526 618 0
-617 526 0
-617 -505 506 0
-617 506 -618 0
618 500 -621 0
618 -327 -500 -619 0
618 327 -500 619 0
-618 500 621 0
-618 -327 -500 619 0
-618 327 -500 -619 0
-619 348 487 0
-619 487 620 0
619 -487 0
619 -348 -620 0
-620 414 484 0
-620 371 484 0
620 -484 0
620 -371 -414 0
621 -504 0
621 -622 643 0
-621 504 622 0
-621 504 -643 0
-622 623 640 0
622 -623 0
622 -640 0
-623 624 631 0
623 -624 0
623 -631 0
-624 625 628 0
624 -625 0
624 -628 0
625 -1319 626 0
625 1319 -626 0
-625 1319 626 0
-625 -1319 -626 0
-626 580 -575 0
-626 579 575 627 0
-626 -579 575 -627 0
626 -580 -575 0
626 579 575 -627 0
626 -579 575 627 0
627 -587 597 0
-627 587 0
-627 -597 0
628 -1320 629 0
628 1320 -629 0
-628 1320 629 0
-628 -1320 -629 0
-629 585 -575 0
-629 584 575 630 0
-629 -584 575 -630 0
629 -585 -575 0
629 584 575 -630 0
629 -584 575 630 0
630 -1318 580 0
630 580 -627 0
630 -1318 -627 0
-630 1318 627 0
-630 -580 627 0
-630 1318 -580 0
-631 632 636 0
631 -632 0
631 -636 0
632 -1317 633 0
632 1317 -633 0
-632 1317 633 0
-632 -1317 -633 0
-633 634 0
633 -634 0
634 575 -635 0
-634 -575 0
-634 635 0
635 -588 0
-635 588 0
636 -1318 637 0
636 1318 -637 0
-636 1318 637 0
-636 -1318 -637 0
-637 591 -575 0
-637 590 575 638 0
-637 -590 575 -638 0
637 -591 -575 0
637 590 575 -638 0
637 -590 575 638 0
638 -639 0
-638 639 0
-639 588 0
639 -588 0
-640 641 0
640 -641 0
641 -642 0
-641 642 0
-642 1316 0
642 -1316 0
-643 -1320 644 647 0
-643 -1320 629 644 0
-643 629 644 647 0
643 -629 -647 0
643 1320 -647 0
643 -644 0
643 1320 -629 0
644 624 -645 0
-644 -624 0
-644 645 0
-645 -1318 637 0
-645 637 646 0
-645 -1318 646 0
645 -637 -646 0
645 1318 -637 0
645 1318 -646 0
646 1317 -633 0
-646 -1317 0
-646 633 0
647 1319 -626 0
-647 -1319 0
-647 626 0
-648 96 616 0
-648 -96 -616 0
648 -96 616 0
648 96 -616 0
649 -506 -526 0
649 505 -526 650 0
-649 526 0
-649 -505 506 0
-649 506 -650 0
650 500 -651 0
650 -348 -500 -620 0
650 348 -500 620 0
-650 500 651 0
-650 -348 -500 620 0
-650 348 -500 -620 0
651 -545 0
651 -652 678 0
-651 545 652 0
-651 545 -678 0
-652 653 670 0
652 -653 0
652 -670 0
-653 654 664 0
653 -654 0
653 -664 0
-654 655 661 0
654 -655 0
654 -661 0
655 -1320 656 0
655 1320 -656 0
-655 1320 656 0
-655 -1320 -656 0
-656 626 -621 0
-656 625 621 657 0
-656 -625 621 -657 0
656 -626 -621 0
656 625 621 -657 0
656 -625 621 657 0
657 -631 645 0
657 645 -658 0
-657 -645 0
-657 631 658 0
658 -659 0
-658 659 0
-659 660 0
659 -660 0
-660 640 0
660 -640 0
661 -1321 662 0
661 1321 -662 0
-661 1321 662 0
-661 -1321 -662 0
-662 629 -621 0
-662 628 621 663 0
-662 -628 621 -663 0
662 -629 -621 0
662 628 621 -663 0
662 -628 621 663 0
663 -625 647 0
663 647 -657 0
-663 -647 0
-663 625 657 0
-664 665 667 0
664 -665 0
664 -667 0
665 -1318 666 0
665 1318 -666 0
-665 1318 666 0
-665 -1318 -666 0
-666 633 -621 0
-666 632 621 658 0
-666 -632 621 -658 0
666 -633 -621 0
666 632 621 -658 0
666 -632 621 658 0
667 -1319 668 0
667 1319 -668 0
-667 1319 668 0
-667 -1319 -668 0
-668 637 -621 0
-668 636 621 669 0
-668 -636 621 -669 0
668 -637 -621 0
668 636 621 -669 0
668 -636 621 669 0
669 -1317 633 0
669 633 -658 0
669 -1317 -658 0
-669 1317 658 0
-669 -633 658 0
-669 1317 -633 0
-670 671 0
670 -671 0
-671 672 674 0
671 -672 0
671 -674 0
672 -673 0
-672 673 0
-673 1316 0
673 -1316 0
674 -1317 675 0
674 1317 -675 0
-674 1317 675 0
-674 -1317 -675 0
-675 676 0
675 -676 0
676 621 -677 0
-676 -621 0
-676 677 0
677 -641 0
-677 641 0
-678 -654 679 685 0
-678 679 683 685 0
678 -685 0
678 -679 0
678 654 -683 0
679 653 -680 0
-679 -653 0
-679 680 0
-680 681 0
680 -681 0
-681 682 0
681 -682 0
682 1317 -675 0
-682 -1317 0
-682 675 0
-683 -1319 668 0
-683 668 684 0
-683 -1319 684 0
683 -668 -684 0
683 1319 -668 0
683 1319 -684 0
684 1318 -666 0
-684 -1318 0
-684 666 0
-685 -1321 662 0
-685 662 686 0
-685 -1321 686 0
685 -662 -686 0
685 1321 -662 0
685 1321 -686 0
686 1320 -656 0
-686 -1320 0
-686 656 0
-687 -688 -690 731 732 0
-687 688 690 731 732 0
-687 -688 -690 -731 -732 0
-687 688 690 -731 -732 0
687 -731 732 0
687 731 -732 0
687 688 -690 0
687 -688 690 0
-688 118 689 0
-688 -118 -689 0
688 -118 689 0
688 118 -689 0
-689 142 234 0
-689 162 234 0
689 -234 0
689 -142 -162 0
690 -506 -526 0
690 505 -526 691 0
-690 526 0
-690 -505 506 0
-690 506 -691 0
691 500 -693 0
691 -372 -500 -692 0
691 372 -500 692 0
-691 500 693 0
-691 -372 -500 692 0
-691 372 -500 -692 0
-692 393 485 0
-692 414 485 0
692 -485 0
692 -393 -414 0
693 -1323 0
693 -694 722 0
-693 1323 694 0
-693 1323 -722 0
-694 695 710 0
694 -695 0
694 -710 0
-695 696 704 0
695 -696 0
695 -704 0
-696 697 701 0
696 -697 0
696 -701 0
697 -1321 698 0
697 1321 -698 0
-697 1321 698 0
-697 -1321 -698 0
-698 656 -651 0
-698 655 651 699 0
-698 -655 651 -699 0
698 -656 -651 0
698 655 651 -699 0
698 -655 651 699 0
699 -664 683 0
699 683 -700 0
-699 -683 0
-699 664 700 0
700 -670 680 0
-700 670 0
-700 -680 0
701 -1322 702 0
701 1322 -702 0
-701 1322 702 0
-701 -1322 -702 0
-702 662 -651 0
-702 661 651 703 0
-702 -661 651 -703 0
702 -662 -651 0
702 661 651 -703 0
702 -661 651 703 0
703 -655 686 0
703 686 -699 0
-703 -686 0
-703 655 699 0
-704 705 707 0
704 -705 0
704 -707 0
705 -1319 706 0
705 1319 -706 0
-705 1319 706 0
-705 -1319 -706 0
-706 666 -651 0
-706 665 651 700 0
-706 -665 651 -700 0
706 -666 -651 0
706 665 651 -700 0
706 -665 651 700 0
707 -1320 708 0
707 1320 -708 0
-707 1320 708 0
-707 -1320 -708 0
-708 668 -651 0
-708 667 651 709 0
-708 -667 651 -709 0
708 -668 -651 0
708 667 651 -709 0
708 -667 651 709 0
709 -1318 666 0
709 666 -700 0
709 -1318 -700 0
-709 1318 700 0
-709 -666 700 0
-709 1318 -666 0
-710 711 713 0
710 -711 0
710 -713 0
711 -712 0
-711 712 0
-712 1316 0
712 -1316 0
-713 714 718 0
713 -714 0
713 -718 0
714 -1317 715 0
714 1317 -715 0
-714 1317 715 0
-714 -1317 -715 0
-715 716 0
715 -716 0
716 651 -717 0
-716 -651 0
-716 717 0
717 -672 0
-717 672 0
718 -1318 719 0
718 1318 -719 0
-718 1318 719 0
-718 -1318 -719 0
-719 675 -651 0
-719 674 651 720 0
-719 -674 651 -720 0
719 -675 -651 0
719 674 651 -720 0
719 -674 651 720 0
720 -721 0
-720 721 0
-721 672 0
721 -672 0
-722 -696 723 729 0
-722 723 727 729 0
722 -729 0
722 -723 0
722 696 -727 0
723 695 -724 0
-723 -695 0
-723 724 0
-724 725 0
724 -725 0
-725 -1318 719 0
-725 719 726 0
-725 -1318 726 0
725 -719 -726 0
725 1318 -719 0
725 1318 -726 0
726 1317 -715 0
-726 -1317 0
-726 715 0
-727 -1320 708 0
-727 708 728 0
-727 -1320 728 0
727 -708 -728 0
727 1320 -708 0
727 1320 -728 0
728 1319 -706 0
-728 -1319 0
-728 706 0
-729 -1322 702 0
-729 702 730 0
-729 -1322 730 0
729 -702 -730 0
729 1322 -702 0
729 1322 -730 0
730 1321 -698 0
-730 -1321 0
-730 698 0
-731 142 162 0
-731 -142 -162 0
731 -142 162 0
731 142 -162 0
-732 526 733 0
-732 506 -526 -750 0
732 526 -733 0
732 -506 -526 0
732 -526 750 0
-733 737 747 0
-733 734 747 0
-733 740 747 0
733 -747 0
733 -734 -737 -740 0
734 -735 -736 0
-734 735 0
-734 736 0
-735 1323 260 0
-735 -1323 -260 0
735 -1323 260 0
735 1323 -260 0
-736 1322 262 0
-736 -1322 -262 0
736 -1322 262 0
736 1322 -262 0
737 -738 -739 0
-737 738 0
-737 739 0
-738 1321 284 0
-738 -1321 -284 0
738 -1321 284 0
738 1321 -284 0
-739 1320 267 0
-739 -1320 -267 0
739 -1320 267 0
739 1320 -267 0
-740 126 172 742 0
-740 126 741 742 0
740 -126 0
740 -742 0
740 -172 -741 0
-741 1319 269 0
-741 -1319 -269 0
741 -1319 269 0
741 1319 -269 0
742 -741 -743 -744 0
-742 741 0
-742 744 0
-742 743 0
-743 1318 271 0
-743 -1318 -271 0
743 -1318 271 0
743 1318 -271 0
-744 212 745 0
-744 212 746 0
744 -212 0
744 -745 -746 0
-745 1317 317 0
-745 -1317 -317 0
745 -1317 317 0
745 1317 -317 0
746 -1316 -340 0
-746 1316 0
-746 340 0
-747 42 247 748 0
-747 247 735 748 0
747 -748 0
747 -247 0
747 -42 -735 0
748 -734 -749 0
-748 734 0
-748 749 0
-749 24 81 0
-749 24 738 0
749 -24 0
749 -81 -738 0
-750 500 505 752 0
-750 -500 505 -751 0
750 -505 0
750 500 -752 0
750 -500 751 0
-751 393 414 0
-751 -393 -414 0
751 -393 414 0
751 393 -414 0
752 -753 786 792 0
-752 -792 0
-752 -786 0
-752 753 0
-753 754 769 0
753 -754 0
753 -769 0
-754 755 763 0
754 -755 0
754 -763 0
-755 756 760 0
755 -756 0
755 -760 0
756 -1322 757 0
756 1322 -757 0
-756 1322 757 0
-756 -1322 -757 0
-757 698 -693 0
-757 697 693 758 0
-757 -697 693 -758 0
757 -698 -693 0
757 697 693 -758 0
757 -697 693 758 0
758 -704 727 0
758 727 -759 0
-758 -727 0
-758 704 759 0
759 -710 724 0
-759 710 0
-759 -724 0
760 -1323 702 0
760 1323 -761 0
-760 -1323 -702 0
-760 1323 761 0
-761 702 -693 0
-761 701 693 762 0
-761 -701 693 -762 0
761 -702 -693 0
761 701 693 -762 0
761 -701 693 762 0
762 -697 730 0
762 730 -758 0
-762 -730 0
-762 697 758 0
-763 764 766 0
763 -764 0
763 -766 0
764 -1320 765 0
764 1320 -765 0
-764 1320 765 0
-764 -1320 -765 0
-765 706 -693 0
-765 705 693 759 0
-765 -705 693 -759 0
765 -706 -693 0
765 705 693 -759 0
765 -705 693 759 0
766 -1321 767 0
766 1321 -767 0
-766 1321 767 0
-766 -1321 -767 0
-767 708 -693 0
-767 707 693 768 0
-767 -707 693 -768 0
767 -708 -693 0
767 707 693 -768 0
767 -707 693 768 0
768 -1319 706 0
768 706 -759 0
768 -1319 -759 0
-768 1319 759 0
-768 -706 759 0
-768 1319 -706 0
-769 770 777 0
769 -770 0
769 -777 0
-770 771 773 0
770 -771 0
770 -773 0
771 -772 0
-771 772 0
-772 1316 0
772 -1316 0
773 -1317 774 0
773 1317 -774 0
-773 1317 774 0
-773 -1317 -774 0
-774 775 0
774 -775 0
775 693 -776 0
-775 -693 0
-775 776 0
776 -711 0
-776 711 0
-777 778 783 0
777 -778 0
777 -783 0
778 -1318 779 0
778 1318 -779 0
-778 1318 779 0
-778 -1318 -779 0
-779 715 -693 0
-779 714 693 780 0
-779 -714 693 -780 0
779 -715 -693 0
779 714 693 -780 0
779 -714 693 780 0
780 -781 0
-780 781 0
-781 782 0
781 -782 0
-782 711 0
782 -711 0
783 -1319 784 0
783 1319 -784 0
-783 1319 784 0
-783 -1319 -784 0
-784 719 -693 0
-784 718 693 785 0
-784 -718 693 -785 0
784 -719 -693 0
784 718 693 -785 0
784 -718 693 785 0
785 -1317 715 0
785 715 -780 0
785 -1317 -780 0
-785 1317 780 0
-785 -715 780 0
-785 1317 -715 0
786 754 -787 0
-786 -754 0
-786 787 0
-787 -1319 788 791 0
-787 -1319 784 788 0
-787 784 788 791 0
787 -784 -791 0
787 1319 -791 0
787 -788 0
787 1319 -784 0
788 777 -789 0
-788 -777 0
-788 789 0
-789 790 0
789 -790 0
790 1317 -774 0
-790 -1317 0
-790 774 0
791 1318 -779 0
-791 -1318 0
-791 779 0
-792 793 795 0
-792 -755 795 0
792 -795 0
792 755 -793 0
-793 -1321 767 0
-793 767 794 0
-793 -1321 794 0
793 -767 -794 0
793 1321 -767 0
793 1321 -794 0
794 1320 -765 0
-794 -1320 0
-794 765 0
-795 761 -760 0
-795 -1323 796 0
-795 -1323 -760 0
-795 761 796 0
795 760 -796 0
795 1323 -761 0
796 1322 -757 0
-796 -1322 0
-796 757 0
-797 798 939 1004 1005 0
-797 798 939 -1004 -1005 0
797 -939 0
797 -1004 1005 0
797 -798 0
797 1004 -1005 0
-798 -799 -802 881 882 0
-798 799 802 881 882 0
-798 -799 -802 -881 -882 0
-798 799 802 -881 -882 0
798 -799 802 0
798 799 -802 0
798 -881 882 0
798 881 -882 0
-799 164 800 0
-799 -164 -800 0
799 -164 800 0
799 164 -800 0
-800 182 231 0
-800 231 801 0
800 -231 0
800 -182 -801 0
-801 219 229 0
-801 196 229 0
801 -229 0
801 -196 -219 0
-802 -526 -805 0
-802 526 -735 -803 0
-802 526 735 803 0
802 -526 805 0
802 526 735 -803 0
802 526 -735 803 0
-803 42 736 0
-803 42 804 0
803 -42 0
803 -736 -804 0
-804 740 749 0
-804 737 749 0
804 -749 0
804 -737 -740 0
805 505 -808 0
805 -505 509 806 0
805 -505 -509 -806 0
-805 505 808 0
-805 -505 -509 806 0
-805 -505 509 -806 0
806 -510 525 0
806 525 -807 0
-806 -525 0
-806 510 807 0
807 -514 522 0
807 -511 522 0
-807 -522 0
-807 511 514 0
808 500 -811 0
808 -416 -500 -809 0
808 416 -500 809 0
-808 500 811 0
-808 -416 -500 809 0
-808 416 -500 -809 0
-809 432 482 0
-809 482 810 0
809 -482 0
809 -432 -810 0
-810 469 480 0
-810 448 480 0
810 -480 0
810 -448 -469 0
811 -818 850 0
811 -812 850 -860 0
-811 -850 0
-811 818 860 0
-811 812 818 0
812 -1316 813 0
-812 1316 0
-812 -813 0
-813 814 0
813 -814 0
-814 815 0
814 -815 0
-815 816 0
815 -816 0
-816 817 0
816 -817 0
-817 610 0
817 -610 0
-818 819 833 0
818 -819 0
818 -833 0
-819 820 827 0
819 -820 0
819 -827 0
-820 821 825 0
820 -821 0
820 -825 0
821 -1323 822 0
821 1323 -822 0
-821 1323 822 0
-821 -1323 -822 0
-822 757 -752 0
-822 756 752 823 0
-822 -756 752 -823 0
822 -757 -752 0
822 756 752 -823 0
822 -756 752 823 0
823 -763 793 0
823 793 -824 0
-823 -793 0
-823 763 824 0
824 -769 787 0
-824 769 0
-824 -787 0
-825 761 -752 0
-825 760 752 826 0
-825 -760 752 -826 0
825 -761 -752 0
825 760 752 -826 0
825 -760 752 826 0
826 -756 796 0
826 796 -823 0
-826 -796 0
-826 756 823 0
-827 828 830 0
827 -828 0
827 -830 0
828 -1321 829 0
828 1321 -829 0
-828 1321 829 0
-828 -1321 -829 0
-829 765 -752 0
-829 764 752 824 0
-829 -764 752 -824 0
829 -765 -752 0
829 764 752 -824 0
829 -764 752 824 0
830 -1322 831 0
830 1322 -831 0
-830 1322 831 0
-830 -1322 -831 0
-831 767 -752 0
-831 766 752 832 0
-831 -766 752 -832 0
831 -767 -752 0
831 766 752 -832 0
831 -766 752 832 0
832 -1320 765 0
832 765 -824 0
832 -1320 -824 0
-832 1320 824 0
-832 -765 824 0
-832 1320 -765 0
-833 834 843 0
833 -834 0
833 -843 0
-834 835 839 0
834 -835 0
834 -839 0
835 -1317 836 0
835 1317 -836 0
-835 1317 836 0
-835 -1317 -836 0
-836 837 0
836 -837 0
837 752 -838 0
-837 -752 0
-837 838 0
838 -771 0
-838 771 0
839 -1318 840 0
839 1318 -840 0
-839 1318 840 0
-839 -1318 -840 0
-840 774 -752 0
-840 773 752 841 0
-840 -773 752 -841 0
840 -774 -752 0
840 773 752 -841 0
840 -773 752 841 0
841 -842 0
-841 842 0
-842 771 0
842 -771 0
-843 844 847 0
843 -844 0
843 -847 0
844 -1319 845 0
844 1319 -845 0
-844 1319 845 0
-844 -1319 -845 0
-845 779 -752 0
-845 778 752 846 0
-845 -778 752 -846 0
845 -779 -752 0
845 778 752 -846 0
845 -778 752 846 0
846 -770 789 0
-846 770 0
-846 -789 0
847 -1320 848 0
847 1320 -848 0
-847 1320 848 0
-847 -1320 -848 0
-848 784 -752 0
-848 783 752 849 0
-848 -783 752 -849 0
848 -784 -752 0
848 783 752 -849 0
848 -783 752 849 0
849 -1318 779 0
849 779 -846 0
849 -1318 -846 0
-849 1318 846 0
-849 -779 846 0
-849 1318 -779 0
-850 851 856 0
-850 -819 856 0
850 -856 0
850 819 -851 0
-851 -1320 852 855 0
-851 -1320 848 852 0
-851 848 852 855 0
851 -848 -855 0
851 1320 -855 0
851 -852 0
851 1320 -848 0
852 843 -853 0
-852 -843 0
-852 853 0
-853 -1318 840 0
-853 840 854 0
-853 -1318 854 0
853 -840 -854 0
853 1318 -840 0
853 1318 -854 0
854 1317 -836 0
-854 -1317 0
-854 836 0
855 1319 -845 0
-855 -1319 0
-855 845 0
-856 -821 825 859 0
-856 825 857 859 0
856 -825 0
856 -859 0
856 821 -857 0
-857 -1322 831 0
-857 831 858 0
-857 -1322 858 0
857 -831 -858 0
857 1322 -831 0
857 1322 -858 0
858 1321 -829 0
-858 -1321 0
-858 829 0
859 1323 -822 0
-859 -1323 0
-859 822 0
-860 861 877 0
860 -861 0
860 -877 0
-861 862 870 0
861 -862 0
861 -870 0
-862 863 865 0
862 -863 0
862 -865 0
-863 864 0
863 -864 0
-864 267 0
864 -267 0
-865 866 0
865 -866 0
-866 867 0
866 -867 0
-867 868 0
867 -868 0
-868 869 0
868 -869 0
-869 605 0
869 -605 0
-870 871 876 0
870 -871 0
870 -876 0
-871 872 0
871 -872 0
-872 873 0
872 -873 0
-873 874 0
873 -874 0
-874 875 0
874 -875 0
-875 607 0
875 -607 0
876 -1316 813 0
876 1316 -813 0
-876 1316 813 0
-876 -1316 -813 0
-877 269 271 878 0
877 -269 0
877 -271 0
877 -878 0
-878 317 879 0
878 -317 0
878 -879 0
-879 880 0
879 -880 0
-880 340 0
880 -340 0
-881 182 801 0
-881 -182 -801 0
881 -182 801 0
881 182 -801 0
-882 -526 -883 0
-882 526 -736 -804 0
-882 526 736 804 0
882 -526 883 0
882 526 736 -804 0
882 526 -736 804 0
883 505 -884 0
883 -505 510 807 0
883 -505 -510 -807 0
-883 505 884 0
-883 -505 -510 807 0
-883 -505 510 -807 0
884 500 -885 0
884 -432 -500 -810 0
884 432 -500 810 0
-884 500 885 0
-884 -432 -500 810 0
-884 432 -500 -810 0
885 -894 922 0
885 -886 922 -930 0
-885 -922 0
-885 894 930 0
-885 886 894 0
886 -887 892 0
-886 887 0
-886 -892 0
-887 888 890 0
887 -888 0
887 -890 0
888 -1316 889 0
888 1316 -889 0
-888 1316 889 0
-888 -1316 -889 0
-889 871 0
889 -871 0
890 -1317 891 0
890 1317 -891 0
-890 1317 891 0
-890 -1317 -891 0
-891 813 -811 0
-891 876 811 0
891 -876 811 0
891 -813 -811 0
-892 -1317 891 0
-892 891 893 0
-892 -1317 893 0
892 -891 -893 0
892 1317 -891 0
892 1317 -893 0
893 1316 -889 0
-893 -1316 0
-893 889 0
-894 895 908 0
894 -895 0
894 -908 0
-895 896 902 0
895 -896 0
895 -902 0
-896 897 900 0
896 -897 0
896 -900 0
-897 822 -811 0
-897 821 811 898 0
-897 -821 811 -898 0
897 -822 -811 0
897 821 811 -898 0
897 -821 811 898 0
898 -827 857 0
898 857 -899 0
-898 -857 0
-898 827 899 0
899 -812 851 0
899 -833 851 0
-899 -851 0
-899 812 833 0
-900 825 -811 0
-900 825 901 0
-900 -825 811 -901 0
900 -825 -811 0
900 -825 901 0
900 825 811 -901 0
901 -821 859 0
901 859 -898 0
-901 -859 0
-901 821 898 0
-902 903 905 0
902 -903 0
902 -905 0
903 -1322 904 0
903 1322 -904 0
-903 1322 904 0
-903 -1322 -904 0
-904 829 -811 0
-904 828 811 899 0
-904 -828 811 -899 0
904 -829 -811 0
904 828 811 -899 0
904 -828 811 899 0
905 -1323 906 0
905 1323 -906 0
-905 1323 906 0
-905 -1323 -906 0
-906 831 -811 0
-906 830 811 907 0
-906 -830 811 -907 0
906 -831 -811 0
906 830 811 -907 0
906 -830 811 907 0
907 -828 858 0
907 858 -899 0
-907 -858 0
-907 828 899 0
-908 909 915 0
908 -909 0
908 -915 0
-909 910 912 0
909 -910 0
909 -912 0
910 -1318 911 0
910 1318 -911 0
-910 1318 911 0
-910 -1318 -911 0
-911 836 -811 0
-911 -812 -835 811 0
-911 812 835 811 0
911 -836 -811 0
911 -812 835 811 0
911 812 -835 811 0
912 -1319 913 0
912 1319 -913 0
-912 1319 913 0
-912 -1319 -913 0
-913 840 -811 0
-913 839 811 914 0
-913 -839 811 -914 0
913 -840 -811 0
913 839 811 -914 0
913 -839 811 914 0
914 -835 854 0
914 -1316 813 854 0
-914 -854 0
-914 1316 835 0
-914 -813 835 0
-915 916 919 0
915 -916 0
915 -919 0
916 -1320 917 0
916 1320 -917 0
-916 1320 917 0
-916 -1320 -917 0
-917 845 -811 0
-917 844 811 918 0
-917 -844 811 -918 0
917 -845 -811 0
917 844 811 -918 0
917 -844 811 918 0
918 -812 853 0
918 -834 853 0
-918 -853 0
-918 812 834 0
919 -1321 920 0
919 1321 -920 0
-919 1321 920 0
-919 -1321 -920 0
-920 848 -811 0
-920 847 811 921 0
-920 -847 811 -921 0
920 -848 -811 0
920 847 811 -921 0
920 -847 811 921 0
921 -844 855 0
921 855 -918 0
-921 -855 0
-921 844 918 0
-922 896 -902 928 0
-922 896 923 928 0
922 -928 0
922 -896 0
922 902 -923 0
-923 -1321 924 927 0
-923 -1321 920 924 0
-923 920 924 927 0
923 -920 -927 0
923 1321 -927 0
923 -924 0
923 1321 -920 0
924 915 -925 0
-924 -915 0
-924 925 0
-925 -1319 913 0
-925 913 926 0
-925 -1319 926 0
925 -913 -926 0
925 1319 -913 0
925 1319 -926 0
926 1318 -911 0
-926 -1318 0
-926 911 0
927 1320 -917 0
-927 -1320 0
-927 917 0
-928 -1323 906 0
-928 906 929 0
-928 -1323 929 0
928 -906 -929 0
928 1323 -906 0
928 1323 -929 0
929 1322 -904 0
-929 -1322 0
-929 904 0
-930 877 931 0
930 -877 0
930 -931 0
-931 932 887 0
931 -932 0
931 -887 0
-932 933 937 0
932 -933 0
932 -937 0
-933 934 0
933 -934 0
-934 935 0
934 -935 0
-935 936 0
935 -936 0
-936 267 0
936 -267 0
-937 938 0
937 -938 0
-938 865 0
938 -865 0
-939 940 942 0
-939 -940 -942 0
939 -940 942 0
939 940 -942 0
-940 197 941 0
-940 -197 -941 0
940 -197 941 0
940 197 -941 0
-941 209 230 0
-941 219 230 0
941 -230 0
941 -209 -219 0
-942 -526 -944 0
-942 526 -738 -943 0
-942 526 738 943 0
942 -526 944 0
942 526 738 -943 0
942 526 -738 943 0
-943 81 739 0
-943 81 740 0
943 -81 0
943 -739 -740 0
944 505 -946 0
944 -505 512 945 0
944 -505 -512 -945 0
-944 505 946 0
-944 -505 -512 945 0
-944 -505 512 -945 0
945 -513 523 0
945 -514 523 0
-945 -523 0
-945 513 514 0
946 500 -948 0
946 -449 -500 -947 0
946 449 -500 947 0
-946 500 948 0
-946 -449 -500 947 0
-946 449 -500 -947 0
-947 459 481 0
-947 469 481 0
947 -481 0
947 -459 -469 0
948 -964 991 0
948 -949 991 -999 0
-948 -991 0
-948 964 999 0
-948 949 964 0
949 -955 962 0
949 -950 961 962 0
-949 -962 0
-949 955 -961 0
-949 950 955 0
-950 951 952 0
950 -951 0
950 -952 0
-951 933 0
951 -933 0
952 -1316 953 0
952 1316 -953 0
-952 1316 953 0
-952 -1316 -953 0
-953 954 0
953 -954 0
-954 937 0
954 -937 0
-955 956 958 0
955 -956 0
955 -958 0
956 -1317 957 0
956 1317 -957 0
-956 1317 957 0
-956 -1317 -957 0
-957 889 -885 0
-957 888 885 0
957 -888 885 0
957 -889 -885 0
958 -1318 959 0
958 1318 -959 0
-958 1318 959 0
-958 -1318 -959 0
-959 891 -885 0
-959 890 885 960 0
-959 -890 885 -960 0
959 -891 -885 0
959 890 885 -960 0
959 -890 885 960 0
960 -1316 889 0
-960 1316 0
-960 -889 0
-961 -1316 951 0
-961 951 953 0
-961 -1316 953 0
961 1316 -953 0
961 -951 -953 0
961 1316 -951 0
-962 -1318 959 0
-962 959 963 0
-962 -1318 963 0
962 -959 -963 0
962 1318 -959 0
962 1318 -963 0
963 1317 -957 0
-963 -1317 0
-963 957 0
-964 965 977 0
964 -965 0
964 -977 0
-965 966 972 0
965 -966 0
965 -972 0
-966 967 970 0
966 -967 0
966 -970 0
-967 897 -885 0
-967 897 968 0
-967 -897 885 -968 0
967 -897 -885 0
967 -897 968 0
967 897 885 -968 0
968 -902 928 0
968 928 -969 0
-968 -928 0
-968 902 969 0
969 -886 923 0
969 -908 923 0
-969 -923 0
-969 886 908 0
-970 900 -885 0
-970 900 971 0
-970 -900 885 -971 0
970 -900 -885 0
970 -900 971 0
970 900 885 -971 0
971 897 -968 0
-971 -897 0
-971 968 0
-972 973 975 0
972 -973 0
972 -975 0
973 -1323 974 0
973 1323 -974 0
-973 1323 974 0
-973 -1323 -974 0
-974 904 -885 0
-974 903 885 969 0
-974 -903 885 -969 0
974 -904 -885 0
974 903 885 -969 0
974 -903 885 969 0
-975 906 -885 0
-975 905 885 976 0
-975 -905 885 -976 0
975 -906 -885 0
975 905 885 -976 0
975 -905 885 976 0
976 -903 929 0
976 929 -969 0
-976 -929 0
-976 903 969 0
-977 978 984 0
977 -978 0
977 -984 0
-978 979 981 0
978 -979 0
978 -981 0
979 -1319 980 0
979 1319 -980 0
-979 1319 980 0
-979 -1319 -980 0
-980 911 -885 0
-980 -886 -910 885 0
-980 886 910 885 0
980 -911 -885 0
980 -886 910 885 0
980 886 -910 885 0
981 -1320 982 0
981 1320 -982 0
-981 1320 982 0
-981 -1320 -982 0
-982 913 -885 0
-982 912 885 983 0
-982 -912 885 -983 0
982 -913 -885 0
982 912 885 -983 0
982 -912 885 983 0
983 -886 926 0
983 -910 926 0
-983 -926 0
-983 886 910 0
-984 985 988 0
984 -985 0
984 -988 0
985 -1321 986 0
985 1321 -986 0
-985 1321 986 0
-985 -1321 -986 0
-986 917 -885 0
-986 916 885 987 0
-986 -916 885 -987 0
986 -917 -885 0
986 916 885 -987 0
986 -916 885 987 0
987 -886 925 0
987 -909 925 0
-987 -925 0
-987 886 909 0
988 -1322 989 0
988 1322 -989 0
-988 1322 989 0
-988 -1322 -989 0
-989 920 -885 0
-989 919 885 990 0
-989 -919 885 -990 0
989 -920 -885 0
989 919 885 -990 0
989 -919 885 990 0
990 -916 927 0
990 927 -987 0
-990 -927 0
-990 916 987 0
-991 966 -972 997 0
-991 966 992 997 0
991 -997 0
991 -966 0
991 972 -992 0
-992 -1322 993 996 0
-992 -1322 989 993 0
-992 989 993 996 0
992 -989 -996 0
992 1322 -996 0
992 -993 0
992 1322 -989 0
993 984 -994 0
-993 -984 0
-993 994 0
-994 -1320 982 0
-994 982 995 0
-994 -1320 995 0
994 -982 -995 0
994 1320 -982 0
994 1320 -995 0
995 1319 -980 0
-995 -1319 0
-995 980 0
996 1321 -986 0
-996 -1321 0
-996 986 0
-997 975 998 0
997 -975 0
997 -998 0
998 1323 -974 0
-998 -1323 0
-998 974 0
-999 269 271 1000 1001 0
999 -1001 0
999 -269 0
999 -1000 0
999 -271 0
-1000 1316 951 953 955 0
-1000 -1316 951 -953 955 0
1000 -955 0
1000 -1316 953 0
1000 -951 0
1000 1316 -953 0
-1001 1002 1003 0
1001 -1002 0
1001 -1003 0
-1002 317 0
1002 -317 0
-1003 879 0
1003 -879 0
-1004 -209 -219 0
-1004 209 219 0
1004 209 -219 0
1004 -209 219 0
-1005 -526 -1006 0
-1005 526 -739 -740 0
-1005 526 739 740 0
1005 -526 1006 0
1005 526 739 -740 0
1005 526 -739 740 0
1006 505 -1007 0
1006 -505 513 514 0
1006 -505 -513 -514 0
-1006 505 1007 0
-1006 -505 -513 514 0
-1006 -505 513 -514 0
1007 500 -1008 0
1007 -459 -469 -500 0
1007 459 469 -500 0
-1007 500 1008 0
-1007 459 -469 -500 0
-1007 -459 469 -500 0
1008 -1024 1050 0
1008 -1009 1050 -1056 0
-1008 -1050 0
-1008 1024 1056 0
-1008 1009 1024 0
1009 -1014 1022 0
1009 -1010 1021 1022 0
-1009 -1022 0
-1009 1014 -1021 0
-1009 1010 1014 0
-1010 1011 1012 0
1010 -1011 0
1010 -1012 0
1011 -1316 951 0
1011 1316 -951 0
-1011 1316 951 0
-1011 -1316 -951 0
1012 -1317 1013 0
1012 1317 -1013 0
-1012 1317 1013 0
-1012 -1317 -1013 0
-1013 953 -948 0
-1013 952 948 0
1013 -952 948 0
1013 -953 -948 0
-1014 1015 1018 0
1014 -1015 0
1014 -1018 0
1015 -1318 1016 0
1015 1318 -1016 0
-1015 1318 1016 0
-1015 -1318 -1016 0
-1016 957 -948 0
-1016 956 948 1017 0
-1016 -956 948 -1017 0
1016 -957 -948 0
1016 956 948 -1017 0
1016 -956 948 1017 0
1017 -1316 953 0
-1017 1316 0
-1017 -953 0
1018 -1319 1019 0
1018 1319 -1019 0
-1018 1319 1019 0
-1018 -1319 -1019 0
-1019 959 -948 0
-1019 958 948 1020 0
-1019 -958 948 -1020 0
1019 -959 -948 0
1019 958 948 -1020 0
1019 -958 948 1020 0
1020 -956 963 0
1020 -1316 953 963 0
-1020 -963 0
-1020 1316 956 0
-1020 -953 956 0
-1021 -1316 -1317 0
-1021 -1317 1013 0
-1021 -1316 1013 0
-1021 -1317 951 0
-1021 951 1013 0
1021 1317 -1013 0
1021 1316 -951 -1013 0
1021 1316 1317 -951 0
-1022 -1319 1019 0
-1022 1019 1023 0
-1022 -1319 1023 0
1022 -1019 -1023 0
1022 1319 -1019 0
1022 1319 -1023 0
1023 1318 -1016 0
-1023 -1318 0
-1023 1016 0
-1024 1025 1036 0
1024 -1025 0
1024 -1036 0
-1025 1026 1032 0
1025 -1026 0
1025 -1032 0
-1026 1027 1030 0
1026 -1027 0
1026 -1030 0
-1027 967 -948 0
-1027 967 1028 0
-1027 -967 948 -1028 0
1027 -967 -948 0
1027 -967 1028 0
1027 967 948 -1028 0
1028 -972 997 0
1028 997 -1029 0
-1028 -997 0
-1028 972 1029 0
1029 -949 992 0
1029 -977 992 0
-1029 -992 0
-1029 949 977 0
-1030 970 -948 0
-1030 970 1031 0
-1030 -970 948 -1031 0
1030 -970 -948 0
1030 -970 1031 0
1030 970 948 -1031 0
1031 967 -1028 0
-1031 -967 0
-1031 1028 0
-1032 1033 1034 0
1032 -1033 0
1032 -1034 0
-1033 974 -948 0
-1033 973 948 1029 0
-1033 -973 948 -1029 0
1033 -974 -948 0
1033 973 948 -1029 0
1033 -973 948 1029 0
-1034 975 -948 0
-1034 975 1035 0
-1034 -975 948 -1035 0
1034 -975 -948 0
1034 -975 1035 0
1034 975 948 -1035 0
1035 -973 998 0
1035 998 -1029 0
-1035 -998 0
-1035 973 1029 0
-1036 1037 1043 0
1036 -1037 0
1036 -1043 0
-1037 1038 1040 0
1037 -1038 0
1037 -1040 0
1038 -1320 1039 0
1038 1320 -1039 0
-1038 1320 1039 0
-1038 -1320 -1039 0
-1039 980 -948 0
-1039 -949 -979 948 0
-1039 949 979 948 0
1039 -980 -948 0
1039 -949 979 948 0
1039 949 -979 948 0
1040 -1321 1041 0
1040 1321 -1041 0
-1040 1321 1041 0
-1040 -1321 -1041 0
-1041 982 -948 0
-1041 981 948 1042 0
-1041 -981 948 -1042 0
1041 -982 -948 0
1041 981 948 -1042 0
1041 -981 948 1042 0
1042 -949 995 0
1042 -979 995 0
-1042 -995 0
-1042 949 979 0
-1043 1044 1047 0
1043 -1044 0
1043 -1047 0
1044 -1322 1045 0
1044 1322 -1045 0
-1044 1322 1045 0
-1044 -1322 -1045 0
-1045 986 -948 0
-1045 985 948 1046 0
-1045 -985 948 -1046 0
1045 -986 -948 0
1045 985 948 -1046 0
1045 -985 948 1046 0
1046 -949 994 0
1046 -978 994 0
-1046 -994 0
-1046 949 978 0
1047 -1323 1048 0
1047 1323 -1048 0
-1047 1323 1048 0
-1047 -1323 -1048 0
-1048 989 -948 0
-1048 988 948 1049 0
-1048 -988 948 -1049 0
1048 -989 -948 0
1048 988 948 -1049 0
1048 -988 948 1049 0
1049 -985 996 0
1049 996 -1046 0
-1049 -996 0
-1049 985 1046 0
-1050 1026 1032 1051 0
1050 -1026 0
1050 -1032 0
1050 -1051 0
-1051 -1323 1052 1055 0
-1051 -1323 1048 1052 0
-1051 1048 1052 1055 0
1051 -1048 -1055 0
1051 1323 -1055 0
1051 -1052 0
1051 1323 -1048 0
1052 1043 -1053 0
-1052 -1043 0
-1052 1053 0
-1053 -1321 1041 0
-1053 1041 1054 0
-1053 -1321 1054 0
1053 -1041 -1054 0
1053 1321 -1041 0
1053 1321 -1054 0
1054 1320 -1039 0
-1054 -1320 0
-1054 1039 0
1055 1322 -1045 0
-1055 -1322 0
-1055 1045 0
-1056 1001 1057 1058 0
1056 -1001 0
1056 -1057 0
1056 -1058 0
-1057 1010 1014 0
1057 -1010 0
1057 -1014 0
-1058 1059 1060 0
1058 -1059 0
1058 -1060 0
-1059 271 0
1059 -271 0
-1060 269 0
1060 -269 0
-1061 -1062 -1063 1127 1128 0
-1061 1062 1063 1127 1128 0
-1061 -1062 -1063 -1127 -1128 0
-1061 1062 1063 -1127 -1128 0
1061 -1062 1063 0
1061 1062 -1063 0
1061 -1127 1128 0
1061 1127 -1128 0
-1062 220 224 0
-1062 -220 -224 0
1062 -220 224 0
1062 220 -224 0
-1063 -526 -1065 0
-1063 526 -741 -1064 0
-1063 526 741 1064 0
1063 -526 1065 0
1063 526 741 -1064 0
1063 526 -741 1064 0
-1064 172 743 0
-1064 172 744 0
1064 -172 0
1064 -743 -744 0
1065 505 -1067 0
1065 -505 515 1066 0
1065 -505 -515 -1066 0
-1065 505 1067 0
-1065 -505 -515 1066 0
-1065 -505 515 -1066 0
1066 -516 520 0
1066 -517 520 0
-1066 -520 0
-1066 516 517 0
1067 500 -1068 0
1067 470 475 -500 0
1067 -470 -475 -500 0
-1067 500 1068 0
-1067 -470 475 -500 0
-1067 470 -475 -500 0
1068 -1091 1116 0
1068 -1069 1116 -1121 0
-1068 -1116 0
-1068 1091 1121 0
-1068 1069 1091 0
1069 -1072 1086 1089 0
1069 -1070 1086 1089 0
-1069 -1089 0
-1069 -1086 0
-1069 1070 1072 0
1070 -1316 1071 0
-1070 1316 0
-1070 -1071 0
-1071 269 0
1071 -269 0
-1072 1073 1079 0
1072 -1073 0
1072 -1079 0
-1073 1074 1076 0
1073 -1074 0
1073 -1076 0
1074 -1317 1075 0
1074 1317 -1075 0
-1074 1317 1075 0
-1074 -1317 -1075 0
-1075 1316 951 0
-1075 951 -1008 0
-1075 -1316 -951 1008 0
1075 -951 -1008 0
1075 1316 -951 0
1075 -1316 951 1008 0
1076 -1318 1077 0
1076 1318 -1077 0
-1076 1318 1077 0
-1076 -1318 -1077 0
-1077 1013 -1008 0
-1077 1012 1008 1078 0
-1077 -1012 1008 -1078 0
1077 -1013 -1008 0
1077 1012 1008 -1078 0
1077 -1012 1008 1078 0
1078 -1316 951 0
-1078 1316 0
-1078 -951 0
-1079 1080 1083 0
1079 -1080 0
1079 -1083 0
1080 -1319 1081 0
1080 1319 -1081 0
-1080 1319 1081 0
-1080 -1319 -1081 0
-1081 1016 -1008 0
-1081 1015 1008 1082 0
-1081 -1015 1008 -1082 0
1081 -1016 -1008 0
1081 1015 1008 -1082 0
1081 -1015 1008 1082 0
1082 -1317 1013 0
1082 -1316 951 1013 0
1082 -1316 -1317 951 0
-1082 -951 -1013 0
-1082 1316 1317 0
-1082 1317 -1013 0
-1082 1317 -951 0
-1082 1316 -1013 0
1083 -1320 1084 0
1083 1320 -1084 0
-1083 1320 1084 0
-1083 -1320 -1084 0
-1084 1019 -1008 0
-1084 1018 1008 1085 0
-1084 -1018 1008 -1085 0
1084 -1019 -1008 0
1084 1018 1008 -1085 0
1084 -1018 1008 1085 0
1085 -1015 1023 0
1085 1023 -1082 0
-1085 -1023 0
-1085 1015 1082 0
1086 1079 -1087 0
-1086 -1079 0
-1086 1087 0
-1087 -1318 1077 0
-1087 1077 1088 0
-1087 -1318 1088 0
1087 -1077 -1088 0
1087 1318 -1077 0
1087 1318 -1088 0
1088 1317 -1075 0
-1088 -1317 0
-1088 1075 0
-1089 -1320 1084 0
-1089 1084 1090 0
-1089 -1320 1090 0
1089 -1084 -1090 0
1089 1320 -1084 0
1089 1320 -1090 0
1090 1319 -1081 0
-1090 -1319 0
-1090 1081 0
-1091 1092 1103 0
1091 -1092 0
1091 -1103 0
-1092 1093 1099 0
1092 -1093 0
1092 -1099 0
-1093 1094 1097 0
1093 -1094 0
1093 -1097 0
-1094 1027 -1008 0
-1094 1027 1095 0
-1094 -1027 1008 -1095 0
1094 -1027 -1008 0
1094 -1027 1095 0
1094 1027 1008 -1095 0
1095 1032 -1096 0
-1095 -1032 0
-1095 1096 0
1096 -1009 1051 0
1096 -1036 1051 0
-1096 -1051 0
-1096 1009 1036 0
-1097 1030 -1008 0
-1097 1030 1098 0
-1097 -1030 1008 -1098 0
1097 -1030 -1008 0
1097 -1030 1098 0
1097 1030 1008 -1098 0
1098 1027 -1095 0
-1098 -1027 0
-1098 1095 0
-1099 1100 1101 0
1099 -1100 0
1099 -1101 0
-1100 1033 -1008 0
-1100 1033 1096 0
-1100 -1033 1008 -1096 0
1100 -1033 -1008 0
1100 -1033 1096 0
1100 1033 1008 -1096 0
-1101 1034 -1008 0
-1101 1034 1102 0
-1101 -1034 1008 -1102 0
1101 -1034 -1008 0
1101 -1034 1102 0
1101 1034 1008 -1102 0
1102 1033 -1096 0
-1102 -1033 0
-1102 1096 0
-1103 1104 1110 0
1103 -1104 0
1103 -1110 0
-1104 1105 1107 0
1104 -1105 0
1104 -1107 0
1105 -1321 1106 0
1105 1321 -1106 0
-1105 1321 1106 0
-1105 -1321 -1106 0
-1106 1039 -1008 0
-1106 -1009 -1038 1008 0
-1106 1009 1038 1008 0
1106 -1039 -1008 0
1106 -1009 1038 1008 0
1106 1009 -1038 1008 0
1107 -1322 1108 0
1107 1322 -1108 0
-1107 1322 1108 0
-1107 -1322 -1108 0
-1108 1041 -1008 0
-1108 1040 1008 1109 0
-1108 -1040 1008 -1109 0
1108 -1041 -1008 0
1108 1040 1008 -1109 0
1108 -1040 1008 1109 0
1109 -1009 1054 0
1109 -1038 1054 0
-1109 -1054 0
-1109 1009 1038 0
-1110 1111 1114 0
1110 -1111 0
1110 -1114 0
1111 -1323 1112 0
1111 1323 -1112 0
-1111 1323 1112 0
-1111 -1323 -1112 0
-1112 1045 -1008 0
-1112 1044 1008 1113 0
-1112 -1044 1008 -1113 0
1112 -1045 -1008 0
1112 1044 1008 -1113 0
1112 -1044 1008 1113 0
1113 -1009 1053 0
1113 -1037 1053 0
-1113 -1053 0
-1113 1009 1037 0
-1114 1048 -1008 0
-1114 1047 1008 1115 0
-1114 -1047 1008 -1115 0
1114 -1048 -1008 0
1114 1047 1008 -1115 0
1114 -1047 1008 1115 0
1115 -1044 1055 0
1115 1055 -1113 0
-1115 -1055 0
-1115 1044 1113 0
-1116 1093 1099 1117 0
1116 -1093 0
1116 -1099 0
1116 -1117 0
-1117 -1111 1114 1120 0
-1117 1114 1118 1120 0
1117 -1114 0
1117 -1120 0
1117 1111 -1118 0
-1118 -1322 1108 0
-1118 1108 1119 0
-1118 -1322 1119 0
1118 -1108 -1119 0
1118 1322 -1108 0
1118 1322 -1119 0
1119 1321 -1106 0
-1119 -1321 0
-1119 1106 0
1120 1323 -1112 0
-1120 -1323 0
-1120 1112 0
-1121 1001 1072 1122 0
1121 -1001 0
1121 -1072 0
1121 -1122 0
-1122 1123 1125 0
1122 -1123 0
1122 -1125 0
-1123 1124 0
1123 -1124 0
-1124 1059 0
1124 -1059 0
1125 -1316 1126 0
1125 1316 -1071 0
-1125 -1316 -1126 0
-1125 1316 1071 0
-1126 1060 0
1126 -1060 0
-1127 221 222 0
-1127 -221 -222 0
1127 -221 222 0
1127 221 -222 0
-1128 -526 -1129 0
-1128 526 -743 -744 0
-1128 526 743 744 0
1128 -526 1129 0
1128 526 743 -744 0
1128 526 -743 744 0
1129 505 -1130 0
1129 -505 516 517 0
1129 -505 -516 -517 0
-1129 505 1130 0
-1129 -505 -516 517 0
-1129 -505 516 -517 0
1130 500 -1131 0
1130 471 474 -500 0
1130 -471 -474 -500 0
-1130 500 1131 0
-1130 -471 474 -500 0
-1130 471 -474 -500 0
1131 -1161 1185 0
1131 -1132 1185 -1189 0
-1131 -1185 0
-1131 1161 1189 0
-1131 1132 1161 0
1132 -1142 1156 1159 0
1132 -1133 1156 1159 0
-1132 -1159 0
-1132 -1156 0
-1132 1133 1142 0
1133 -1317 1134 -1139 0
1133 -1317 1138 -1139 0
1133 1134 1138 -1139 0
-1133 -1134 -1138 0
-1133 1317 -1138 0
-1133 1139 0
-1133 1317 -1134 0
1134 1316 -1135 0
-1134 -1316 0
-1134 1135 0
-1135 1136 0
1135 -1136 0
-1136 1137 0
1136 -1137 0
-1137 271 0
1137 -271 0
-1138 1126 -1068 0
-1138 1125 1068 0
1138 -1125 1068 0
1138 -1126 -1068 0
-1139 1140 1141 0
1139 -1140 0
1139 -1141 0
1140 -1317 1138 0
1140 1317 -1138 0
-1140 1317 1138 0
-1140 -1317 -1138 0
1141 -1316 1135 0
1141 1316 -1123 0
-1141 1316 1123 0
-1141 -1316 -1135 0
-1142 1143 1149 0
1142 -1143 0
1142 -1149 0
-1143 1144 1146 0
1143 -1144 0
1143 -1146 0
1144 -1318 1145 0
1144 1318 -1145 0
-1144 1318 1145 0
-1144 -1318 -1145 0
-1145 1075 -1068 0
-1145 -1070 -1074 1068 0
-1145 1070 1074 1068 0
1145 -1075 -1068 0
1145 -1070 1074 1068 0
1145 1070 -1074 1068 0
1146 -1319 1147 0
1146 1319 -1147 0
-1146 1319 1147 0
-1146 -1319 -1147 0
-1147 1077 -1068 0
-1147 1076 1068 1148 0
-1147 -1076 1068 -1148 0
1147 -1077 -1068 0
1147 1076 1068 -1148 0
1147 -1076 1068 1148 0
1148 -1317 -1070 0
1148 -1070 1075 0
1148 -1317 1075 0
-1148 1317 -1075 0
-1148 1070 -1075 0
-1148 1317 1070 0
-1149 1150 1153 0
1149 -1150 0
1149 -1153 0
1150 -1320 1151 0
1150 1320 -1151 0
-1150 1320 1151 0
-1150 -1320 -1151 0
-1151 1081 -1068 0
-1151 1080 1068 1152 0
-1151 -1080 1068 -1152 0
1151 -1081 -1068 0
1151 1080 1068 -1152 0
1151 -1080 1068 1152 0
1152 -1070 1087 0
1152 -1073 1087 0
-1152 -1087 0
-1152 1070 1073 0
1153 -1321 1154 0
1153 1321 -1154 0
-1153 1321 1154 0
-1153 -1321 -1154 0
-1154 1084 -1068 0
-1154 1083 1068 1155 0
-1154 -1083 1068 -1155 0
1154 -1084 -1068 0
1154 1083 1068 -1155 0
1154 -1083 1068 1155 0
1155 -1080 1090 0
1155 1090 -1152 0
-1155 -1090 0
-1155 1080 1152 0
1156 1149 -1157 0
-1156 -1149 0
-1156 1157 0
-1157 -1319 1147 0
-1157 1147 1158 0
-1157 -1319 1158 0
1157 -1147 -1158 0
1157 1319 -1147 0
1157 1319 -1158 0
1158 1318 -1145 0
-1158 -1318 0
-1158 1145 0
-1159 -1321 1154 0
-1159 1154 1160 0
-1159 -1321 1160 0
1159 -1154 -1160 0
1159 1321 -1154 0
1159 1321 -1160 0
1160 1320 -1151 0
-1160 -1320 0
-1160 1151 0
-1161 1162 1173 0
1161 -1162 0
1161 -1173 0
-1162 1163 1169 0
1162 -1163 0
1162 -1169 0
-1163 1164 1167 0
1163 -1164 0
1163 -1167 0
-1164 1094 -1068 0
-1164 1094 1165 0
-1164 -1094 1068 -1165 0
1164 -1094 -1068 0
1164 -1094 1165 0
1164 1094 1068 -1165 0
1165 1099 -1166 0
-1165 -1099 0
-1165 1166 0
1166 -1069 1117 0
1166 -1103 1117 0
-1166 -1117 0
-1166 1069 1103 0
-1167 1097 -1068 0
-1167 1097 1168 0
-1167 -1097 1068 -1168 0
1167 -1097 -1068 0
1167 -1097 1168 0
1167 1097 1068 -1168 0
1168 1094 -1165 0
-1168 -1094 0
-1168 1165 0
-1169 1170 1171 0
1169 -1170 0
1169 -1171 0
-1170 1100 -1068 0
-1170 1100 1166 0
-1170 -1100 1068 -1166 0
1170 -1100 -1068 0
1170 -1100 1166 0
1170 1100 1068 -1166 0
-1171 1101 -1068 0
-1171 1101 1172 0
-1171 -1101 1068 -1172 0
1171 -1101 -1068 0
1171 -1101 1172 0
1171 1101 1068 -1172 0
1172 1100 -1166 0
-1172 -1100 0
-1172 1166 0
-1173 1174 1180 0
1173 -1174 0
1173 -1180 0
-1174 1175 1177 0
1174 -1175 0
1174 -1177 0
1175 -1322 1176 0
1175 1322 -1176 0
-1175 1322 1176 0
-1175 -1322 -1176 0
-1176 1106 -1068 0
-1176 -1069 -1105 1068 0
-1176 1069 1105 1068 0
1176 -1106 -1068 0
1176 -1069 1105 1068 0
1176 1069 -1105 1068 0
1177 -1323 1178 0
1177 1323 -1178 0
-1177 1323 1178 0
-1177 -1323 -1178 0
-1178 1108 -1068 0
-1178 1107 1068 1179 0
-1178 -1107 1068 -1179 0
1178 -1108 -1068 0
1178 1107 1068 -1179 0
1178 -1107 1068 1179 0
1179 -1069 1119 0
1179 -1105 1119 0
-1179 -1119 0
-1179 1069 1105 0
-1180 1181 1183 0
1180 -1181 0
1180 -1183 0
-1181 1112 -1068 0
-1181 1111 1068 1182 0
-1181 -1111 1068 -1182 0
1181 -1112 -1068 0
1181 1111 1068 -1182 0
1181 -1111 1068 1182 0
1182 -1069 1118 0
1182 -1104 1118 0
-1182 -1118 0
-1182 1069 1104 0
-1183 1114 -1068 0
-1183 1114 1184 0
-1183 -1114 1068 -1184 0
1183 -1114 -1068 0
1183 -1114 1184 0
1183 1114 1068 -1184 0
1184 -1111 1120 0
1184 1120 -1182 0
-1184 -1120 0
-1184 1111 1182 0
-1185 1163 1169 1186 0
1185 -1163 0
1185 -1169 0
1185 -1186 0
-1186 1180 1187 0
1186 -1180 0
1186 -1187 0
-1187 -1323 1178 0
-1187 1178 1188 0
-1187 -1323 1188 0
1187 -1178 -1188 0
1187 1323 -1178 0
1187 1323 -1188 0
1188 1322 -1176 0
-1188 -1322 0
-1188 1176 0
-1189 1001 1139 1142 0
1189 -1001 0
1189 -1139 0
1189 -1142 0
-1190 1191 -1192 -1195 1263 0
-1190 1191 1192 1195 1263 0
-1190 -1191 1192 1195 -1263 0
-1190 -1191 -1192 -1195 -1263 0
1190 -1191 1263 0
1190 1191 -1263 0
1190 1192 -1195 0
1190 -1192 1195 0
1191 -1308 -1316 0
-1191 1308 0
-1191 1316 0
-1192 -1193 -1194 0
-1192 1193 1194 0
1192 1193 -1194 0
1192 -1193 1194 0
1193 -1309 -1316 0
-1193 1309 0
-1193 1316 0
1194 -1308 -1317 0
-1194 1308 0
-1194 1317 0
-1195 -526 -1196 0
-1195 526 -745 -746 0
-1195 526 745 746 0
1195 -526 1196 0
1195 526 745 -746 0
1195 526 -745 746 0
1196 505 -1198 0
1196 -505 518 1197 0
1196 -505 -518 -1197 0
-1196 505 1198 0
-1196 -505 -518 1197 0
-1196 -505 518 -1197 0
1197 1309 -1317 0
1197 1317 -317 0
-1197 -1309 -1317 0
-1197 1317 317 0
1198 500 -1199 0
1198 -472 -473 -500 0
1198 472 473 -500 0
-1198 500 1199 0
-1198 472 -473 -500 0
-1198 -472 473 -500 0
1199 -1232 1255 0
1199 -1200 1255 -1259 0
-1199 -1255 0
-1199 1232 1259 0
-1199 1200 1232 0
1200 -1213 1227 1230 0
1200 -1201 1227 1230 0
-1200 -1230 0
-1200 -1227 0
-1200 1201 1213 0
1201 -1318 -1204 1212 0
1201 -1318 1202 -1204 0
1201 1202 -1204 1212 0
-1201 -1202 -1212 0
-1201 1318 -1212 0
-1201 1204 0
-1201 1318 -1202 0
-1202 1138 -1131 0
-1202 1140 1131 1203 0
-1202 -1140 1131 -1203 0
1202 -1138 -1131 0
1202 1140 1131 -1203 0
1202 -1140 1131 1203 0
1203 -1316 1123 0
-1203 1316 0
-1203 -1123 0
-1204 1205 1208 0
1204 -1205 0
1204 -1208 0
1205 -1316 1206 0
-1205 1316 0
-1205 -1206 0
-1206 1207 0
1206 -1207 0
-1207 1002 0
1207 -1002 0
-1208 1209 1211 0
1208 -1209 0
1208 -1211 0
1209 -1317 1210 0
1209 1317 -1210 0
-1209 1317 1210 0
-1209 -1317 -1210 0
-1210 1135 -1131 0
-1210 1316 1123 1131 0
-1210 -1316 -1135 1131 0
1210 -1135 -1131 0
1210 1316 -1123 1131 0
1210 -1316 1135 1131 0
1211 -1318 1202 0
1211 1318 -1202 0
-1211 1318 1202 0
-1211 -1318 -1202 0
1212 1317 -1210 0
-1212 -1317 0
-1212 1210 0
-1213 1214 1220 0
1213 -1214 0
1213 -1220 0
-1214 1215 1217 0
1214 -1215 0
1214 -1217 0
1215 -1319 1216 0
1215 1319 -1216 0
-1215 1319 1216 0
-1215 -1319 -1216 0
-1216 1145 -1131 0
-1216 -1133 -1144 1131 0
-1216 1133 1144 1131 0
1216 -1145 -1131 0
1216 -1133 1144 1131 0
1216 1133 -1144 1131 0
1217 -1320 1218 0
1217 1320 -1218 0
-1217 1320 1218 0
-1217 -1320 -1218 0
-1218 1147 -1131 0
-1218 1146 1131 1219 0
-1218 -1146 1131 -1219 0
1218 -1147 -1131 0
1218 1146 1131 -1219 0
1218 -1146 1131 1219 0
1219 -1133 1158 0
1219 -1144 1158 0
-1219 -1158 0
-1219 1133 1144 0
-1220 1221 1224 0
1220 -1221 0
1220 -1224 0
1221 -1321 1222 0
1221 1321 -1222 0
-1221 1321 1222 0
-1221 -1321 -1222 0
-1222 1151 -1131 0
-1222 1150 1131 1223 0
-1222 -1150 1131 -1223 0
1222 -1151 -1131 0
1222 1150 1131 -1223 0
1222 -1150 1131 1223 0
1223 -1133 1157 0
1223 -1143 1157 0
-1223 -1157 0
-1223 1133 1143 0
1224 -1322 1225 0
1224 1322 -1225 0
-1224 1322 1225 0
-1224 -1322 -1225 0
-1225 1154 -1131 0
-1225 1153 1131 1226 0
-1225 -1153 1131 -1226 0
1225 -1154 -1131 0
1225 1153 1131 -1226 0
1225 -1153 1131 1226 0
1226 -1150 1160 0
1226 1160 -1223 0
-1226 -1160 0
-1226 1150 1223 0
1227 1220 -1228 0
-1227 -1220 0
-1227 1228 0
-1228 -1320 1218 0
-1228 1218 1229 0
-1228 -1320 1229 0
1228 -1218 -1229 0
1228 1320 -1218 0
1228 1320 -1229 0
1229 1319 -1216 0
-1229 -1319 0
-1229 1216 0
-1230 -1322 1225 0
-1230 1225 1231 0
-1230 -1322 1231 0
1230 -1225 -1231 0
1230 1322 -1225 0
1230 1322 -1231 0
1231 1321 -1222 0
-1231 -1321 0
-1231 1222 0
-1232 1233 1244 0
1232 -1233 0
1232 -1244 0
-1233 1234 1240 0
1233 -1234 0
1233 -1240 0
-1234 1235 1238 0
1234 -1235 0
1234 -1238 0
-1235 1164 -1131 0
-1235 1164 1236 0
-1235 -1164 1131 -1236 0
1235 -1164 -1131 0
1235 -1164 1236 0
1235 1164 1131 -1236 0
1236 1169 -1237 0
-1236 -1169 0
-1236 1237 0
1237 -1132 1186 0
1237 -1173 1186 0
-1237 -1186 0
-1237 1132 1173 0
-1238 1167 -1131 0
-1238 1167 1239 0
-1238 -1167 1131 -1239 0
1238 -1167 -1131 0
1238 -1167 1239 0
1238 1167 1131 -1239 0
1239 1164 -1236 0
-1239 -1164 0
-1239 1236 0
-1240 1241 1242 0
1240 -1241 0
1240 -1242 0
-1241 1170 -1131 0
-1241 1170 1237 0
-1241 -1170 1131 -1237 0
1241 -1170 -1131 0
1241 -1170 1237 0
1241 1170 1131 -1237 0
-1242 1171 -1131 0
-1242 1171 1243 0
-1242 -1171 1131 -1243 0
1242 -1171 -1131 0
1242 -1171 1243 0
1242 1171 1131 -1243 0
1243 1170 -1237 0
-1243 -1170 0
-1243 1237 0
-1244 1245 1250 0
1244 -1245 0
1244 -1250 0
-1245 1246 1248 0
1245 -1246 0
1245 -1248 0
1246 -1323 1247 0
1246 1323 -1247 0
-1246 1323 1247 0
-1246 -1323 -1247 0
-1247 1176 -1131 0
-1247 -1132 -1175 1131 0
-1247 1132 1175 1131 0
1247 -1176 -1131 0
1247 -1132 1175 1131 0
1247 1132 -1175 1131 0
-1248 1178 -1131 0
-1248 1177 1131 1249 0
-1248 -1177 1131 -1249 0
1248 -1178 -1131 0
1248 1177 1131 -1249 0
1248 -1177 1131 1249 0
1249 -1132 1188 0
1249 -1175 1188 0
-1249 -1188 0
-1249 1132 1175 0
-1250 1251 1253 0
1250 -1251 0
1250 -1253 0
-1251 1181 -1131 0
-1251 1181 1252 0
-1251 -1181 1131 -1252 0
1251 -1181 -1131 0
1251 -1181 1252 0
1251 1181 1131 -1252 0
1252 -1132 1187 0
1252 -1174 1187 0
-1252 -1187 0
-1252 1132 1174 0
-1253 1183 -1131 0
-1253 1183 1254 0
-1253 -1183 1131 -1254 0
1253 -1183 -1131 0
1253 -1183 1254 0
1253 1183 1131 -1254 0
1254 1181 -1252 0
-1254 -1181 0
-1254 1252 0
-1255 1234 1240 1256 0
1255 -1234 0
1255 -1240 0
1255 -1256 0
-1256 1250 1257 0
1256 -1250 0
1256 -1257 0
-1257 1248 1258 0
1257 -1248 0
1257 -1258 0
1258 1323 -1247 0
-1258 -1323 0
-1258 1247 0
-1259 1208 1213 1260 0
1259 -1208 0
1259 -1213 0
1259 -1260 0
-1260 1261 1262 0
1260 -1261 0
1260 -1262 0
-1261 1003 0
1261 -1003 0
1262 -1316 1206 0
1262 1316 -1206 0
-1262 1316 1206 0
-1262 -1316 -1206 0
-1263 -526 -1264 0
-1263 1316 340 526 0
-1263 -1316 -340 526 0
1263 -526 1264 0
1263 -1316 340 526 0
1263 1316 -340 526 0
1264 505 -1265 0
1264 1316 340 -505 0
1264 -1316 -340 -505 0
-1264 505 1265 0
-1264 -1316 340 -505 0
-1264 1316 -340 -505 0
1265 -500 746 0
1265 500 -1266 0
-1265 -500 -746 0
-1265 500 1266 0
1266 -1290 1302 0
1266 -1267 1302 -1303 0
-1266 -1302 0
-1266 1290 1303 0
-1266 1267 1290 0
1267 -1268 -1274 1289 0
1267 -1274 1288 1289 0
-1267 -1289 0
-1267 1274 0
-1267 1268 -1288 0
-1268 1322 1269 1271 0
-1268 -1322 -1269 1271 0
1268 -1271 0
1268 1322 -1269 0
1268 -1322 1269 0
-1269 1222 -1199 0
-1269 1221 1199 1270 0
-1269 -1221 1199 -1270 0
1269 -1222 -1199 0
1269 1221 1199 -1270 0
1269 -1221 1199 1270 0
1270 -1201 1228 0
1270 -1214 1228 0
-1270 -1228 0
-1270 1201 1214 0
1271 -1323 1272 0
1271 1323 -1272 0
-1271 1323 1272 0
-1271 -1323 -1272 0
-1272 1225 -1199 0
-1272 1224 1199 1273 0
-1272 -1224 1199 -1273 0
1272 -1225 -1199 0
1272 1224 1199 -1273 0
1272 -1224 1199 1273 0
1273 -1221 1231 0
1273 1231 -1270 0
-1273 -1231 0
-1273 1221 1270 0
-1274 -1282 1283 0
-1274 1275 1277 1283 0
1274 -1283 0
1274 -1275 1282 0
1274 -1277 1282 0
1275 -1317 1276 0
1275 -1316 1261 1276 0
1275 -1316 -1317 1261 0
-1275 -1261 -1276 0
-1275 1316 1317 0
-1275 1317 -1276 0
-1275 1317 -1261 0
-1275 1316 -1276 0
-1276 1316 1206 0
-1276 1206 -1199 0
-1276 -1316 -1206 1199 0
1276 -1206 -1199 0
1276 1316 -1206 0
1276 -1316 1206 1199 0
-1277 1318 1278 1279 0
-1277 -1318 -1278 1279 0
1277 -1279 0
1277 1318 -1278 0
1277 -1318 1278 0
-1278 1210 -1199 0
-1278 -1205 -1209 1199 0
-1278 1205 1209 1199 0
1278 -1210 -1199 0
1278 -1205 1209 1199 0
1278 1205 -1209 1199 0
1279 -1319 1280 0
1279 1319 -1280 0
-1279 1319 1280 0
-1279 -1319 -1280 0
-1280 1202 -1199 0
-1280 1211 1199 1281 0
-1280 -1211 1199 -1281 0
1280 -1202 -1199 0
1280 1211 1199 -1281 0
1280 -1211 1199 1281 0
1281 -1205 1212 0
1281 -1209 1212 0
-1281 -1212 0
-1281 1205 1209 0
-1282 -1318 -1319 0
-1282 -1319 1280 0
-1282 -1318 1280 0
-1282 -1319 1278 0
-1282 1278 1280 0
1282 1319 -1280 0
1282 1318 -1278 -1280 0
1282 1318 1319 -1278 0
-1283 -1320 -1284 1285 1268 0
-1283 1320 1284 1285 1268 0
1283 -1268 0
1283 1320 -1284 0
1283 -1285 0
1283 -1320 1284 0
-1284 1216 -1199 0
-1284 -1201 -1215 1199 0
-1284 1201 1215 1199 0
1284 -1216 -1199 0
1284 -1201 1215 1199 0
1284 1201 -1215 1199 0
1285 -1321 1286 0
1285 1321 -1286 0
-1285 1321 1286 0
-1285 -1321 -1286 0
-1286 1218 -1199 0
-1286 1217 1199 1287 0
-1286 -1217 1199 -1287 0
1286 -1218 -1199 0
1286 1217 1199 -1287 0
1286 -1217 1199 1287 0
1287 -1201 1229 0
1287 -1215 1229 0
-1287 -1229 0
-1287 1201 1215 0
-1288 -1320 -1321 0
-1288 -1321 1286 0
-1288 -1320 1286 0
-1288 -1321 1284 0
-1288 1284 1286 0
1288 1321 -1286 0
1288 1320 -1284 -1286 0
1288 1320 1321 -1284 0
-1289 -1322 -1323 0
-1289 -1323 1272 0
-1289 -1322 1272 0
-1289 -1323 1269 0
-1289 1269 1272 0
1289 1323 -1272 0
1289 1322 -1269 -1272 0
1289 1322 1323 -1269 0
-1290 1291 1294 1296 0
1290 -1291 0
1290 -1294 0
1290 -1296 0
-1291 1248 1292 1293 0
-1291 1248 -1199 1292 0
-1291 -1248 1199 1292 -1293 0
1291 -1248 -1199 0
1291 -1248 1293 0
1291 -1292 0
1291 1248 1199 -1293 0
-1292 1247 -1199 0
-1292 -1200 -1246 1199 0
-1292 1200 1246 1199 0
1292 -1247 -1199 0
1292 -1200 1246 1199 0
1292 1200 -1246 1199 0
1293 -1200 1258 0
1293 -1246 1258 0
-1293 -1258 0
-1293 1200 1246 0
-1294 1251 1253 1295 0
-1294 1251 1253 -1199 0
-1294 -1251 1253 1199 -1295 0
1294 -1251 -1199 0
1294 1251 1199 -1295 0
1294 -1253 0
1294 -1251 1295 0
1295 -1200 1257 0
1295 -1245 1257 0
-1295 -1257 0
-1295 1200 1245 0
-1296 1297 1300 0
1296 -1297 0
1296 -1300 0
-1297 1241 1242 1298 0
-1297 1241 1242 -1199 0
-1297 -1241 1242 1199 -1298 0
1297 -1241 -1199 0
1297 1241 1199 -1298 0
1297 -1242 0
1297 -1241 1298 0
1298 1256 -1299 0
-1298 -1256 0
-1298 1299 0
-1299 1200 1244 0
1299 -1200 0
1299 -1244 0
-1300 1235 1238 1301 0
-1300 1235 1238 -1199 0
-1300 -1235 1238 1199 -1301 0
1300 -1235 -1199 0
1300 1235 1199 -1301 0
1300 -1238 0
1300 -1235 1301 0
1301 1240 -1298 0
-1301 -1240 0
-1301 1298 0
-1302 1291 1294 1297 1300 0
1302 -1300 0
1302 -1291 0
1302 -1297 0
1302 -1294 0
-1303 1304 1277 1283 1305 0
1303 -1304 0
1303 -1305 0
1303 -1283 0
1303 -1277 0
1304 -1317 1276 0
1304 1317 -1276 0
-1304 1317 1276 0
-1304 -1317 -1276 0
1305 -1316 1261 0
1305 1316 -1261 0
-1305 1316 1261 0
-1305 -1316 -1261 0
1306 1307 -500 0
-1306 -1307 0
-1306 500 0
-1307 1324 1325 0
1307 -1324 0
1307 -1325 0
-1328 0
2 0
1306 0

