c Result of efficient AIG-to-CNF conversion using package CNF
p cnf 2486 9572
-2 3 1085 -2120 -2165 0
-2 -3 -1085 -2120 -2165 0
-2 3 1085 2120 2165 0
-2 -3 -1085 2120 2165 0
2 2120 -2165 0
2 -2120 2165 0
2 -3 1085 0
2 3 -1085 0
3 -2484 -4 0
3 -2300 2484 0
3 2484 -1083 0
-3 -2484 4 0
-3 2300 2484 1083 0
4 2336 2483 -2485 -5 0
4 -2336 -2483 -2485 -5 0
-4 5 0
-4 -2336 2483 0
-4 2485 0
-4 2336 -2483 0
5 2334 2481 -6 1082 0
5 -2334 -2481 -6 1082 0
-5 -1082 0
-5 -2334 2481 0
-5 6 0
-5 2334 -2481 0
6 2480 7 -8 1081 0
6 -2480 -7 -8 1081 0
-6 -1081 0
-6 -2480 7 0
-6 8 0
-6 2480 -7 0
7 -2333 2356 0
7 -2355 2356 0
-7 -2356 0
-7 2333 2355 0
8 2331 2478 -9 1080 0
8 -2331 -2478 -9 1080 0
-8 -1080 0
-8 -2331 2478 0
-8 9 0
-8 2331 -2478 0
9 2475 10 -11 1079 0
9 -2475 -10 -11 1079 0
-9 -1079 0
-9 -2475 10 0
-9 11 0
-9 2475 -10 0
10 -2328 2353 0
10 -2352 2353 0
-10 -2353 0
-10 2328 2352 0
11 2474 12 -13 1078 0
11 -2474 -12 -13 1078 0
-11 -1078 0
-11 -2474 12 0
-11 13 0
-11 2474 -12 0
12 -2327 2352 0
12 -2351 2352 0
-12 -2352 0
-12 2327 2351 0
13 2472 14 -15 1077 0
13 -2472 -14 -15 1077 0
-13 -1077 0
-13 -2472 14 0
-13 15 0
-13 2472 -14 0
14 -2325 2350 0
14 -2349 2350 0
-14 -2350 0
-14 2325 2349 0
15 2322 2469 -16 1076 0
15 -2322 -2469 -16 1076 0
-15 -1076 0
-15 -2322 2469 0
-15 16 0
-15 2322 -2469 0
16 2468 17 -18 1075 0
16 -2468 -17 -18 1075 0
-16 -1075 0
-16 -2468 17 0
-16 18 0
-16 2468 -17 0
17 -2321 2348 0
17 -2347 2348 0
-17 -2348 0
-17 2321 2347 0
18 2466 19 -20 1074 0
18 -2466 -19 -20 1074 0
-18 -1074 0
-18 -2466 19 0
-18 20 0
-18 2466 -19 0
19 -2319 2346 0
19 -2345 2346 0
-19 -2346 0
-19 2319 2345 0
20 2464 21 -22 1073 0
20 -2464 -21 -22 1073 0
-20 -1073 0
-20 -2464 21 0
-20 22 0
-20 2464 -21 0
21 -2317 2344 0
21 -2343 2344 0
-21 -2344 0
-21 2317 2343 0
22 2314 2461 -23 1072 0
22 -2314 -2461 -23 1072 0
-22 -1072 0
-22 -2314 2461 0
-22 23 0
-22 2314 -2461 0
23 2460 24 -25 1071 0
23 -2460 -24 -25 1071 0
-23 -1071 0
-23 -2460 24 0
-23 25 0
-23 2460 -24 0
24 -2313 2342 0
24 -2341 2342 0
-24 -2342 0
-24 2313 2341 0
25 2457 26 -27 1070 0
25 -2457 -26 -27 1070 0
-25 -1070 0
-25 2457 -26 0
-25 27 0
-25 -2457 26 0
-26 -2339 2344 0
-26 2310 2344 0
26 -2344 0
26 -2310 2339 0
27 2309 2456 -28 1069 0
27 -2309 -2456 -28 1069 0
-27 -1069 0
-27 -2309 2456 0
-27 28 0
-27 2309 -2456 0
28 2454 -29 1049 1068 0
28 -2454 -29 1049 -1068 0
-28 29 0
-28 -2454 1068 0
-28 -1049 0
-28 2454 -1068 0
29 2446 -30 1015 1048 0
29 -2446 -30 1015 -1048 0
-29 30 0
-29 -2446 1048 0
-29 -1015 0
-29 2446 -1048 0
30 2438 -31 1001 1014 0
30 -2438 -31 1001 -1014 0
-30 31 0
-30 -2438 1014 0
-30 -1001 0
-30 2438 -1014 0
31 2430 -32 897 1000 0
31 -2430 -32 897 -1000 0
-31 32 0
-31 -2430 1000 0
-31 -897 0
-31 2430 -1000 0
32 2422 -33 877 896 0
32 -2422 -33 877 -896 0
-32 33 0
-32 -2422 896 0
-32 -877 0
-32 2422 -896 0
33 2414 -34 857 876 0
33 -2414 -34 857 -876 0
-33 34 0
-33 -2414 876 0
-33 -857 0
-33 2414 -876 0
34 -35 836 853 855 0
-34 -855 0
-34 35 0
-34 -853 0
-34 -836 0
35 2398 -36 816 835 0
35 -2398 -36 816 -835 0
-35 36 0
-35 -2398 835 0
-35 -816 0
-35 2398 -835 0
36 2390 -37 782 815 0
36 -2390 -37 782 -815 0
-36 37 0
-36 -2390 815 0
-36 -782 0
-36 2390 -815 0
37 2382 -38 768 781 0
37 -2382 -38 768 -781 0
-37 38 0
-37 -2382 781 0
-37 -768 0
-37 2382 -781 0
38 2374 -39 736 767 0
38 -2374 -39 736 -767 0
-38 39 0
-38 -2374 767 0
-38 -736 0
-38 2374 -767 0
39 2366 -40 716 735 0
39 -2366 -40 716 -735 0
-39 40 0
-39 -2366 735 0
-39 -716 0
-39 2366 -735 0
40 -41 -628 -662 -715 0
-40 662 0
-40 715 0
-40 41 0
-40 628 0
41 2358 42 -621 0
41 -2358 42 -377 0
-41 -42 0
-41 2358 621 0
-41 -2358 377 0
-42 43 343 361 362 0
42 -362 0
42 -361 0
42 -43 0
42 -343 0
-43 2354 44 0
-43 44 -325 -326 0
43 -44 0
43 -2354 326 0
43 -2354 325 0
-44 2353 45 306 0
-44 45 306 -307 0
44 -45 0
44 -306 0
44 -2353 307 0
-45 2351 46 0
-45 -2326 46 -273 0
45 -46 0
45 -2351 273 0
45 2326 -2351 0
-46 2350 118 0
-46 -47 118 -272 0
46 -118 0
46 -2350 272 0
46 -2350 47 0
-47 48 52 57 66 0
47 -66 0
47 -48 0
47 -57 0
47 -52 0
-48 2347 49 0
-48 -2347 -49 0
48 -2347 49 0
48 2347 -49 0
-49 2344 50 0
-49 -2344 -50 0
49 -2344 50 0
49 2344 -50 0
-50 2341 51 0
-50 -2341 -51 0
50 -2341 51 0
50 2341 -51 0
-51 -2243 -2338 0
-51 2243 2338 0
51 2243 -2338 0
51 -2243 2338 0
-52 2347 53 0
-52 -2347 49 -53 0
-52 -49 53 0
52 2347 -53 0
52 -49 -53 0
52 -2347 49 53 0
-53 2344 54 0
-53 -2344 50 -54 0
-53 -50 54 0
53 2344 -54 0
53 -50 -54 0
53 -2344 50 54 0
-54 2341 55 0
-54 -2341 51 -55 0
-54 -51 55 0
54 2341 -55 0
54 -51 -55 0
54 -2341 51 55 0
-55 -2243 56 0
-55 2338 56 0
-55 2243 -2338 -56 0
55 2338 -56 0
55 2243 -2338 56 0
55 -2243 -56 0
-56 -2242 -2337 0
-56 2242 2337 0
56 2242 -2337 0
56 -2242 2337 0
-57 58 -65 0
-57 -2347 -58 65 0
-57 2347 58 0
57 -58 -65 0
57 2347 -58 0
57 -2347 58 65 0
-58 59 -64 0
-58 -2344 -59 64 0
-58 2344 59 0
58 -59 -64 0
58 2344 -59 0
58 -2344 59 64 0
-59 60 -63 0
-59 -2341 -60 63 0
-59 2341 60 0
59 -60 -63 0
59 2341 -60 0
59 -2341 60 63 0
-60 61 -62 0
-60 -2338 -61 62 0
-60 2338 61 0
60 -61 -62 0
60 2338 -61 0
60 -2338 61 62 0
-61 2241 -2242 0
-61 2241 2337 0
-61 -2241 2242 -2337 0
61 -2241 -2242 0
61 -2241 2337 0
61 2241 2242 -2337 0
-62 2243 56 0
62 -2243 0
62 -56 0
-63 51 55 0
63 -51 0
63 -55 0
-64 50 54 0
64 -50 0
64 -54 0
-65 49 53 0
65 -49 0
65 -53 0
-66 67 77 87 97 0
66 -97 0
66 -67 0
66 -87 0
66 -77 0
-67 68 -76 0
-67 -2347 -68 76 0
-67 2347 68 0
67 -68 -76 0
67 2347 -68 0
67 -2347 68 76 0
-68 69 -75 0
-68 -2344 -69 75 0
-68 2344 69 0
68 -69 -75 0
68 2344 -69 0
68 -2344 69 75 0
-69 70 -74 0
-69 -2341 -70 74 0
-69 2341 70 0
69 -70 -74 0
69 2341 -70 0
69 -2341 70 74 0
-70 71 -73 0
-70 -2338 -71 73 0
-70 2338 71 0
70 -71 -73 0
70 2338 -71 0
70 -2338 71 73 0
-71 2240 -72 0
-71 2240 2337 0
-71 -2240 -2337 72 0
71 -2240 2337 0
71 2240 -2337 72 0
71 -2240 -72 0
-72 2241 2242 0
72 -2241 0
72 -2242 0
-73 61 62 0
73 -61 0
73 -62 0
-74 60 63 0
74 -60 0
74 -63 0
-75 59 64 0
75 -59 0
75 -64 0
-76 58 65 0
76 -58 0
76 -65 0
-77 78 -86 0
-77 -2347 -78 86 0
-77 2347 78 0
77 -78 -86 0
77 2347 -78 0
77 -2347 78 86 0
-78 79 -85 0
-78 -2344 -79 85 0
-78 2344 79 0
78 -79 -85 0
78 2344 -79 0
78 -2344 79 85 0
-79 80 -84 0
-79 -2341 -80 84 0
-79 2341 80 0
79 -80 -84 0
79 2341 -80 0
79 -2341 80 84 0
-80 81 -83 0
-80 -2338 -81 83 0
-80 2338 81 0
80 -81 -83 0
80 2338 -81 0
80 -2338 81 83 0
-81 2239 -82 0
-81 2239 2337 0
-81 -2239 -2337 82 0
81 -2239 2337 0
81 2239 -2337 82 0
81 -2239 -82 0
-82 2240 72 0
82 -2240 0
82 -72 0
-83 71 73 0
83 -71 0
83 -73 0
-84 70 74 0
84 -70 0
84 -74 0
-85 69 75 0
85 -69 0
85 -75 0
-86 68 76 0
86 -68 0
86 -76 0
-87 88 -96 0
-87 -2347 -88 96 0
-87 2347 88 0
87 -88 -96 0
87 2347 -88 0
87 -2347 88 96 0
-88 89 -95 0
-88 -2344 -89 95 0
-88 2344 89 0
88 -89 -95 0
88 2344 -89 0
88 -2344 89 95 0
-89 90 -94 0
-89 -2341 -90 94 0
-89 2341 90 0
89 -90 -94 0
89 2341 -90 0
89 -2341 90 94 0
-90 91 -93 0
-90 -2338 -91 93 0
-90 2338 91 0
90 -91 -93 0
90 2338 -91 0
90 -2338 91 93 0
-91 2238 -92 0
-91 2238 2337 0
-91 -2238 -2337 92 0
91 -2238 2337 0
91 2238 -2337 92 0
91 -2238 -92 0
-92 2239 82 0
92 -2239 0
92 -82 0
-93 81 83 0
93 -81 0
93 -83 0
-94 80 84 0
94 -80 0
94 -84 0
-95 79 85 0
95 -79 0
95 -85 0
-96 78 86 0
96 -78 0
96 -86 0
-97 98 117 0
97 -98 0
97 -117 0
-98 99 -114 0
-98 -2347 -99 114 0
-98 2347 99 0
98 -99 -114 0
98 2347 -99 0
98 -2347 99 114 0
-99 100 -111 0
-99 -2344 -100 111 0
-99 2344 100 0
99 -100 -111 0
99 2344 -100 0
99 -2344 100 111 0
-100 101 -108 0
-100 -2341 -101 108 0
-100 2341 101 0
100 -101 -108 0
100 2341 -101 0
100 -2341 101 108 0
-101 102 -105 0
-101 -2338 -102 105 0
-101 2338 102 0
101 -102 -105 0
101 2338 -102 0
101 -2338 102 105 0
-102 2236 -103 0
-102 2236 2337 0
-102 -2236 -2337 103 0
102 -2236 2337 0
102 2236 -2337 103 0
102 -2236 -103 0
-103 2237 104 0
103 -2237 0
103 -104 0
-104 2238 92 0
104 -2238 0
104 -92 0
-105 106 107 0
105 -106 0
105 -107 0
-106 2237 -104 0
-106 2237 2337 0
-106 -2237 -2337 104 0
106 -2237 2337 0
106 2237 -2337 104 0
106 -2237 -104 0
-107 91 93 0
107 -91 0
107 -93 0
-108 109 110 0
108 -109 0
108 -110 0
-109 106 -107 0
-109 -2338 -106 107 0
-109 2338 106 0
109 -106 -107 0
109 2338 -106 0
109 -2338 106 107 0
-110 90 94 0
110 -90 0
110 -94 0
-111 112 113 0
111 -112 0
111 -113 0
-112 109 -110 0
-112 -2341 -109 110 0
-112 2341 109 0
112 -109 -110 0
112 2341 -109 0
112 -2341 109 110 0
-113 89 95 0
113 -89 0
113 -95 0
-114 115 116 0
114 -115 0
114 -116 0
-115 112 -113 0
-115 -2344 -112 113 0
-115 2344 112 0
115 -112 -113 0
115 2344 -112 0
115 -2344 112 113 0
-116 88 96 0
116 -88 0
116 -96 0
-117 115 -116 0
-117 -2347 -115 116 0
-117 2347 115 0
117 -115 -116 0
117 2347 -115 0
117 -2347 115 116 0
-118 119 249 253 254 0
118 -254 0
118 -253 0
118 -119 0
118 -249 0
-119 2345 120 248 0
-119 120 -214 248 0
119 -120 0
119 -248 0
119 -2345 214 0
-120 2344 124 0
-120 -121 124 -213 0
120 -124 0
120 -2344 213 0
120 -2344 121 0
-121 50 54 59 122 0
121 -122 0
121 -50 0
121 -59 0
121 -54 0
-122 69 79 89 123 0
122 -123 0
122 -69 0
122 -89 0
122 -79 0
-123 100 112 0
123 -100 0
123 -112 0
-124 125 190 194 195 0
124 -195 0
124 -194 0
124 -125 0
124 -190 0
-125 2339 126 189 0
-125 126 -157 189 0
125 -126 0
125 -189 0
125 -2339 157 0
-126 2337 2338 0
-126 -127 -139 0
-126 2337 -139 0
-126 2338 -127 0
126 -2337 127 0
126 -2338 139 0
127 -2308 -128 -103 0
127 -2236 -2308 -128 0
-127 128 0
-127 2308 0
-127 2236 103 0
128 -2228 -129 -132 0
128 -129 -132 -135 0
-128 132 0
-128 129 0
-128 2228 135 0
-129 2217 2218 2219 130 0
129 -130 0
129 -2219 0
129 -2217 0
129 -2218 0
-130 2215 2216 131 0
130 -131 0
130 -2216 0
130 -2215 0
-131 2212 2213 2214 0
131 -2212 0
131 -2214 0
131 -2213 0
-132 2220 2221 2222 133 0
132 -133 0
132 -2222 0
132 -2220 0
132 -2221 0
-133 2223 2224 134 0
133 -134 0
133 -2224 0
133 -2223 0
-134 2225 2226 0
134 -2225 0
134 -2226 0
-135 2229 136 0
135 -2229 0
135 -136 0
-136 2230 137 0
136 -2230 0
136 -137 0
-137 2231 138 0
137 -2231 0
137 -138 0
-138 2232 2233 2234 0
138 -2232 0
138 -2234 0
138 -2233 0
139 -2259 -2309 -154 0
139 -2309 -140 -154 0
-139 2309 0
-139 154 0
-139 2259 140 0
-140 141 142 143 145 0
140 -145 0
140 -141 0
140 -143 0
140 -142 0
-141 -2258 -2337 0
-141 2258 2337 0
141 2258 -2337 0
141 -2258 2337 0
-142 2257 2337 0
-142 2257 2258 0
-142 -2257 -2258 -2337 0
142 -2257 2258 0
142 2257 -2258 -2337 0
142 -2257 2337 0
-143 2256 144 0
-143 2256 2337 0
-143 -2256 -2337 -144 0
143 -2256 2337 0
143 2256 -2337 -144 0
143 -2256 144 0
144 -2257 -2258 0
-144 2257 0
-144 2258 0
-145 146 148 150 153 0
145 -153 0
145 -146 0
145 -150 0
145 -148 0
-146 2255 147 0
-146 2255 2337 0
-146 -2255 -2337 -147 0
146 -2255 2337 0
146 2255 -2337 -147 0
146 -2255 147 0
147 -2256 -2257 -2258 0
-147 2256 0
-147 2257 0
-147 2258 0
-148 2254 149 0
-148 2254 2337 0
-148 -2254 -2337 -149 0
148 -2254 2337 0
148 2254 -2337 -149 0
148 -2254 149 0
149 -2255 -147 0
-149 2255 0
-149 147 0
-150 2252 151 0
-150 2252 2337 0
-150 -2252 -2337 -151 0
150 -2252 2337 0
150 2252 -2337 -151 0
150 -2252 151 0
151 -2253 -152 0
-151 2253 0
-151 152 0
152 -2254 -149 0
-152 2254 0
-152 149 0
-153 2253 152 0
-153 2253 2337 0
-153 -2253 -2337 -152 0
153 -2253 2337 0
153 2253 -2337 -152 0
153 -2253 152 0
-154 2243 56 61 155 0
154 -2243 0
154 -155 0
154 -61 0
154 -56 0
-155 71 81 91 156 0
155 -156 0
155 -71 0
155 -91 0
155 -81 0
-156 102 106 0
156 -102 0
156 -106 0
157 -2299 -2310 -158 0
157 -2310 -158 -175 0
-157 2310 0
-157 158 0
-157 2299 175 0
-158 159 160 161 163 0
158 -163 0
158 -159 0
158 -161 0
158 -160 0
-159 -2267 -2338 0
-159 2267 2338 0
159 2267 -2338 0
159 -2267 2338 0
-160 2266 2338 0
-160 2266 2267 0
-160 -2266 -2267 -2338 0
160 -2266 2267 0
160 2266 -2267 -2338 0
160 -2266 2338 0
-161 2265 162 0
-161 2265 2338 0
-161 -2265 -2338 -162 0
161 -2265 2338 0
161 2265 -2338 -162 0
161 -2265 162 0
162 -2266 -2267 0
-162 2266 0
-162 2267 0
-163 164 166 168 170 0
163 -170 0
163 -164 0
163 -168 0
163 -166 0
-164 2264 165 0
-164 2264 2338 0
-164 -2264 -2338 -165 0
164 -2264 2338 0
164 2264 -2338 -165 0
164 -2264 165 0
165 -2265 -2266 -2267 0
-165 2265 0
-165 2266 0
-165 2267 0
-166 2263 167 0
-166 2263 2338 0
-166 -2263 -2338 -167 0
166 -2263 2338 0
166 2263 -2338 -167 0
166 -2263 167 0
167 -2264 -165 0
-167 2264 0
-167 165 0
-168 2262 169 0
-168 2262 2338 0
-168 -2262 -2338 -169 0
168 -2262 2338 0
168 2262 -2338 -169 0
168 -2262 169 0
169 -2263 -167 0
-169 2263 0
-169 167 0
-170 171 174 0
170 -171 0
170 -174 0
-171 2260 172 0
-171 2260 2338 0
-171 -2260 -2338 -172 0
171 -2260 2338 0
171 2260 -2338 -172 0
171 -2260 172 0
172 -2261 -173 0
-172 2261 0
-172 173 0
173 -2262 -169 0
-173 2262 0
-173 169 0
-174 2261 173 0
-174 2261 2338 0
-174 -2261 -2338 -173 0
174 -2261 2338 0
174 2261 -2338 -173 0
174 -2261 173 0
-175 176 177 178 180 0
175 -180 0
175 -176 0
175 -178 0
175 -177 0
-176 -2298 -2337 0
-176 2298 2337 0
176 2298 -2337 0
176 -2298 2337 0
-177 2297 2337 0
-177 2297 2298 0
-177 -2297 -2298 -2337 0
177 -2297 2298 0
177 2297 -2298 -2337 0
177 -2297 2337 0
-178 2296 179 0
-178 2296 2337 0
-178 -2296 -2337 -179 0
178 -2296 2337 0
178 2296 -2337 -179 0
178 -2296 179 0
179 -2297 -2298 0
-179 2297 0
-179 2298 0
-180 181 183 185 188 0
180 -188 0
180 -181 0
180 -185 0
180 -183 0
-181 2295 182 0
-181 2295 2337 0
-181 -2295 -2337 -182 0
181 -2295 2337 0
181 2295 -2337 -182 0
181 -2295 182 0
182 -2296 -2297 -2298 0
-182 2296 0
-182 2297 0
-182 2298 0
-183 2294 184 0
-183 2294 2337 0
-183 -2294 -2337 -184 0
183 -2294 2337 0
183 2294 -2337 -184 0
183 -2294 184 0
184 -2295 -182 0
-184 2295 0
-184 182 0
-185 2292 186 0
-185 2292 2337 0
-185 -2292 -2337 -186 0
185 -2292 2337 0
185 2292 -2337 -186 0
185 -2292 186 0
186 -2293 -187 0
-186 2293 0
-186 187 0
187 -2294 -184 0
-187 2294 0
-187 184 0
-188 2293 187 0
-188 2293 2337 0
-188 -2293 -2337 -187 0
188 -2293 2337 0
188 2293 -2337 -187 0
188 -2293 187 0
189 2311 2339 -2340 0
-189 2340 0
-189 -2339 0
-189 -2311 0
190 -2341 191 0
190 -2341 51 192 0
-190 2341 0
-190 -191 -192 0
-190 -191 -51 0
-191 2312 2340 0
191 -2312 0
191 -2340 0
-192 55 60 70 193 0
192 -193 0
192 -55 0
192 -70 0
192 -60 0
-193 80 90 101 109 0
193 -109 0
193 -80 0
193 -101 0
193 -90 0
194 -2342 121 0
194 2313 2341 -2342 0
-194 2342 0
-194 -2313 -121 0
-194 -2341 -121 0
195 -2343 196 0
195 -2343 197 198 0
-195 2343 0
-195 -196 -198 0
-195 -196 -197 0
-196 2316 2342 0
196 -2316 0
196 -2342 0
-197 -2299 -2339 0
-197 2299 2339 0
197 2299 -2339 0
197 -2299 2339 0
-198 199 200 202 204 0
198 -204 0
198 -199 0
198 -202 0
198 -200 0
-199 -2299 176 0
-199 2339 176 0
-199 2299 -2339 -176 0
199 2339 -176 0
199 2299 -2339 176 0
199 -2299 -176 0
-200 177 -201 0
-200 -2339 -177 201 0
-200 2339 177 0
200 -177 -201 0
200 2339 -177 0
200 -2339 177 201 0
-201 2299 176 0
201 -2299 0
201 -176 0
-202 178 -203 0
-202 -2339 -178 203 0
-202 2339 178 0
202 -178 -203 0
202 2339 -178 0
202 -2339 178 203 0
-203 177 201 0
203 -177 0
203 -201 0
-204 205 207 209 212 0
204 -212 0
204 -205 0
204 -209 0
204 -207 0
-205 181 -206 0
-205 -2339 -181 206 0
-205 2339 181 0
205 -181 -206 0
205 2339 -181 0
205 -2339 181 206 0
-206 178 203 0
206 -178 0
206 -203 0
-207 183 -208 0
-207 -2339 -183 208 0
-207 2339 183 0
207 -183 -208 0
207 2339 -183 0
207 -2339 183 208 0
-208 181 206 0
208 -181 0
208 -206 0
-209 185 -210 0
-209 -2339 -185 210 0
-209 2339 185 0
209 -185 -210 0
209 2339 -185 0
209 -2339 185 210 0
-210 188 211 0
210 -188 0
210 -211 0
-211 183 208 0
211 -183 0
211 -208 0
-212 188 -211 0
-212 -2339 -188 211 0
-212 2339 188 0
212 -188 -211 0
212 2339 -188 0
212 -2339 188 211 0
-213 2317 2343 0
213 -2317 0
213 -2343 0
214 -2318 -215 -233 0
214 -2318 -215 -232 0
-214 2318 0
-214 215 0
-214 232 233 0
-215 216 217 218 220 0
215 -220 0
215 -216 0
215 -218 0
215 -217 0
-216 2339 159 0
-216 -2339 -159 0
216 -2339 159 0
216 2339 -159 0
-217 2339 160 0
-217 -2339 159 -160 0
-217 -159 160 0
217 2339 -160 0
217 -159 -160 0
217 -2339 159 160 0
-218 161 -219 0
-218 -2339 -161 219 0
-218 2339 161 0
218 -161 -219 0
218 2339 -161 0
218 -2339 161 219 0
-219 159 160 0
219 -159 0
219 -160 0
-220 221 223 225 227 0
220 -227 0
220 -221 0
220 -225 0
220 -223 0
-221 164 -222 0
-221 -2339 -164 222 0
-221 2339 164 0
221 -164 -222 0
221 2339 -164 0
221 -2339 164 222 0
-222 2265 2266 2267 2338 0
-222 -2265 -2266 -2267 -2338 0
222 2266 -2338 0
222 -2265 2338 0
222 -2266 2267 0
222 2265 -2267 0
-223 166 -224 0
-223 -2339 -166 224 0
-223 2339 166 0
223 -166 -224 0
223 2339 -166 0
223 -2339 166 224 0
-224 164 222 0
224 -164 0
224 -222 0
-225 168 -226 0
-225 -2339 -168 226 0
-225 2339 168 0
225 -168 -226 0
225 2339 -168 0
225 -2339 168 226 0
-226 166 224 0
226 -166 0
226 -224 0
-227 228 231 0
227 -228 0
227 -231 0
-228 171 -229 0
-228 -2339 -171 229 0
-228 2339 171 0
228 -171 -229 0
228 2339 -171 0
228 -2339 171 229 0
-229 174 230 0
229 -174 0
229 -230 0
-230 168 226 0
230 -168 0
230 -226 0
-231 174 -230 0
-231 -2339 -174 230 0
-231 2339 174 0
231 -174 -230 0
231 2339 -174 0
231 -2339 174 230 0
-232 2343 197 0
-232 -2343 -197 0
232 -2343 197 0
232 2343 -197 0
-233 234 235 237 239 0
233 -239 0
233 -234 0
233 -237 0
233 -235 0
-234 2343 199 0
-234 -2343 197 -199 0
-234 -197 199 0
234 2343 -199 0
234 -197 -199 0
234 -2343 197 199 0
-235 200 -236 0
-235 -2343 -200 236 0
-235 2343 200 0
235 -200 -236 0
235 2343 -200 0
235 -2343 200 236 0
-236 197 199 0
236 -197 0
236 -199 0
-237 202 -238 0
-237 -2343 -202 238 0
-237 2343 202 0
237 -202 -238 0
237 2343 -202 0
237 -2343 202 238 0
-238 200 236 0
238 -200 0
238 -236 0
-239 240 242 244 247 0
239 -247 0
239 -240 0
239 -244 0
239 -242 0
-240 205 -241 0
-240 -2343 -205 241 0
-240 2343 205 0
240 -205 -241 0
240 2343 -205 0
240 -2343 205 241 0
-241 202 238 0
241 -202 0
241 -238 0
-242 207 -243 0
-242 -2343 -207 243 0
-242 2343 207 0
242 -207 -243 0
242 2343 -207 0
242 -2343 207 243 0
-243 205 241 0
243 -205 0
243 -241 0
-244 209 -245 0
-244 -2343 -209 245 0
-244 2343 209 0
244 -209 -245 0
244 2343 -209 0
244 -2343 209 245 0
-245 212 246 0
245 -212 0
245 -246 0
-246 207 243 0
246 -207 0
246 -243 0
-247 212 -246 0
-247 -2343 -212 246 0
-247 2343 212 0
247 -212 -246 0
247 2343 -212 0
247 -2343 212 246 0
248 2319 2345 -2346 0
-248 2346 0
-248 -2345 0
-248 -2319 0
249 -2347 250 0
249 -2347 49 251 0
-249 2347 0
-249 -250 -251 0
-249 -250 -49 0
-250 2320 2346 0
250 -2320 0
250 -2346 0
-251 53 58 68 252 0
251 -252 0
251 -53 0
251 -68 0
251 -58 0
-252 78 88 99 115 0
252 -115 0
252 -78 0
252 -99 0
252 -88 0
253 -2348 47 0
253 2321 2347 -2348 0
-253 2348 0
-253 -2321 -47 0
-253 -2347 -47 0
254 -2349 255 0
254 -2349 256 257 0
-254 2349 0
-254 -255 -257 0
-254 -255 -256 0
-255 2324 2348 0
255 -2324 0
255 -2348 0
-256 2345 232 0
-256 -2345 -232 0
256 -2345 232 0
256 2345 -232 0
-257 258 259 261 263 0
257 -263 0
257 -258 0
257 -261 0
257 -259 0
-258 2345 234 0
-258 -2345 232 -234 0
-258 -232 234 0
258 2345 -234 0
258 -232 -234 0
258 -2345 232 234 0
-259 235 -260 0
-259 -2345 -235 260 0
-259 2345 235 0
259 -235 -260 0
259 2345 -235 0
259 -2345 235 260 0
-260 232 234 0
260 -232 0
260 -234 0
-261 237 -262 0
-261 -2345 -237 262 0
-261 2345 237 0
261 -237 -262 0
261 2345 -237 0
261 -2345 237 262 0
-262 235 260 0
262 -235 0
262 -260 0
-263 264 266 268 271 0
263 -271 0
263 -264 0
263 -268 0
263 -266 0
-264 240 -265 0
-264 -2345 -240 265 0
-264 2345 240 0
264 -240 -265 0
264 2345 -240 0
264 -2345 240 265 0
-265 237 262 0
265 -237 0
265 -262 0
-266 242 -267 0
-266 -2345 -242 267 0
-266 2345 242 0
266 -242 -267 0
266 2345 -242 0
266 -2345 242 267 0
-267 240 265 0
267 -240 0
267 -265 0
-268 244 -269 0
-268 -2345 -244 269 0
-268 2345 244 0
268 -244 -269 0
268 2345 -244 0
268 -2345 244 269 0
-269 247 270 0
269 -247 0
269 -270 0
-270 242 267 0
270 -242 0
270 -267 0
-271 247 -270 0
-271 -2345 -247 270 0
-271 2345 247 0
271 -247 -270 0
271 2345 -247 0
271 -2345 247 270 0
-272 2325 2349 0
272 -2325 0
272 -2349 0
273 -275 -290 0
273 -274 -291 0
273 -275 -291 0
273 -274 -290 0
-273 274 275 0
-273 290 291 0
-274 2345 216 0
-274 -2345 -216 0
274 -2345 216 0
274 2345 -216 0
-275 276 277 279 281 0
275 -281 0
275 -276 0
275 -279 0
275 -277 0
-276 2345 217 0
-276 -2345 216 -217 0
-276 -216 217 0
276 2345 -217 0
276 -216 -217 0
276 -2345 216 217 0
-277 218 -278 0
-277 -2345 -218 278 0
-277 2345 218 0
277 -218 -278 0
277 2345 -218 0
277 -2345 218 278 0
-278 216 217 0
278 -216 0
278 -217 0
-279 221 -280 0
-279 -2345 -221 280 0
-279 2345 221 0
279 -221 -280 0
279 2345 -221 0
279 -2345 221 280 0
-280 218 278 0
280 -218 0
280 -278 0
-281 282 284 286 289 0
281 -289 0
281 -282 0
281 -286 0
281 -284 0
-282 223 -283 0
-282 -2345 -223 283 0
-282 2345 223 0
282 -223 -283 0
282 2345 -223 0
282 -2345 223 283 0
-283 221 280 0
283 -221 0
283 -280 0
-284 225 -285 0
-284 -2345 -225 285 0
-284 2345 225 0
284 -225 -285 0
284 2345 -225 0
284 -2345 225 285 0
-285 223 283 0
285 -223 0
285 -283 0
-286 228 -287 0
-286 -2345 -228 287 0
-286 2345 228 0
286 -228 -287 0
286 2345 -228 0
286 -2345 228 287 0
-287 231 288 0
287 -231 0
287 -288 0
-288 225 285 0
288 -225 0
288 -285 0
-289 231 -288 0
-289 -2345 -231 288 0
-289 2345 231 0
289 -231 -288 0
289 2345 -231 0
289 -2345 231 288 0
-290 2349 256 0
-290 -2349 -256 0
290 -2349 256 0
290 2349 -256 0
-291 292 293 295 297 0
291 -297 0
291 -292 0
291 -295 0
291 -293 0
-292 2349 258 0
-292 -2349 256 -258 0
-292 -256 258 0
292 2349 -258 0
292 -256 -258 0
292 -2349 256 258 0
-293 259 -294 0
-293 -2349 -259 294 0
-293 2349 259 0
293 -259 -294 0
293 2349 -259 0
293 -2349 259 294 0
-294 256 258 0
294 -256 0
294 -258 0
-295 261 -296 0
-295 -2349 -261 296 0
-295 2349 261 0
295 -261 -296 0
295 2349 -261 0
295 -2349 261 296 0
-296 259 294 0
296 -259 0
296 -294 0
-297 298 300 302 305 0
297 -305 0
297 -298 0
297 -302 0
297 -300 0
-298 264 -299 0
-298 -2349 -264 299 0
-298 2349 264 0
298 -264 -299 0
298 2349 -264 0
298 -2349 264 299 0
-299 261 296 0
299 -261 0
299 -296 0
-300 266 -301 0
-300 -2349 -266 301 0
-300 2349 266 0
300 -266 -301 0
300 2349 -266 0
300 -2349 266 301 0
-301 264 299 0
301 -264 0
301 -299 0
-302 268 -303 0
-302 -2349 -268 303 0
-302 2349 268 0
302 -268 -303 0
302 2349 -268 0
302 -2349 268 303 0
-303 271 304 0
303 -271 0
303 -304 0
-304 266 301 0
304 -266 0
304 -301 0
-305 271 -304 0
-305 -2349 -271 304 0
-305 2349 271 0
305 -271 -304 0
305 2349 -271 0
305 -2349 271 304 0
306 2327 2351 -2352 0
-306 2352 0
-306 -2351 0
-306 -2327 0
307 -308 -310 0
307 -308 -309 0
307 -308 -311 0
-307 308 0
-307 309 310 311 0
-308 2328 2352 0
308 -2328 0
308 -2352 0
-309 2350 48 0
-309 -2350 -48 0
309 -2350 48 0
309 2350 -48 0
-310 2350 52 0
-310 -2350 48 -52 0
-310 -48 52 0
310 2350 -52 0
310 -48 -52 0
310 -2350 48 52 0
-311 312 314 316 318 0
311 -318 0
311 -312 0
311 -316 0
311 -314 0
-312 57 -313 0
-312 -2350 -57 313 0
-312 2350 57 0
312 -57 -313 0
312 2350 -57 0
312 -2350 57 313 0
-313 48 52 0
313 -48 0
313 -52 0
-314 67 -315 0
-314 -2350 -67 315 0
-314 2350 67 0
314 -67 -315 0
314 2350 -67 0
314 -2350 67 315 0
-315 57 313 0
315 -57 0
315 -313 0
-316 77 -317 0
-316 -2350 -77 317 0
-316 2350 77 0
316 -77 -317 0
316 2350 -77 0
316 -2350 77 317 0
-317 67 315 0
317 -67 0
317 -315 0
-318 319 321 324 0
318 -319 0
318 -321 0
318 -324 0
-319 87 -320 0
-319 -2350 -87 320 0
-319 2350 87 0
319 -87 -320 0
319 2350 -87 0
319 -2350 87 320 0
-320 77 317 0
320 -77 0
320 -317 0
-321 98 -322 0
-321 -2350 -98 322 0
-321 2350 98 0
321 -98 -322 0
321 2350 -98 0
321 -2350 98 322 0
-322 117 323 0
322 -117 0
322 -323 0
-323 87 320 0
323 -87 0
323 -320 0
-324 117 -323 0
-324 -2350 -117 323 0
-324 2350 117 0
324 -117 -323 0
324 2350 -117 0
324 -2350 117 323 0
-325 2329 2353 0
325 -2329 0
325 -2353 0
-326 327 328 329 331 0
326 -331 0
326 -327 0
326 -329 0
326 -328 0
-327 2353 309 0
-327 -2353 -309 0
327 -2353 309 0
327 2353 -309 0
-328 2353 310 0
-328 -2353 309 -310 0
-328 -309 310 0
328 2353 -310 0
328 -309 -310 0
328 -2353 309 310 0
-329 312 -330 0
-329 -2353 -312 330 0
-329 2353 312 0
329 -312 -330 0
329 2353 -312 0
329 -2353 312 330 0
-330 309 310 0
330 -309 0
330 -310 0
-331 332 334 336 338 0
331 -338 0
331 -332 0
331 -336 0
331 -334 0
-332 314 -333 0
-332 -2353 -314 333 0
-332 2353 314 0
332 -314 -333 0
332 2353 -314 0
332 -2353 314 333 0
-333 312 330 0
333 -312 0
333 -330 0
-334 316 -335 0
-334 -2353 -316 335 0
-334 2353 316 0
334 -316 -335 0
334 2353 -316 0
334 -2353 316 335 0
-335 314 333 0
335 -314 0
335 -333 0
-336 319 -337 0
-336 -2353 -319 337 0
-336 2353 319 0
336 -319 -337 0
336 2353 -319 0
336 -2353 319 337 0
-337 316 335 0
337 -316 0
337 -335 0
-338 339 342 0
338 -339 0
338 -342 0
-339 321 -340 0
-339 -2353 -321 340 0
-339 2353 321 0
339 -321 -340 0
339 2353 -321 0
339 -2353 321 340 0
-340 324 341 0
340 -324 0
340 -341 0
-341 319 337 0
341 -319 0
341 -337 0
-342 324 -341 0
-342 -2353 -324 341 0
-342 2353 324 0
342 -324 -341 0
342 2353 -324 0
342 -2353 324 341 0
343 -2355 344 0
343 -2355 345 346 0
-343 2355 0
-343 -344 -346 0
-343 -344 -345 0
-344 2332 2354 0
344 -2332 0
344 -2354 0
-345 2351 290 0
-345 -2351 -290 0
345 -2351 290 0
345 2351 -290 0
-346 347 348 350 352 0
346 -352 0
346 -347 0
346 -350 0
346 -348 0
-347 2351 292 0
-347 -2351 290 -292 0
-347 -290 292 0
347 2351 -292 0
347 -290 -292 0
347 -2351 290 292 0
-348 293 -349 0
-348 -2351 -293 349 0
-348 2351 293 0
348 -293 -349 0
348 2351 -293 0
348 -2351 293 349 0
-349 290 292 0
349 -290 0
349 -292 0
-350 295 -351 0
-350 -2351 -295 351 0
-350 2351 295 0
350 -295 -351 0
350 2351 -295 0
350 -2351 295 351 0
-351 293 349 0
351 -293 0
351 -349 0
-352 353 355 357 360 0
352 -360 0
352 -353 0
352 -357 0
352 -355 0
-353 298 -354 0
-353 -2351 -298 354 0
-353 2351 298 0
353 -298 -354 0
353 2351 -298 0
353 -2351 298 354 0
-354 295 351 0
354 -295 0
354 -351 0
-355 300 -356 0
-355 -2351 -300 356 0
-355 2351 300 0
355 -300 -356 0
355 2351 -300 0
355 -2351 300 356 0
-356 298 354 0
356 -298 0
356 -354 0
-357 302 -358 0
-357 -2351 -302 358 0
-357 2351 302 0
357 -302 -358 0
357 2351 -302 0
357 -2351 302 358 0
-358 305 359 0
358 -305 0
358 -359 0
-359 300 356 0
359 -300 0
359 -356 0
-360 305 -359 0
-360 -2351 -305 359 0
-360 2351 305 0
360 -305 -359 0
360 2351 -305 0
360 -2351 305 359 0
361 -2356 326 0
361 2333 2355 -2356 0
-361 2356 0
-361 -2333 -326 0
-361 -2355 -326 0
362 2336 -2357 0
362 2227 -2357 363 0
-362 2357 0
-362 -2336 -363 0
-362 -2227 -2336 0
-363 364 365 366 368 0
363 -368 0
363 -364 0
363 -366 0
363 -365 0
-364 -2226 -2337 0
-364 2226 2337 0
364 2226 -2337 0
364 -2226 2337 0
-365 2225 2337 0
-365 2225 2226 0
-365 -2225 -2226 -2337 0
365 -2225 2226 0
365 2225 -2226 -2337 0
365 -2225 2337 0
-366 2224 367 0
-366 2224 2337 0
-366 -2224 -2337 -367 0
366 -2224 2337 0
366 2224 -2337 -367 0
366 -2224 367 0
367 -2225 -2226 0
-367 2225 0
-367 2226 0
-368 369 371 373 376 0
368 -376 0
368 -369 0
368 -373 0
368 -371 0
-369 2223 370 0
-369 2223 2337 0
-369 -2223 -2337 -370 0
369 -2223 2337 0
369 2223 -2337 -370 0
369 -2223 370 0
370 -2224 -367 0
-370 2224 0
-370 367 0
-371 2222 372 0
-371 2222 2337 0
-371 -2222 -2337 -372 0
371 -2222 2337 0
371 2222 -2337 -372 0
371 -2222 372 0
372 -2223 -370 0
-372 2223 0
-372 370 0
-373 2220 374 0
-373 2220 2337 0
-373 -2220 -2337 -374 0
373 -2220 2337 0
373 2220 -2337 -374 0
373 -2220 374 0
374 -2221 -375 0
-374 2221 0
-374 375 0
375 -2222 -372 0
-375 2222 0
-375 372 0
-376 2221 375 0
-376 2221 2337 0
-376 -2221 -2337 -375 0
376 -2221 2337 0
376 2221 -2337 -375 0
376 -2221 375 0
377 -378 -391 -405 0
377 -378 -379 -405 0
-377 405 0
-377 378 0
-377 379 391 0
378 -2334 -2335 0
-378 2334 0
-378 2335 0
-379 380 381 0
-379 -2357 -380 -381 0
-379 2357 380 0
379 -380 381 0
379 2357 -380 0
379 -2357 380 -381 0
-380 2228 -135 0
-380 2228 2337 0
-380 -2228 -2337 135 0
380 -2228 2337 0
380 2228 -2337 135 0
380 -2228 -135 0
381 -382 -383 0
-381 382 0
-381 383 0
-382 2229 -136 0
-382 2229 2337 0
-382 -2229 -2337 136 0
382 -2229 2337 0
382 2229 -2337 136 0
382 -2229 -136 0
383 -384 -385 0
-383 384 0
-383 385 0
-384 2230 -137 0
-384 2230 2337 0
-384 -2230 -2337 137 0
384 -2230 2337 0
384 2230 -2337 137 0
384 -2230 -137 0
385 -386 -387 0
-385 386 0
-385 387 0
-386 2231 -138 0
-386 2231 2337 0
-386 -2231 -2337 138 0
386 -2231 2337 0
386 2231 -2337 138 0
386 -2231 -138 0
387 -388 -390 0
-387 388 0
-387 390 0
-388 2232 -389 0
-388 2232 2337 0
-388 -2232 -2337 389 0
388 -2232 2337 0
388 2232 -2337 389 0
388 -2232 -389 0
-389 2233 2234 0
389 -2233 0
389 -2234 0
390 2233 2234 -2235 -2337 0
390 -2233 -2234 -2235 2337 0
-390 2234 2337 0
-390 2233 -2234 0
-390 2235 0
-390 -2233 -2337 0
-391 392 393 0
391 -392 0
391 -393 0
-392 382 383 0
-392 -2357 -382 -383 0
-392 2357 382 0
392 -382 383 0
392 2357 -382 0
392 -2357 382 -383 0
-393 394 395 0
393 -394 0
393 -395 0
-394 384 385 0
-394 -2357 -384 -385 0
-394 2357 384 0
394 -384 385 0
394 2357 -384 0
394 -2357 384 -385 0
-395 396 397 0
395 -396 0
395 -397 0
-396 386 387 0
-396 -2357 -386 -387 0
-396 2357 386 0
396 -386 387 0
396 2357 -386 0
396 -2357 386 -387 0
-397 398 399 0
397 -398 0
397 -399 0
-398 388 390 0
-398 -2357 -388 -390 0
-398 2357 388 0
398 -388 390 0
398 2357 -388 0
398 -2357 388 -390 0
-399 400 404 0
399 -400 0
399 -404 0
-400 401 402 0
-400 -2357 -401 -402 0
-400 2357 401 0
400 -401 402 0
400 2357 -401 0
400 -2357 401 -402 0
-401 2233 -2234 0
-401 2233 2337 0
-401 -2233 2234 -2337 0
401 -2233 -2234 0
401 -2233 2337 0
401 2233 2234 -2337 0
402 -2235 -403 0
-402 2235 0
-402 403 0
-403 -2234 -2337 0
-403 2234 2337 0
403 2234 -2337 0
403 -2234 2337 0
-404 2235 403 0
-404 -2235 -2357 -403 0
-404 2357 403 0
404 2235 -403 0
404 2357 -403 0
404 -2235 -2357 403 0
405 -406 -610 0
405 -406 -563 0
-405 406 0
-405 563 610 0
406 -417 -561 0
406 -2275 -407 0
406 -407 -561 0
406 -2275 -417 0
-406 407 417 0
-406 2275 561 0
-407 2356 408 0
-407 -2356 -408 0
407 -2356 408 0
407 2356 -408 0
-408 2354 409 0
-408 -2354 -409 0
408 -2354 409 0
408 2354 -409 0
-409 2353 410 0
-409 -2353 -410 0
409 -2353 410 0
409 2353 -410 0
-410 2350 411 0
-410 -2350 -411 0
410 -2350 411 0
410 2350 -411 0
-411 2348 412 0
-411 -2348 -412 0
411 -2348 412 0
411 2348 -412 0
-412 2347 413 0
-412 -2347 -413 0
412 -2347 413 0
412 2347 -413 0
-413 2344 414 0
-413 -2344 -414 0
413 -2344 414 0
413 2344 -414 0
-414 2342 415 0
-414 -2342 -415 0
414 -2342 415 0
414 2342 -415 0
-415 2341 416 0
-415 -2341 -416 0
415 -2341 416 0
415 2341 -416 0
-416 -2251 -2338 0
-416 2251 2338 0
416 2251 -2338 0
416 -2251 2338 0
-417 418 429 450 472 0
417 -472 0
417 -418 0
417 -450 0
417 -429 0
-418 2356 419 0
-418 -2356 -408 -419 0
-418 408 419 0
418 408 -419 0
418 2356 -419 0
418 -2356 -408 419 0
-419 2354 420 0
-419 -2354 -409 -420 0
-419 409 420 0
419 409 -420 0
419 2354 -420 0
419 -2354 -409 420 0
-420 2353 421 0
-420 -2353 -410 -421 0
-420 410 421 0
420 410 -421 0
420 2353 -421 0
420 -2353 -410 421 0
-421 2350 422 0
-421 -2350 -411 -422 0
-421 411 422 0
421 411 -422 0
421 2350 -422 0
421 -2350 -411 422 0
-422 2348 423 0
-422 -2348 -412 -423 0
-422 412 423 0
422 412 -423 0
422 2348 -423 0
422 -2348 -412 423 0
-423 2347 424 0
-423 -2347 -413 -424 0
-423 413 424 0
423 413 -424 0
423 2347 -424 0
423 -2347 -413 424 0
-424 2344 425 0
-424 -2344 -414 -425 0
-424 414 425 0
424 414 -425 0
424 2344 -425 0
424 -2344 -414 425 0
-425 2342 426 0
-425 -2342 -415 -426 0
-425 415 426 0
425 415 -426 0
425 2342 -426 0
425 -2342 -415 426 0
-426 2341 427 0
-426 -2341 -416 -427 0
-426 416 427 0
426 416 -427 0
426 2341 -427 0
426 -2341 -416 427 0
-427 2251 428 0
-427 -2251 -2338 -428 0
-427 2338 428 0
427 2251 -428 0
427 2338 -428 0
427 -2251 -2338 428 0
-428 -2250 -2337 0
-428 2250 2337 0
428 2250 -2337 0
428 -2250 2337 0
-429 2356 431 0
-429 -2356 -430 -431 0
-429 430 431 0
429 2356 -431 0
429 430 -431 0
429 -2356 -430 431 0
430 -408 -419 0
-430 408 0
-430 419 0
-431 2354 433 0
-431 -2354 -432 -433 0
-431 432 433 0
431 2354 -433 0
431 432 -433 0
431 -2354 -432 433 0
432 -409 -420 0
-432 409 0
-432 420 0
-433 2353 435 0
-433 -2353 -434 -435 0
-433 434 435 0
433 2353 -435 0
433 434 -435 0
433 -2353 -434 435 0
434 -410 -421 0
-434 410 0
-434 421 0
-435 2350 437 0
-435 -2350 -436 -437 0
-435 436 437 0
435 2350 -437 0
435 436 -437 0
435 -2350 -436 437 0
436 -411 -422 0
-436 411 0
-436 422 0
-437 2348 439 0
-437 -2348 -438 -439 0
-437 438 439 0
437 2348 -439 0
437 438 -439 0
437 -2348 -438 439 0
438 -412 -423 0
-438 412 0
-438 423 0
-439 2347 441 0
-439 -2347 -440 -441 0
-439 440 441 0
439 2347 -441 0
439 440 -441 0
439 -2347 -440 441 0
440 -413 -424 0
-440 413 0
-440 424 0
-441 2344 443 0
-441 -2344 -442 -443 0
-441 442 443 0
441 2344 -443 0
441 442 -443 0
441 -2344 -442 443 0
442 -414 -425 0
-442 414 0
-442 425 0
-443 2342 445 0
-443 -2342 -444 -445 0
-443 444 445 0
443 2342 -445 0
443 444 -445 0
443 -2342 -444 445 0
444 -415 -426 0
-444 415 0
-444 426 0
-445 2341 447 0
-445 -2341 -446 -447 0
-445 446 447 0
445 2341 -447 0
445 446 -447 0
445 -2341 -446 447 0
446 2251 -2338 -428 0
446 -2251 2338 -428 0
-446 428 0
-446 2251 2338 0
-446 -2251 -2338 0
-447 2338 449 0
-447 -2338 -448 -449 0
-447 448 449 0
447 2338 -449 0
447 448 -449 0
447 -2338 -448 449 0
448 -2251 -428 0
-448 2251 0
-448 428 0
-449 2249 2337 0
-449 2249 2250 0
-449 -2249 -2250 -2337 0
449 -2249 2250 0
449 2249 -2250 -2337 0
449 -2249 2337 0
-450 2356 452 0
-450 -2356 -451 -452 0
-450 451 452 0
450 2356 -452 0
450 451 -452 0
450 -2356 -451 452 0
451 -430 -431 0
-451 430 0
-451 431 0
-452 2354 454 0
-452 -2354 -453 -454 0
-452 453 454 0
452 2354 -454 0
452 453 -454 0
452 -2354 -453 454 0
453 -432 -433 0
-453 432 0
-453 433 0
-454 2353 456 0
-454 -2353 -455 -456 0
-454 455 456 0
454 2353 -456 0
454 455 -456 0
454 -2353 -455 456 0
455 -434 -435 0
-455 434 0
-455 435 0
-456 2350 458 0
-456 -2350 -457 -458 0
-456 457 458 0
456 2350 -458 0
456 457 -458 0
456 -2350 -457 458 0
457 -436 -437 0
-457 436 0
-457 437 0
-458 2348 460 0
-458 -2348 -459 -460 0
-458 459 460 0
458 2348 -460 0
458 459 -460 0
458 -2348 -459 460 0
459 -438 -439 0
-459 438 0
-459 439 0
-460 2347 462 0
-460 -2347 -461 -462 0
-460 461 462 0
460 2347 -462 0
460 461 -462 0
460 -2347 -461 462 0
461 -440 -441 0
-461 440 0
-461 441 0
-462 2344 464 0
-462 -2344 -463 -464 0
-462 463 464 0
462 2344 -464 0
462 463 -464 0
462 -2344 -463 464 0
463 -442 -443 0
-463 442 0
-463 443 0
-464 2342 466 0
-464 -2342 -465 -466 0
-464 465 466 0
464 2342 -466 0
464 465 -466 0
464 -2342 -465 466 0
465 -444 -445 0
-465 444 0
-465 445 0
-466 2341 468 0
-466 -2341 -467 -468 0
-466 467 468 0
466 2341 -468 0
466 467 -468 0
466 -2341 -467 468 0
467 -446 -447 0
-467 446 0
-467 447 0
-468 2338 470 0
-468 -2338 -469 -470 0
-468 469 470 0
468 2338 -470 0
468 469 -470 0
468 -2338 -469 470 0
469 -2249 2250 -2251 -2337 0
469 -2249 -2250 -2251 2337 0
-469 2251 0
-469 -2250 -2337 0
-469 2249 0
-469 2250 2337 0
-470 2248 471 0
-470 2248 2337 0
-470 -2248 -2337 -471 0
470 -2248 2337 0
470 2248 -2337 -471 0
470 -2248 471 0
471 -2249 -2250 0
-471 2249 0
-471 2250 0
-472 473 495 517 560 0
472 -560 0
472 -473 0
472 -517 0
472 -495 0
-473 2356 475 0
-473 -2356 -474 -475 0
-473 474 475 0
473 2356 -475 0
473 474 -475 0
473 -2356 -474 475 0
474 -451 -452 0
-474 451 0
-474 452 0
-475 2354 477 0
-475 -2354 -476 -477 0
-475 476 477 0
475 2354 -477 0
475 476 -477 0
475 -2354 -476 477 0
476 -453 -454 0
-476 453 0
-476 454 0
-477 2353 479 0
-477 -2353 -478 -479 0
-477 478 479 0
477 2353 -479 0
477 478 -479 0
477 -2353 -478 479 0
478 -455 -456 0
-478 455 0
-478 456 0
-479 2350 481 0
-479 -2350 -480 -481 0
-479 480 481 0
479 2350 -481 0
479 480 -481 0
479 -2350 -480 481 0
480 -457 -458 0
-480 457 0
-480 458 0
-481 2348 483 0
-481 -2348 -482 -483 0
-481 482 483 0
481 2348 -483 0
481 482 -483 0
481 -2348 -482 483 0
482 -459 -460 0
-482 459 0
-482 460 0
-483 2347 485 0
-483 -2347 -484 -485 0
-483 484 485 0
483 2347 -485 0
483 484 -485 0
483 -2347 -484 485 0
484 -461 -462 0
-484 461 0
-484 462 0
-485 2344 487 0
-485 -2344 -486 -487 0
-485 486 487 0
485 2344 -487 0
485 486 -487 0
485 -2344 -486 487 0
486 -463 -464 0
-486 463 0
-486 464 0
-487 2342 489 0
-487 -2342 -488 -489 0
-487 488 489 0
487 2342 -489 0
487 488 -489 0
487 -2342 -488 489 0
488 -465 -466 0
-488 465 0
-488 466 0
-489 2341 491 0
-489 -2341 -490 -491 0
-489 490 491 0
489 2341 -491 0
489 490 -491 0
489 -2341 -490 491 0
490 -467 -468 0
-490 467 0
-490 468 0
-491 2338 493 0
-491 -2338 -492 -493 0
-491 492 493 0
491 2338 -493 0
491 492 -493 0
491 -2338 -492 493 0
492 -469 -470 0
-492 469 0
-492 470 0
-493 2247 494 0
-493 2247 2337 0
-493 -2247 -2337 -494 0
493 -2247 2337 0
493 2247 -2337 -494 0
493 -2247 494 0
494 -2248 -2249 -2250 0
-494 2248 0
-494 2249 0
-494 2250 0
-495 2356 497 0
-495 -2356 -496 -497 0
-495 496 497 0
495 2356 -497 0
495 496 -497 0
495 -2356 -496 497 0
496 -474 -475 0
-496 474 0
-496 475 0
-497 2354 499 0
-497 -2354 -498 -499 0
-497 498 499 0
497 2354 -499 0
497 498 -499 0
497 -2354 -498 499 0
498 -476 -477 0
-498 476 0
-498 477 0
-499 2353 501 0
-499 -2353 -500 -501 0
-499 500 501 0
499 2353 -501 0
499 500 -501 0
499 -2353 -500 501 0
500 -478 -479 0
-500 478 0
-500 479 0
-501 2350 503 0
-501 -2350 -502 -503 0
-501 502 503 0
501 2350 -503 0
501 502 -503 0
501 -2350 -502 503 0
502 -480 -481 0
-502 480 0
-502 481 0
-503 2348 505 0
-503 -2348 -504 -505 0
-503 504 505 0
503 2348 -505 0
503 504 -505 0
503 -2348 -504 505 0
504 -482 -483 0
-504 482 0
-504 483 0
-505 2347 507 0
-505 -2347 -506 -507 0
-505 506 507 0
505 2347 -507 0
505 506 -507 0
505 -2347 -506 507 0
506 -484 -485 0
-506 484 0
-506 485 0
-507 2344 509 0
-507 -2344 -508 -509 0
-507 508 509 0
507 2344 -509 0
507 508 -509 0
507 -2344 -508 509 0
508 -486 -487 0
-508 486 0
-508 487 0
-509 2342 511 0
-509 -2342 -510 -511 0
-509 510 511 0
509 2342 -511 0
509 510 -511 0
509 -2342 -510 511 0
510 -488 -489 0
-510 488 0
-510 489 0
-511 2341 513 0
-511 -2341 -512 -513 0
-511 512 513 0
511 2341 -513 0
511 512 -513 0
511 -2341 -512 513 0
512 -490 -491 0
-512 490 0
-512 491 0
-513 2338 515 0
-513 -2338 -514 -515 0
-513 514 515 0
513 2338 -515 0
513 514 -515 0
513 -2338 -514 515 0
514 -492 -493 0
-514 492 0
-514 493 0
-515 2246 516 0
-515 2246 2337 0
-515 -2246 -2337 -516 0
515 -2246 2337 0
515 2246 -2337 -516 0
515 -2246 516 0
516 -2247 -494 0
-516 2247 0
-516 494 0
-517 518 557 0
-517 -2356 -518 -557 0
-517 2356 518 0
517 -518 557 0
517 2356 -518 0
517 -2356 518 -557 0
-518 519 554 0
-518 -2354 -519 -554 0
-518 2354 519 0
518 -519 554 0
518 2354 -519 0
518 -2354 519 -554 0
-519 520 551 0
-519 -2353 -520 -551 0
-519 2353 520 0
519 -520 551 0
519 2353 -520 0
519 -2353 520 -551 0
-520 521 548 0
-520 -2350 -521 -548 0
-520 2350 521 0
520 -521 548 0
520 2350 -521 0
520 -2350 521 -548 0
-521 522 545 0
-521 -2348 -522 -545 0
-521 2348 522 0
521 -522 545 0
521 2348 -522 0
521 -2348 522 -545 0
-522 523 542 0
-522 -2347 -523 -542 0
-522 2347 523 0
522 -523 542 0
522 2347 -523 0
522 -2347 523 -542 0
-523 524 539 0
-523 -2344 -524 -539 0
-523 2344 524 0
523 -524 539 0
523 2344 -524 0
523 -2344 524 -539 0
-524 525 536 0
-524 -2342 -525 -536 0
-524 2342 525 0
524 -525 536 0
524 2342 -525 0
524 -2342 525 -536 0
-525 526 533 0
-525 -2341 -526 -533 0
-525 2341 526 0
525 -526 533 0
525 2341 -526 0
525 -2341 526 -533 0
-526 527 530 0
-526 -2338 -527 -530 0
-526 2338 527 0
526 -527 530 0
526 2338 -527 0
526 -2338 527 -530 0
-527 2244 528 0
-527 2244 2337 0
-527 -2244 -2337 -528 0
527 -2244 2337 0
527 2244 -2337 -528 0
527 -2244 528 0
528 -2245 -529 0
-528 2245 0
-528 529 0
529 -2246 -516 0
-529 2246 0
-529 516 0
530 -531 -532 0
-530 531 0
-530 532 0
531 -514 -515 0
-531 514 0
-531 515 0
-532 2245 529 0
-532 2245 2337 0
-532 -2245 -2337 -529 0
532 -2245 2337 0
532 2245 -2337 -529 0
532 -2245 529 0
533 -534 -535 0
-533 534 0
-533 535 0
534 -512 -513 0
-534 512 0
-534 513 0
-535 2338 532 0
-535 -2338 -531 -532 0
-535 531 532 0
535 2338 -532 0
535 531 -532 0
535 -2338 -531 532 0
536 -537 -538 0
-536 537 0
-536 538 0
537 -510 -511 0
-537 510 0
-537 511 0
-538 2341 535 0
-538 -2341 -534 -535 0
-538 534 535 0
538 2341 -535 0
538 534 -535 0
538 -2341 -534 535 0
539 -540 -541 0
-539 540 0
-539 541 0
540 -508 -509 0
-540 508 0
-540 509 0
-541 2342 538 0
-541 -2342 -537 -538 0
-541 537 538 0
541 2342 -538 0
541 537 -538 0
541 -2342 -537 538 0
542 -543 -544 0
-542 543 0
-542 544 0
543 -506 -507 0
-543 506 0
-543 507 0
-544 2344 541 0
-544 -2344 -540 -541 0
-544 540 541 0
544 2344 -541 0
544 540 -541 0
544 -2344 -540 541 0
545 -546 -547 0
-545 546 0
-545 547 0
546 -504 -505 0
-546 504 0
-546 505 0
-547 2347 544 0
-547 -2347 -543 -544 0
-547 543 544 0
547 2347 -544 0
547 543 -544 0
547 -2347 -543 544 0
548 -549 -550 0
-548 549 0
-548 550 0
549 -502 -503 0
-549 502 0
-549 503 0
-550 2348 547 0
-550 -2348 -546 -547 0
-550 546 547 0
550 2348 -547 0
550 546 -547 0
550 -2348 -546 547 0
551 -552 -553 0
-551 552 0
-551 553 0
552 -500 -501 0
-552 500 0
-552 501 0
-553 2350 550 0
-553 -2350 -549 -550 0
-553 549 550 0
553 2350 -550 0
553 549 -550 0
553 -2350 -549 550 0
554 -555 -556 0
-554 555 0
-554 556 0
555 -498 -499 0
-555 498 0
-555 499 0
-556 2353 553 0
-556 -2353 -552 -553 0
-556 552 553 0
556 2353 -553 0
556 552 -553 0
556 -2353 -552 553 0
557 -558 -559 0
-557 558 0
-557 559 0
558 -496 -497 0
-558 496 0
-558 497 0
-559 2354 556 0
-559 -2354 -555 -556 0
-559 555 556 0
559 2354 -556 0
559 555 -556 0
559 -2354 -555 556 0
-560 2356 559 0
-560 -2356 -558 -559 0
-560 558 559 0
560 2356 -559 0
560 558 -559 0
560 -2356 -558 559 0
-561 2272 2273 2274 562 0
561 -562 0
561 -2274 0
561 -2272 0
561 -2273 0
-562 2268 2269 2270 2271 0
562 -2271 0
562 -2270 0
562 -2268 0
562 -2269 0
-563 564 595 0
-563 -2353 -564 -595 0
-563 2353 564 0
563 -564 595 0
563 2353 -564 0
563 -2353 564 -595 0
-564 565 581 0
-564 -2347 -565 -581 0
-564 2347 565 0
564 -565 581 0
564 2347 -565 0
564 -2347 565 -581 0
-565 566 571 0
-565 -2341 -566 -571 0
-565 2341 566 0
565 -566 571 0
565 2341 -566 0
565 -2341 566 -571 0
-566 2284 567 0
-566 2284 2337 0
-566 -2284 -2337 -567 0
566 -2284 2337 0
566 2284 -2337 -567 0
566 -2284 567 0
567 -2285 -568 0
-567 2285 0
-567 568 0
568 -2286 -569 0
-568 2286 0
-568 569 0
569 -2287 -570 0
-569 2287 0
-569 570 0
570 -2288 -2289 -2290 0
-570 2288 0
-570 2289 0
-570 2290 0
571 -572 -573 0
-571 572 0
-571 573 0
-572 2285 568 0
-572 2285 2337 0
-572 -2285 -2337 -568 0
572 -2285 2337 0
572 2285 -2337 -568 0
572 -2285 568 0
573 -574 -575 0
-573 574 0
-573 575 0
-574 2286 569 0
-574 2286 2337 0
-574 -2286 -2337 -569 0
574 -2286 2337 0
574 2286 -2337 -569 0
574 -2286 569 0
575 -576 -577 0
-575 576 0
-575 577 0
-576 2287 570 0
-576 2287 2337 0
-576 -2287 -2337 -570 0
576 -2287 2337 0
576 2287 -2337 -570 0
576 -2287 570 0
577 -578 -580 0
-577 578 0
-577 580 0
-578 2288 579 0
-578 2288 2337 0
-578 -2288 -2337 -579 0
578 -2288 2337 0
578 2288 -2337 -579 0
578 -2288 579 0
579 -2289 -2290 0
-579 2289 0
-579 2290 0
580 -2289 2290 -2291 -2337 0
580 -2289 -2290 -2291 2337 0
-580 2291 0
-580 -2290 -2337 0
-580 2289 0
-580 2290 2337 0
581 -582 -583 0
-581 582 0
-581 583 0
-582 572 573 0
-582 -2341 -572 -573 0
-582 2341 572 0
582 -572 573 0
582 2341 -572 0
582 -2341 572 -573 0
583 -584 -585 0
-583 584 0
-583 585 0
-584 574 575 0
-584 -2341 -574 -575 0
-584 2341 574 0
584 -574 575 0
584 2341 -574 0
584 -2341 574 -575 0
585 -586 -587 0
-585 586 0
-585 587 0
-586 576 577 0
-586 -2341 -576 -577 0
-586 2341 576 0
586 -576 577 0
586 2341 -576 0
586 -2341 576 -577 0
587 -588 -589 0
-587 588 0
-587 589 0
-588 578 580 0
-588 -2341 -578 -580 0
-588 2341 578 0
588 -578 580 0
588 2341 -578 0
588 -2341 578 -580 0
589 -590 -594 0
-589 590 0
-589 594 0
-590 591 592 0
-590 -2341 -591 -592 0
-590 2341 591 0
590 -591 592 0
590 2341 -591 0
590 -2341 591 -592 0
-591 2289 2337 0
-591 2289 2290 0
-591 -2289 -2290 -2337 0
591 -2289 2290 0
591 2289 -2290 -2337 0
591 -2289 2337 0
592 -2291 -593 0
-592 2291 0
-592 593 0
-593 -2290 -2337 0
-593 2290 2337 0
593 2290 -2337 0
593 -2290 2337 0
594 2291 -2341 -593 0
594 -2291 2341 -593 0
-594 593 0
-594 2291 2341 0
-594 -2291 -2341 0
595 -596 -597 0
-595 596 0
-595 597 0
-596 582 583 0
-596 -2347 -582 -583 0
-596 2347 582 0
596 -582 583 0
596 2347 -582 0
596 -2347 582 -583 0
597 -598 -599 0
-597 598 0
-597 599 0
-598 584 585 0
-598 -2347 -584 -585 0
-598 2347 584 0
598 -584 585 0
598 2347 -584 0
598 -2347 584 -585 0
599 -600 -601 0
-599 600 0
-599 601 0
-600 586 587 0
-600 -2347 -586 -587 0
-600 2347 586 0
600 -586 587 0
600 2347 -586 0
600 -2347 586 -587 0
601 -602 -603 0
-601 602 0
-601 603 0
-602 588 589 0
-602 -2347 -588 -589 0
-602 2347 588 0
602 -588 589 0
602 2347 -588 0
602 -2347 588 -589 0
603 -604 -605 0
-603 604 0
-603 605 0
-604 590 594 0
-604 -2347 -590 -594 0
-604 2347 590 0
604 -590 594 0
604 2347 -590 0
604 -2347 590 -594 0
605 -606 -609 0
-605 606 0
-605 609 0
-606 2347 607 0
-606 607 608 0
-606 -2347 -607 -608 0
606 -607 608 0
606 2347 -607 0
606 -2347 607 -608 0
-607 2291 593 0
-607 -2291 -2341 -593 0
-607 2341 593 0
607 2291 -593 0
607 2341 -593 0
607 -2291 -2341 593 0
-608 -2291 -2341 0
-608 2291 2341 0
608 2291 -2341 0
608 -2291 2341 0
-609 2347 608 0
-609 -2347 -608 0
609 -2347 608 0
609 2347 -608 0
-610 611 612 0
610 -611 0
610 -612 0
-611 596 597 0
-611 -2353 -596 -597 0
-611 2353 596 0
611 -596 597 0
611 2353 -596 0
611 -2353 596 -597 0
-612 613 614 0
612 -613 0
612 -614 0
-613 598 599 0
-613 -2353 -598 -599 0
-613 2353 598 0
613 -598 599 0
613 2353 -598 0
613 -2353 598 -599 0
-614 615 616 0
614 -615 0
614 -616 0
-615 600 601 0
-615 -2353 -600 -601 0
-615 2353 600 0
615 -600 601 0
615 2353 -600 0
615 -2353 600 -601 0
-616 617 618 0
616 -617 0
616 -618 0
-617 602 603 0
-617 -2353 -602 -603 0
-617 2353 602 0
617 -602 603 0
617 2353 -602 0
617 -2353 602 -603 0
-618 619 620 0
618 -619 0
618 -620 0
-619 604 605 0
-619 -2353 -604 -605 0
-619 2353 604 0
619 -604 605 0
619 2353 -604 0
619 -2353 604 -605 0
-620 2353 606 0
-620 606 609 0
-620 -2353 -606 -609 0
620 -606 609 0
620 2353 -606 0
620 -2353 606 -609 0
-621 2355 2356 2357 622 0
621 -622 0
621 -2357 0
621 -2355 0
621 -2356 0
-622 2352 2353 2354 623 0
622 -623 0
622 -2354 0
622 -2352 0
622 -2353 0
-623 2349 2350 2351 624 0
623 -624 0
623 -2351 0
623 -2349 0
623 -2350 0
-624 2346 2347 2348 625 0
624 -625 0
624 -2348 0
624 -2346 0
624 -2347 0
-625 2343 2344 2345 626 0
625 -626 0
625 -2345 0
625 -2343 0
625 -2344 0
-626 2340 2341 2342 627 0
626 -627 0
626 -2342 0
626 -2340 0
626 -2341 0
-627 2337 2338 2339 0
627 -2337 0
627 -2339 0
627 -2338 0
628 -2333 -629 652 661 0
628 2333 -629 652 -661 0
-628 629 0
-628 2333 661 0
-628 -652 0
-628 -2333 -661 0
629 -2325 -630 643 651 0
629 2325 -630 643 -651 0
-629 630 0
-629 2325 651 0
-629 -643 0
-629 -2325 -651 0
630 -2317 -631 633 642 0
630 2317 -631 633 -642 0
-630 631 0
-630 2317 642 0
-630 -633 0
-630 -2317 -642 0
631 -2334 -2335 -2336 -632 0
-631 632 0
-631 2334 0
-631 2336 0
-631 2335 0
632 -2308 -2309 0
-632 2308 0
-632 2309 0
-633 634 636 638 640 0
633 -640 0
633 -638 0
633 -634 0
633 -636 0
-634 2310 2311 635 0
-634 2310 2312 635 0
-634 2311 2312 635 0
634 -2310 -2311 0
634 -2311 -2312 0
634 -635 0
634 -2310 -2312 0
635 -2310 -2313 0
635 -2311 -2313 0
635 -2312 -2313 0
-635 2313 0
-635 2310 2311 2312 0
636 -2314 -637 0
-636 2314 0
-636 637 0
-637 2310 2311 2312 2313 0
637 -2313 0
637 -2312 0
637 -2310 0
637 -2311 0
638 -2315 -639 0
-638 2315 0
-638 639 0
-639 2314 637 0
639 -2314 0
639 -637 0
640 -2316 -641 0
-640 2316 0
-640 641 0
-641 2315 639 0
641 -2315 0
641 -639 0
-642 2316 641 0
642 -2316 0
642 -641 0
-643 644 648 0
643 -644 0
643 -648 0
-644 2322 645 647 0
-644 2323 645 647 0
-644 2322 2323 645 0
644 -2322 -2323 0
644 -2322 -647 0
644 -645 0
644 -2323 -647 0
-645 2318 2319 646 0
-645 2318 2320 646 0
-645 2319 2320 646 0
645 -2318 -2319 0
645 -2319 -2320 0
645 -646 0
645 -2318 -2320 0
646 -2318 -2321 0
646 -2319 -2321 0
646 -2320 -2321 0
-646 2321 0
-646 2318 2319 2320 0
-647 2318 2319 2320 2321 0
647 -2321 0
647 -2320 0
647 -2318 0
647 -2319 0
648 -2324 -649 0
-648 2324 0
-648 649 0
-649 2323 650 0
649 -2323 0
649 -650 0
-650 2322 647 0
650 -2322 0
650 -647 0
-651 2324 649 0
651 -2324 0
651 -649 0
-652 653 655 657 659 0
652 -659 0
652 -657 0
652 -653 0
652 -655 0
-653 2326 2327 654 0
-653 2326 2328 654 0
-653 2327 2328 654 0
653 -2326 -2327 0
653 -2327 -2328 0
653 -654 0
653 -2326 -2328 0
654 -2326 -2329 0
654 -2327 -2329 0
654 -2328 -2329 0
-654 2329 0
-654 2326 2327 2328 0
655 -2330 -656 0
-655 2330 0
-655 656 0
-656 2326 2327 2328 2329 0
656 -2329 0
656 -2328 0
656 -2326 0
656 -2327 0
657 -2331 -658 0
-657 2331 0
-657 658 0
-658 2330 656 0
658 -2330 0
658 -656 0
659 -2332 -660 0
-659 2332 0
-659 660 0
-660 2331 658 0
660 -2331 0
660 -658 0
-661 2332 660 0
661 -2332 0
661 -660 0
662 -663 699 710 713 0
-662 -699 0
-662 -713 0
-662 663 0
-662 -710 0
663 -664 682 -14 698 0
663 -664 682 14 -698 0
-663 -682 0
-663 14 698 0
-663 664 0
-663 -14 -698 0
664 -631 665 -21 681 0
664 -631 665 21 -681 0
-664 -665 0
-664 21 681 0
-664 631 0
-664 -21 -681 0
-665 666 674 676 678 0
665 -678 0
665 -676 0
665 -666 0
665 -674 0
-666 667 669 672 0
666 -667 0
666 -672 0
666 -669 0
667 -668 -26 0
-667 668 0
-667 26 0
668 -2311 2340 0
668 -2339 2340 0
-668 -2340 0
-668 2311 2339 0
669 -670 -671 0
-669 670 0
-669 671 0
670 -2312 2341 0
670 -2340 2341 0
-670 -2341 0
-670 2312 2340 0
-671 668 26 0
671 -668 0
671 -26 0
672 -24 -673 0
-672 24 0
-672 673 0
-673 670 671 0
673 -670 0
673 -671 0
674 -2314 -675 0
-674 2314 0
-674 675 0
-675 24 673 0
675 -24 0
675 -673 0
676 -2315 -677 0
-676 2315 0
-676 677 0
-677 2314 675 0
677 -2314 0
677 -675 0
678 -679 -680 0
-678 679 0
-678 680 0
679 -2316 2343 0
679 -2342 2343 0
-679 -2343 0
-679 2316 2342 0
-680 2315 677 0
680 -2315 0
680 -677 0
-681 679 680 0
681 -679 0
681 -680 0
-682 683 691 693 695 0
682 -695 0
682 -693 0
682 -683 0
682 -691 0
-683 684 686 689 0
683 -684 0
683 -689 0
683 -686 0
684 -19 -685 0
-684 19 0
-684 685 0
-685 -2345 2350 0
-685 2318 2350 0
685 -2350 0
685 -2318 2345 0
686 -687 -688 0
-686 687 0
-686 688 0
687 -2320 2347 0
687 -2346 2347 0
-687 -2347 0
-687 2320 2346 0
-688 19 685 0
688 -19 0
688 -685 0
689 -17 -690 0
-689 17 0
-689 690 0
-690 687 688 0
690 -687 0
690 -688 0
691 -2322 -692 0
-691 2322 0
-691 692 0
-692 17 690 0
692 -17 0
692 -690 0
693 -2323 -694 0
-693 2323 0
-693 694 0
-694 2322 692 0
694 -2322 0
694 -692 0
695 -696 -697 0
-695 696 0
-695 697 0
696 -2324 2349 0
696 -2348 2349 0
-696 -2349 0
-696 2324 2348 0
-697 2323 694 0
697 -2323 0
697 -694 0
-698 696 697 0
698 -696 0
698 -697 0
-699 700 702 706 708 0
699 -708 0
699 -706 0
699 -700 0
699 -702 0
-700 701 10 0
-700 12 10 0
-700 12 701 0
700 -12 -10 0
700 -12 -701 0
700 -701 -10 0
-701 -2351 2356 0
-701 2326 2356 0
701 -2356 0
701 -2326 2351 0
702 -703 -704 0
-702 703 0
-702 704 0
703 -2329 2354 0
703 -2353 2354 0
-703 -2354 0
-703 2329 2353 0
-704 10 705 0
704 -10 0
704 -705 0
-705 12 701 0
705 -12 0
705 -701 0
706 -2330 -707 0
-706 2330 0
-706 707 0
-707 703 704 0
707 -703 0
707 -704 0
708 -2331 -709 0
-708 2331 0
-708 709 0
-709 2330 707 0
709 -2330 0
709 -707 0
710 -711 -712 0
-710 711 0
-710 712 0
711 -2332 2355 0
711 -2354 2355 0
-711 -2355 0
-711 2332 2354 0
-712 2331 709 0
712 -2331 0
712 -709 0
713 -7 -714 0
-713 7 0
-713 714 0
-714 711 712 0
714 -711 0
714 -712 0
-715 7 714 0
715 -7 0
715 -714 0
-716 2365 717 731 734 0
-716 -2365 717 731 -734 0
716 -717 0
716 -2365 734 0
716 -731 0
716 2365 -734 0
-717 2363 718 728 730 0
-717 -2363 718 728 -730 0
717 -718 0
717 -2363 730 0
717 -728 0
717 2363 -730 0
-718 2361 719 727 0
-718 -2361 719 -727 0
718 -719 0
718 -2361 727 0
718 2361 -727 0
-719 -2359 2360 -720 726 0
-719 2359 2360 720 726 0
-719 2359 -2360 720 -726 0
-719 -2359 -2360 -720 -726 0
719 -2359 720 0
719 2359 -720 0
719 2360 -726 0
719 -2360 726 0
-720 2212 -721 0
-720 2212 2337 0
-720 -2212 -2337 721 0
720 -2212 2337 0
720 2212 -2337 721 0
720 -2212 -721 0
-721 2213 722 0
721 -2213 0
721 -722 0
-722 2214 723 0
722 -2214 0
722 -723 0
-723 2215 724 0
723 -2215 0
723 -724 0
-724 2216 725 0
724 -2216 0
724 -725 0
-725 2217 2218 2219 0
725 -2217 0
725 -2219 0
725 -2218 0
-726 2213 -722 0
-726 2213 2337 0
-726 -2213 -2337 722 0
726 -2213 2337 0
726 2213 -2337 722 0
726 -2213 -722 0
-727 2214 -723 0
-727 2214 2337 0
-727 -2214 -2337 723 0
727 -2214 2337 0
727 2214 -2337 723 0
727 -2214 -723 0
-728 2362 729 0
-728 -2362 -729 0
728 -2362 729 0
728 2362 -729 0
-729 2215 -724 0
-729 2215 2337 0
-729 -2215 -2337 724 0
729 -2215 2337 0
729 2215 -2337 724 0
729 -2215 -724 0
-730 2216 -725 0
-730 2216 2337 0
-730 -2216 -2337 725 0
730 -2216 2337 0
730 2216 -2337 725 0
730 -2216 -725 0
-731 2364 732 0
-731 -2364 -732 0
731 -2364 732 0
731 2364 -732 0
-732 2217 -733 0
-732 2217 2337 0
-732 -2217 -2337 733 0
732 -2217 2337 0
732 2217 -2337 733 0
732 -2217 -733 0
-733 2218 2219 0
733 -2218 0
733 -2219 0
-734 2218 -2219 0
-734 2218 2337 0
-734 -2218 2219 -2337 0
734 -2218 -2219 0
734 -2218 2337 0
734 2218 2219 -2337 0
-735 -2219 -2337 0
-735 2219 2337 0
735 2219 -2337 0
735 -2219 2337 0
-736 2372 737 764 765 0
-736 -2372 737 -764 765 0
736 -765 0
736 -2372 764 0
736 -737 0
736 2372 -764 0
-737 2371 738 761 763 0
-737 -2371 738 761 -763 0
737 -738 0
737 -2371 763 0
737 -761 0
737 2371 -763 0
-738 2369 739 760 0
-738 -2369 739 -760 0
738 -739 0
738 -2369 760 0
738 2369 -760 0
-739 -2367 2368 -740 759 0
-739 2367 2368 740 759 0
-739 2367 -2368 740 -759 0
-739 -2367 -2368 -740 -759 0
739 -2367 740 0
739 2367 -740 0
739 2368 -759 0
739 -2368 759 0
-740 741 748 0
-740 -2358 -741 -748 0
-740 2358 741 0
740 -741 748 0
740 2358 -741 0
740 -2358 741 -748 0
-741 373 -742 0
-741 -2357 -373 742 0
-741 2357 373 0
741 -373 -742 0
741 2357 -373 0
741 -2357 373 742 0
-742 376 743 0
742 -376 0
742 -743 0
-743 371 744 0
743 -371 0
743 -744 0
-744 369 745 0
744 -369 0
744 -745 0
-745 366 746 0
745 -366 0
745 -746 0
-746 365 747 0
746 -365 0
746 -747 0
-747 2227 364 0
747 -2227 0
747 -364 0
748 -749 -750 0
-748 749 0
-748 750 0
-749 376 -743 0
-749 -2357 -376 743 0
-749 2357 376 0
749 -376 -743 0
749 2357 -376 0
749 -2357 376 743 0
750 -751 -752 0
-750 751 0
-750 752 0
-751 371 -744 0
-751 -2357 -371 744 0
-751 2357 371 0
751 -371 -744 0
751 2357 -371 0
751 -2357 371 744 0
752 -753 -754 0
-752 753 0
-752 754 0
-753 369 -745 0
-753 -2357 -369 745 0
-753 2357 369 0
753 -369 -745 0
753 2357 -369 0
753 -2357 369 745 0
754 -755 -756 0
-754 755 0
-754 756 0
-755 366 -746 0
-755 -2357 -366 746 0
-755 2357 366 0
755 -366 -746 0
755 2357 -366 0
755 -2357 366 746 0
756 -757 -758 0
-756 757 0
-756 758 0
-757 365 -747 0
-757 -2357 -365 747 0
-757 2357 365 0
757 -365 -747 0
757 2357 -365 0
757 -2357 365 747 0
-758 -2227 364 0
-758 2357 364 0
-758 2227 -2357 -364 0
758 2357 -364 0
758 2227 -2357 364 0
758 -2227 -364 0
-759 749 750 0
-759 -2358 -749 -750 0
-759 2358 749 0
759 -749 750 0
759 2358 -749 0
759 -2358 749 -750 0
-760 751 752 0
-760 -2358 -751 -752 0
-760 2358 751 0
760 -751 752 0
760 2358 -751 0
760 -2358 751 -752 0
-761 2370 762 0
-761 -2370 -762 0
761 -2370 762 0
761 2370 -762 0
-762 753 754 0
-762 -2358 -753 -754 0
-762 2358 753 0
762 -753 754 0
762 2358 -753 0
762 -2358 753 -754 0
-763 755 756 0
-763 -2358 -755 -756 0
-763 2358 755 0
763 -755 756 0
763 2358 -755 0
763 -2358 755 -756 0
-764 2358 757 0
-764 757 758 0
-764 -2358 -757 -758 0
764 -757 758 0
764 2358 -757 0
764 -2358 757 -758 0
-765 2373 766 0
-765 -2373 -766 0
765 -2373 766 0
765 2373 -766 0
-766 2358 758 0
-766 -2358 -758 0
766 -2358 758 0
766 2358 -758 0
-767 -2227 -2357 0
-767 2227 2357 0
767 2227 -2357 0
767 -2227 2357 0
-768 2380 769 778 779 0
-768 -2380 769 -778 779 0
768 -779 0
768 -2380 778 0
768 -769 0
768 2380 -778 0
-769 2379 770 775 777 0
-769 -2379 770 775 -777 0
769 -770 0
769 -2379 777 0
769 -775 0
769 2379 -777 0
-770 2377 771 774 0
-770 -2377 771 -774 0
770 -771 0
770 -2377 774 0
770 2377 -774 0
-771 -2375 2376 -772 773 0
-771 2375 2376 772 773 0
-771 2375 -2376 772 -773 0
-771 -2375 -2376 -772 -773 0
771 -2375 772 0
771 2375 -772 0
771 2376 -773 0
771 -2376 773 0
-772 379 -391 0
-772 -2358 -379 391 0
-772 2358 379 0
772 -379 -391 0
772 2358 -379 0
772 -2358 379 391 0
-773 392 -393 0
-773 -2358 -392 393 0
-773 2358 392 0
773 -392 -393 0
773 2358 -392 0
773 -2358 392 393 0
-774 394 -395 0
-774 -2358 -394 395 0
-774 2358 394 0
774 -394 -395 0
774 2358 -394 0
774 -2358 394 395 0
-775 2378 776 0
-775 -2378 -776 0
775 -2378 776 0
775 2378 -776 0
-776 396 -397 0
-776 -2358 -396 397 0
-776 2358 396 0
776 -396 -397 0
776 2358 -396 0
776 -2358 396 397 0
-777 398 -399 0
-777 -2358 -398 399 0
-777 2358 398 0
777 -398 -399 0
777 2358 -398 0
777 -2358 398 399 0
-778 400 -404 0
-778 -2358 -400 404 0
-778 2358 400 0
778 -400 -404 0
778 2358 -400 0
778 -2358 400 404 0
-779 2381 780 0
-779 -2381 -780 0
779 -2381 780 0
779 2381 -780 0
-780 2358 404 0
-780 -2358 -404 0
780 -2358 404 0
780 2358 -404 0
-781 -2235 -2357 0
-781 2235 2357 0
781 2235 -2357 0
781 -2235 2357 0
-782 2389 783 812 814 0
-782 -2389 783 812 -814 0
782 -783 0
782 -2389 814 0
782 -812 0
782 2389 -814 0
-783 2387 784 809 811 0
-783 -2387 784 809 -811 0
783 -784 0
783 -2387 811 0
783 -809 0
783 2387 -811 0
-784 2385 785 808 0
-784 -2385 785 -808 0
784 -785 0
784 -2385 808 0
784 2385 -808 0
-785 -2383 2384 -786 807 0
-785 2383 2384 786 807 0
-785 2383 -2384 786 -807 0
-785 -2383 -2384 -786 -807 0
785 -2383 786 0
785 2383 -786 0
785 2384 -807 0
785 -2384 807 0
-786 787 794 0
-786 -2358 -787 -794 0
-786 2358 787 0
786 -787 794 0
786 2358 -787 0
786 -2358 787 -794 0
-787 339 -788 0
-787 -2356 -339 788 0
-787 2356 339 0
787 -339 -788 0
787 2356 -339 0
787 -2356 339 788 0
-788 342 789 0
788 -342 0
788 -789 0
-789 336 790 0
789 -336 0
789 -790 0
-790 334 791 0
790 -334 0
790 -791 0
-791 332 792 0
791 -332 0
791 -792 0
-792 329 793 0
792 -329 0
792 -793 0
-793 327 328 0
793 -327 0
793 -328 0
794 -795 -796 0
-794 795 0
-794 796 0
-795 342 -789 0
-795 -2356 -342 789 0
-795 2356 342 0
795 -342 -789 0
795 2356 -342 0
795 -2356 342 789 0
796 -797 -798 0
-796 797 0
-796 798 0
-797 336 -790 0
-797 -2356 -336 790 0
-797 2356 336 0
797 -336 -790 0
797 2356 -336 0
797 -2356 336 790 0
798 -799 -800 0
-798 799 0
-798 800 0
-799 334 -791 0
-799 -2356 -334 791 0
-799 2356 334 0
799 -334 -791 0
799 2356 -334 0
799 -2356 334 791 0
800 -801 -802 0
-800 801 0
-800 802 0
-801 332 -792 0
-801 -2356 -332 792 0
-801 2356 332 0
801 -332 -792 0
801 2356 -332 0
801 -2356 332 792 0
802 -803 -804 0
-802 803 0
-802 804 0
-803 329 -793 0
-803 -2356 -329 793 0
-803 2356 329 0
803 -329 -793 0
803 2356 -329 0
803 -2356 329 793 0
804 -805 -806 0
-804 805 0
-804 806 0
-805 2356 328 0
-805 -2356 327 -328 0
-805 -327 328 0
805 2356 -328 0
805 -327 -328 0
805 -2356 327 328 0
-806 2356 327 0
-806 -2356 -327 0
806 -2356 327 0
806 2356 -327 0
-807 795 796 0
-807 -2358 -795 -796 0
-807 2358 795 0
807 -795 796 0
807 2358 -795 0
807 -2358 795 -796 0
-808 797 798 0
-808 -2358 -797 -798 0
-808 2358 797 0
808 -797 798 0
808 2358 -797 0
808 -2358 797 -798 0
-809 2386 810 0
-809 -2386 -810 0
809 -2386 810 0
809 2386 -810 0
-810 799 800 0
-810 -2358 -799 -800 0
-810 2358 799 0
810 -799 800 0
810 2358 -799 0
810 -2358 799 -800 0
-811 801 802 0
-811 -2358 -801 -802 0
-811 2358 801 0
811 -801 802 0
811 2358 -801 0
811 -2358 801 -802 0
-812 2388 813 0
-812 -2388 -813 0
812 -2388 813 0
812 2388 -813 0
-813 803 804 0
-813 -2358 -803 -804 0
-813 2358 803 0
813 -803 804 0
813 2358 -803 0
813 -2358 803 -804 0
-814 2358 805 0
-814 805 806 0
-814 -2358 -805 -806 0
814 -805 806 0
814 2358 -805 0
814 -2358 805 -806 0
-815 2358 806 0
-815 -2358 -806 0
815 -2358 806 0
815 2358 -806 0
-816 2397 817 832 834 0
-816 -2397 817 832 -834 0
816 -817 0
816 -2397 834 0
816 -832 0
816 2397 -834 0
-817 2395 818 829 831 0
-817 -2395 818 829 -831 0
817 -818 0
817 -2395 831 0
817 -829 0
817 2395 -831 0
-818 2393 819 828 0
-818 -2393 819 -828 0
818 -819 0
818 -2393 828 0
818 2393 -828 0
-819 -2391 2392 -820 827 0
-819 2391 2392 820 827 0
-819 2391 -2392 820 -827 0
-819 -2391 -2392 -820 -827 0
819 -2391 820 0
819 2391 -820 0
819 2392 -827 0
819 -2392 827 0
-820 517 -821 0
-820 -2358 -517 821 0
-820 2358 517 0
820 -517 -821 0
820 2358 -517 0
820 -2358 517 821 0
-821 560 822 0
821 -560 0
821 -822 0
-822 495 823 0
822 -495 0
822 -823 0
-823 473 824 0
823 -473 0
823 -824 0
-824 450 825 0
824 -450 0
824 -825 0
-825 429 826 0
825 -429 0
825 -826 0
-826 407 418 0
826 -407 0
826 -418 0
-827 560 -822 0
-827 -2358 -560 822 0
-827 2358 560 0
827 -560 -822 0
827 2358 -560 0
827 -2358 560 822 0
-828 495 -823 0
-828 -2358 -495 823 0
-828 2358 495 0
828 -495 -823 0
828 2358 -495 0
828 -2358 495 823 0
-829 2394 830 0
-829 -2394 -830 0
829 -2394 830 0
829 2394 -830 0
-830 473 -824 0
-830 -2358 -473 824 0
-830 2358 473 0
830 -473 -824 0
830 2358 -473 0
830 -2358 473 824 0
-831 450 -825 0
-831 -2358 -450 825 0
-831 2358 450 0
831 -450 -825 0
831 2358 -450 0
831 -2358 450 825 0
-832 2396 833 0
-832 -2396 -833 0
832 -2396 833 0
832 2396 -833 0
-833 429 -826 0
-833 -2358 -429 826 0
-833 2358 429 0
833 -429 -826 0
833 2358 -429 0
833 -2358 429 826 0
-834 2358 418 0
-834 -2358 407 -418 0
-834 -407 418 0
834 2358 -418 0
834 -407 -418 0
834 -2358 407 418 0
-835 2358 407 0
-835 -2358 -407 0
835 -2358 407 0
835 2358 -407 0
-836 2404 837 850 852 0
-836 -2404 837 850 -852 0
836 -837 0
836 -2404 852 0
836 -850 0
836 2404 -852 0
-837 2402 838 847 849 0
-837 -2402 838 847 -849 0
837 -838 0
837 -2402 849 0
837 -847 0
837 2402 -849 0
-838 -2399 2400 -839 846 0
-838 2399 2400 839 846 0
-838 2399 -2400 839 -846 0
-838 -2399 -2400 -839 -846 0
838 -2399 839 0
838 2399 -839 0
838 2400 -846 0
838 -2400 846 0
-839 150 -840 0
-839 -2338 -150 840 0
-839 2338 150 0
839 -150 -840 0
839 2338 -150 0
839 -2338 150 840 0
-840 153 841 0
840 -153 0
840 -841 0
-841 148 842 0
841 -148 0
841 -842 0
-842 146 843 0
842 -146 0
842 -843 0
-843 143 844 0
843 -143 0
843 -844 0
-844 142 845 0
844 -142 0
844 -845 0
-845 2259 141 0
845 -2259 0
845 -141 0
-846 153 -841 0
-846 -2338 -153 841 0
-846 2338 153 0
846 -153 -841 0
846 2338 -153 0
846 -2338 153 841 0
-847 2401 848 0
-847 -2401 -848 0
847 -2401 848 0
847 2401 -848 0
-848 148 -842 0
-848 -2338 -148 842 0
-848 2338 148 0
848 -148 -842 0
848 2338 -148 0
848 -2338 148 842 0
-849 146 -843 0
-849 -2338 -146 843 0
-849 2338 146 0
849 -146 -843 0
849 2338 -146 0
849 -2338 146 843 0
-850 2403 851 0
-850 -2403 -851 0
850 -2403 851 0
850 2403 -851 0
-851 143 -844 0
-851 -2338 -143 844 0
-851 2338 143 0
851 -143 -844 0
851 2338 -143 0
851 -2338 143 844 0
-852 142 -845 0
-852 -2338 -142 845 0
-852 2338 142 0
852 -142 -845 0
852 2338 -142 0
852 -2338 142 845 0
-853 2405 854 0
-853 -2405 -854 0
853 -2405 854 0
853 2405 -854 0
-854 -2259 141 0
-854 2338 141 0
-854 2259 -2338 -141 0
854 2338 -141 0
854 2259 -2338 141 0
854 -2259 -141 0
-855 2406 856 0
-855 -2406 -856 0
855 -2406 856 0
855 2406 -856 0
-856 -2259 -2338 0
-856 2259 2338 0
856 2259 -2338 0
856 -2259 2338 0
-857 2413 858 873 875 0
-857 -2413 858 873 -875 0
857 -858 0
857 -2413 875 0
857 -873 0
857 2413 -875 0
-858 2411 859 870 872 0
-858 -2411 859 870 -872 0
858 -859 0
858 -2411 872 0
858 -870 0
858 2411 -872 0
-859 2409 860 869 0
-859 -2409 860 -869 0
859 -860 0
859 -2409 869 0
859 2409 -869 0
-860 -2407 2408 -861 868 0
-860 2407 2408 861 868 0
-860 2407 -2408 861 -868 0
-860 -2407 -2408 -861 -868 0
860 -2407 861 0
860 2407 -861 0
860 2408 -868 0
860 -2408 868 0
-861 286 -862 0
-861 -2351 -286 862 0
-861 2351 286 0
861 -286 -862 0
861 2351 -286 0
861 -2351 286 862 0
-862 289 863 0
862 -289 0
862 -863 0
-863 284 864 0
863 -284 0
863 -864 0
-864 282 865 0
864 -282 0
864 -865 0
-865 279 866 0
865 -279 0
865 -866 0
-866 277 867 0
866 -277 0
866 -867 0
-867 274 276 0
867 -274 0
867 -276 0
-868 289 -863 0
-868 -2351 -289 863 0
-868 2351 289 0
868 -289 -863 0
868 2351 -289 0
868 -2351 289 863 0
-869 284 -864 0
-869 -2351 -284 864 0
-869 2351 284 0
869 -284 -864 0
869 2351 -284 0
869 -2351 284 864 0
-870 2410 871 0
-870 -2410 -871 0
870 -2410 871 0
870 2410 -871 0
-871 282 -865 0
-871 -2351 -282 865 0
-871 2351 282 0
871 -282 -865 0
871 2351 -282 0
871 -2351 282 865 0
-872 279 -866 0
-872 -2351 -279 866 0
-872 2351 279 0
872 -279 -866 0
872 2351 -279 0
872 -2351 279 866 0
-873 2412 874 0
-873 -2412 -874 0
873 -2412 874 0
873 2412 -874 0
-874 277 -867 0
-874 -2351 -277 867 0
-874 2351 277 0
874 -277 -867 0
874 2351 -277 0
874 -2351 277 867 0
-875 2351 276 0
-875 -2351 274 -276 0
-875 -274 276 0
875 2351 -276 0
875 -274 -276 0
875 -2351 274 276 0
-876 2351 274 0
-876 -2351 -274 0
876 -2351 274 0
876 2351 -274 0
-877 2421 878 893 895 0
-877 -2421 878 893 -895 0
877 -878 0
877 -2421 895 0
877 -893 0
877 2421 -895 0
-878 2419 879 890 892 0
-878 -2419 879 890 -892 0
878 -879 0
878 -2419 892 0
878 -890 0
878 2419 -892 0
-879 2417 880 889 0
-879 -2417 880 -889 0
879 -880 0
879 -2417 889 0
879 2417 -889 0
-880 -2415 2416 -881 888 0
-880 2415 2416 881 888 0
-880 2415 -2416 881 -888 0
-880 -2415 -2416 -881 -888 0
880 -2415 881 0
880 2415 -881 0
880 2416 -888 0
880 -2416 888 0
-881 2268 -882 0
-881 2268 2358 0
-881 -2268 -2358 882 0
881 -2268 2358 0
881 2268 -2358 882 0
881 -2268 -882 0
-882 2269 883 0
882 -2269 0
882 -883 0
-883 2270 884 0
883 -2270 0
883 -884 0
-884 2271 885 0
884 -2271 0
884 -885 0
-885 2272 886 0
885 -2272 0
885 -886 0
-886 2273 887 0
886 -2273 0
886 -887 0
-887 2274 2275 0
887 -2274 0
887 -2275 0
-888 2269 -883 0
-888 2269 2358 0
-888 -2269 -2358 883 0
888 -2269 2358 0
888 2269 -2358 883 0
888 -2269 -883 0
-889 2270 -884 0
-889 2270 2358 0
-889 -2270 -2358 884 0
889 -2270 2358 0
889 2270 -2358 884 0
889 -2270 -884 0
-890 2418 891 0
-890 -2418 -891 0
890 -2418 891 0
890 2418 -891 0
-891 2271 -885 0
-891 2271 2358 0
-891 -2271 -2358 885 0
891 -2271 2358 0
891 2271 -2358 885 0
891 -2271 -885 0
-892 2272 -886 0
-892 2272 2358 0
-892 -2272 -2358 886 0
892 -2272 2358 0
892 2272 -2358 886 0
892 -2272 -886 0
-893 2420 894 0
-893 -2420 -894 0
893 -2420 894 0
893 2420 -894 0
-894 2273 -887 0
-894 2273 2358 0
-894 -2273 -2358 887 0
894 -2273 2358 0
894 2273 -2358 887 0
894 -2273 -887 0
-895 2274 -2275 0
-895 2274 2358 0
-895 -2274 2275 -2358 0
895 -2274 -2275 0
895 -2274 2358 0
895 2274 2275 -2358 0
-896 -2275 -2358 0
-896 2275 2358 0
896 2275 -2358 0
896 -2275 2358 0
-897 2429 898 997 999 0
-897 -2429 898 997 -999 0
897 -898 0
897 -2429 999 0
897 -997 0
897 2429 -999 0
-898 2427 899 994 996 0
-898 -2427 899 994 -996 0
898 -899 0
898 -2427 996 0
898 -994 0
898 2427 -996 0
-899 2425 900 993 0
-899 -2425 900 -993 0
899 -900 0
899 -2425 993 0
899 2425 -993 0
-900 -2423 2424 -901 992 0
-900 2423 2424 901 992 0
-900 2423 -2424 901 -992 0
-900 -2423 -2424 -901 -992 0
900 -2423 901 0
900 2423 -901 0
900 2424 -992 0
900 -2424 992 0
-901 902 979 0
-901 -2354 -902 -979 0
-901 2354 902 0
901 -902 979 0
901 2354 -902 0
901 -2354 902 -979 0
-902 903 966 0
-902 -2353 -903 -966 0
-902 2353 903 0
902 -903 966 0
902 2353 -903 0
902 -2353 903 -966 0
-903 904 953 0
-903 -2348 -904 -953 0
-903 2348 904 0
903 -904 953 0
903 2348 -904 0
903 -2348 904 -953 0
-904 905 940 0
-904 -2347 -905 -940 0
-904 2347 905 0
904 -905 940 0
904 2347 -905 0
904 -2347 905 -940 0
-905 906 922 0
-905 -2342 -906 -922 0
-905 2342 906 0
905 -906 922 0
905 2342 -906 0
905 -2342 906 -922 0
-906 907 913 0
-906 -2341 -907 -913 0
-906 2341 907 0
906 -907 913 0
906 2341 -907 0
906 -2341 907 -913 0
-907 2276 908 0
-907 2276 2338 0
-907 -2276 -2338 -908 0
907 -2276 2338 0
907 2276 -2338 -908 0
907 -2276 908 0
908 -2277 -909 0
-908 2277 0
-908 909 0
909 -2278 -910 0
-909 2278 0
-909 910 0
910 -2279 -911 0
-910 2279 0
-910 911 0
911 -2280 -912 0
-911 2280 0
-911 912 0
912 -2281 -2282 -2283 0
-912 2281 0
-912 2282 0
-912 2283 0
913 -914 -915 0
-913 914 0
-913 915 0
-914 2277 909 0
-914 2277 2338 0
-914 -2277 -2338 -909 0
914 -2277 2338 0
914 2277 -2338 -909 0
914 -2277 909 0
915 -916 -917 0
-915 916 0
-915 917 0
-916 2278 910 0
-916 2278 2338 0
-916 -2278 -2338 -910 0
916 -2278 2338 0
916 2278 -2338 -910 0
916 -2278 910 0
917 -918 -919 0
-917 918 0
-917 919 0
-918 2279 911 0
-918 2279 2338 0
-918 -2279 -2338 -911 0
918 -2279 2338 0
918 2279 -2338 -911 0
918 -2279 911 0
919 -920 -921 0
-919 920 0
-919 921 0
-920 2280 912 0
-920 2280 2338 0
-920 -2280 -2338 -912 0
920 -2280 2338 0
920 2280 -2338 -912 0
920 -2280 912 0
921 -2281 -2282 2283 -2338 0
921 -2281 -2282 -2283 2338 0
-921 2282 0
-921 2283 2338 0
-921 2281 0
-921 -2283 -2338 0
922 -923 -924 0
-922 923 0
-922 924 0
-923 914 915 0
-923 -2341 -914 -915 0
-923 2341 914 0
923 -914 915 0
923 2341 -914 0
923 -2341 914 -915 0
924 -925 -926 0
-924 925 0
-924 926 0
-925 916 917 0
-925 -2341 -916 -917 0
-925 2341 916 0
925 -916 917 0
925 2341 -916 0
925 -2341 916 -917 0
926 -927 -928 0
-926 927 0
-926 928 0
-927 918 919 0
-927 -2341 -918 -919 0
-927 2341 918 0
927 -918 919 0
927 2341 -918 0
927 -2341 918 -919 0
928 -929 -930 0
-928 929 0
-928 930 0
-929 920 921 0
-929 -2341 -920 -921 0
-929 2341 920 0
929 -920 921 0
929 2341 -920 0
929 -2341 920 -921 0
930 -931 -935 0
-930 931 0
-930 935 0
-931 932 934 0
-931 -2341 -932 -934 0
-931 2341 932 0
931 -932 934 0
931 2341 -932 0
931 -2341 932 -934 0
-932 2281 933 0
-932 2281 2338 0
-932 -2281 -2338 -933 0
932 -2281 2338 0
932 2281 -2338 -933 0
932 -2281 933 0
933 -2282 -2283 0
-933 2282 0
-933 2283 0
934 -2282 2283 -2338 0
934 -2282 -2283 2338 0
-934 2282 0
-934 -2283 -2338 0
-934 2283 2338 0
935 -936 -939 0
-935 936 0
-935 939 0
-936 2341 937 0
-936 937 938 0
-936 -2341 -937 -938 0
936 -937 938 0
936 2341 -937 0
936 -2341 937 -938 0
-937 2282 2338 0
-937 2282 2283 0
-937 -2282 -2283 -2338 0
937 -2282 2283 0
937 2282 -2283 -2338 0
937 -2282 2338 0
-938 -2283 -2338 0
-938 2283 2338 0
938 2283 -2338 0
938 -2283 2338 0
-939 2341 938 0
-939 -2341 -938 0
939 -2341 938 0
939 2341 -938 0
940 -941 -942 0
-940 941 0
-940 942 0
-941 923 924 0
-941 -2342 -923 -924 0
-941 2342 923 0
941 -923 924 0
941 2342 -923 0
941 -2342 923 -924 0
942 -943 -944 0
-942 943 0
-942 944 0
-943 925 926 0
-943 -2342 -925 -926 0
-943 2342 925 0
943 -925 926 0
943 2342 -925 0
943 -2342 925 -926 0
944 -945 -946 0
-944 945 0
-944 946 0
-945 927 928 0
-945 -2342 -927 -928 0
-945 2342 927 0
945 -927 928 0
945 2342 -927 0
945 -2342 927 -928 0
946 -947 -948 0
-946 947 0
-946 948 0
-947 929 930 0
-947 -2342 -929 -930 0
-947 2342 929 0
947 -929 930 0
947 2342 -929 0
947 -2342 929 -930 0
948 -949 -950 0
-948 949 0
-948 950 0
-949 931 935 0
-949 -2342 -931 -935 0
-949 2342 931 0
949 -931 935 0
949 2342 -931 0
949 -2342 931 -935 0
950 -951 -952 0
-950 951 0
-950 952 0
-951 2342 936 0
-951 936 939 0
-951 -2342 -936 -939 0
951 -936 939 0
951 2342 -936 0
951 -2342 936 -939 0
-952 2342 939 0
-952 -2342 -939 0
952 -2342 939 0
952 2342 -939 0
953 -954 -955 0
-953 954 0
-953 955 0
-954 941 942 0
-954 -2347 -941 -942 0
-954 2347 941 0
954 -941 942 0
954 2347 -941 0
954 -2347 941 -942 0
955 -956 -957 0
-955 956 0
-955 957 0
-956 943 944 0
-956 -2347 -943 -944 0
-956 2347 943 0
956 -943 944 0
956 2347 -943 0
956 -2347 943 -944 0
957 -958 -959 0
-957 958 0
-957 959 0
-958 945 946 0
-958 -2347 -945 -946 0
-958 2347 945 0
958 -945 946 0
958 2347 -945 0
958 -2347 945 -946 0
959 -960 -961 0
-959 960 0
-959 961 0
-960 947 948 0
-960 -2347 -947 -948 0
-960 2347 947 0
960 -947 948 0
960 2347 -947 0
960 -2347 947 -948 0
961 -962 -963 0
-961 962 0
-961 963 0
-962 949 950 0
-962 -2347 -949 -950 0
-962 2347 949 0
962 -949 950 0
962 2347 -949 0
962 -2347 949 -950 0
963 -964 -965 0
-963 964 0
-963 965 0
-964 2347 951 0
-964 951 952 0
-964 -2347 -951 -952 0
964 -951 952 0
964 2347 -951 0
964 -2347 951 -952 0
-965 2347 952 0
-965 -2347 -952 0
965 -2347 952 0
965 2347 -952 0
966 -967 -968 0
-966 967 0
-966 968 0
-967 954 955 0
-967 -2348 -954 -955 0
-967 2348 954 0
967 -954 955 0
967 2348 -954 0
967 -2348 954 -955 0
968 -969 -970 0
-968 969 0
-968 970 0
-969 956 957 0
-969 -2348 -956 -957 0
-969 2348 956 0
969 -956 957 0
969 2348 -956 0
969 -2348 956 -957 0
970 -971 -972 0
-970 971 0
-970 972 0
-971 958 959 0
-971 -2348 -958 -959 0
-971 2348 958 0
971 -958 959 0
971 2348 -958 0
971 -2348 958 -959 0
972 -973 -974 0
-972 973 0
-972 974 0
-973 960 961 0
-973 -2348 -960 -961 0
-973 2348 960 0
973 -960 961 0
973 2348 -960 0
973 -2348 960 -961 0
974 -975 -976 0
-974 975 0
-974 976 0
-975 962 963 0
-975 -2348 -962 -963 0
-975 2348 962 0
975 -962 963 0
975 2348 -962 0
975 -2348 962 -963 0
976 -977 -978 0
-976 977 0
-976 978 0
-977 2348 964 0
-977 964 965 0
-977 -2348 -964 -965 0
977 -964 965 0
977 2348 -964 0
977 -2348 964 -965 0
-978 2348 965 0
-978 -2348 -965 0
978 -2348 965 0
978 2348 -965 0
979 -980 -981 0
-979 980 0
-979 981 0
-980 967 968 0
-980 -2353 -967 -968 0
-980 2353 967 0
980 -967 968 0
980 2353 -967 0
980 -2353 967 -968 0
981 -982 -983 0
-981 982 0
-981 983 0
-982 969 970 0
-982 -2353 -969 -970 0
-982 2353 969 0
982 -969 970 0
982 2353 -969 0
982 -2353 969 -970 0
983 -984 -985 0
-983 984 0
-983 985 0
-984 971 972 0
-984 -2353 -971 -972 0
-984 2353 971 0
984 -971 972 0
984 2353 -971 0
984 -2353 971 -972 0
985 -986 -987 0
-985 986 0
-985 987 0
-986 973 974 0
-986 -2353 -973 -974 0
-986 2353 973 0
986 -973 974 0
986 2353 -973 0
986 -2353 973 -974 0
987 -988 -989 0
-987 988 0
-987 989 0
-988 975 976 0
-988 -2353 -975 -976 0
-988 2353 975 0
988 -975 976 0
988 2353 -975 0
988 -2353 975 -976 0
989 -990 -991 0
-989 990 0
-989 991 0
-990 2353 977 0
-990 977 978 0
-990 -2353 -977 -978 0
990 -977 978 0
990 2353 -977 0
990 -2353 977 -978 0
-991 2353 978 0
-991 -2353 -978 0
991 -2353 978 0
991 2353 -978 0
-992 980 981 0
-992 -2354 -980 -981 0
-992 2354 980 0
992 -980 981 0
992 2354 -980 0
992 -2354 980 -981 0
-993 982 983 0
-993 -2354 -982 -983 0
-993 2354 982 0
993 -982 983 0
993 2354 -982 0
993 -2354 982 -983 0
-994 2426 995 0
-994 -2426 -995 0
994 -2426 995 0
994 2426 -995 0
-995 984 985 0
-995 -2354 -984 -985 0
-995 2354 984 0
995 -984 985 0
995 2354 -984 0
995 -2354 984 -985 0
-996 986 987 0
-996 -2354 -986 -987 0
-996 2354 986 0
996 -986 987 0
996 2354 -986 0
996 -2354 986 -987 0
-997 2428 998 0
-997 -2428 -998 0
997 -2428 998 0
997 2428 -998 0
-998 988 989 0
-998 -2354 -988 -989 0
-998 2354 988 0
998 -988 989 0
998 2354 -988 0
998 -2354 988 -989 0
-999 2354 990 0
-999 990 991 0
-999 -2354 -990 -991 0
999 -990 991 0
999 2354 -990 0
999 -2354 990 -991 0
-1000 2354 991 0
-1000 -2354 -991 0
1000 -2354 991 0
1000 2354 -991 0
-1001 2436 1002 1011 1012 0
-1001 -2436 1002 -1011 1012 0
1001 -1012 0
1001 -2436 1011 0
1001 -1002 0
1001 2436 -1011 0
-1002 2435 1003 1008 1010 0
-1002 -2435 1003 1008 -1010 0
1002 -1003 0
1002 -2435 1010 0
1002 -1008 0
1002 2435 -1010 0
-1003 2433 1004 1007 0
-1003 -2433 1004 -1007 0
1003 -1004 0
1003 -2433 1007 0
1003 2433 -1007 0
-1004 -2431 2432 -1005 1006 0
-1004 2431 2432 1005 1006 0
-1004 2431 -2432 1005 -1006 0
-1004 -2431 -2432 -1005 -1006 0
1004 -2431 1005 0
1004 2431 -1005 0
1004 2432 -1006 0
1004 -2432 1006 0
-1005 563 -610 0
-1005 -2358 -563 610 0
-1005 2358 563 0
1005 -563 -610 0
1005 2358 -563 0
1005 -2358 563 610 0
-1006 611 -612 0
-1006 -2358 -611 612 0
-1006 2358 611 0
1006 -611 -612 0
1006 2358 -611 0
1006 -2358 611 612 0
-1007 613 -614 0
-1007 -2358 -613 614 0
-1007 2358 613 0
1007 -613 -614 0
1007 2358 -613 0
1007 -2358 613 614 0
-1008 2434 1009 0
-1008 -2434 -1009 0
1008 -2434 1009 0
1008 2434 -1009 0
-1009 615 -616 0
-1009 -2358 -615 616 0
-1009 2358 615 0
1009 -615 -616 0
1009 2358 -615 0
1009 -2358 615 616 0
-1010 617 -618 0
-1010 -2358 -617 618 0
-1010 2358 617 0
1010 -617 -618 0
1010 2358 -617 0
1010 -2358 617 618 0
-1011 619 -620 0
-1011 -2358 -619 620 0
-1011 2358 619 0
1011 -619 -620 0
1011 2358 -619 0
1011 -2358 619 620 0
-1012 2437 1013 0
-1012 -2437 -1013 0
1012 -2437 1013 0
1012 2437 -1013 0
-1013 2358 620 0
-1013 -2358 -620 0
1013 -2358 620 0
1013 2358 -620 0
-1014 2353 609 0
-1014 -2353 -609 0
1014 -2353 609 0
1014 2353 -609 0
-1015 2445 1016 1045 1047 0
-1015 -2445 1016 1045 -1047 0
1015 -1016 0
1015 -2445 1047 0
1015 -1045 0
1015 2445 -1047 0
-1016 2443 1017 1042 1044 0
-1016 -2443 1017 1042 -1044 0
1016 -1017 0
1016 -2443 1044 0
1016 -1042 0
1016 2443 -1044 0
-1017 2441 1018 1041 0
-1017 -2441 1018 -1041 0
1017 -1018 0
1017 -2441 1041 0
1017 2441 -1041 0
-1018 -2439 2440 -1019 1040 0
-1018 2439 2440 1019 1040 0
-1018 2439 -2440 1019 -1040 0
-1018 -2439 -2440 -1019 -1040 0
1018 -2439 1019 0
1018 2439 -1019 0
1018 2440 -1040 0
1018 -2440 1040 0
-1019 1020 1027 0
-1019 -2358 -1020 -1027 0
-1019 2358 1020 0
1019 -1020 1027 0
1019 2358 -1020 0
1019 -2358 1020 -1027 0
-1020 357 -1021 0
-1020 -2355 -357 1021 0
-1020 2355 357 0
1020 -357 -1021 0
1020 2355 -357 0
1020 -2355 357 1021 0
-1021 360 1022 0
1021 -360 0
1021 -1022 0
-1022 355 1023 0
1022 -355 0
1022 -1023 0
-1023 353 1024 0
1023 -353 0
1023 -1024 0
-1024 350 1025 0
1024 -350 0
1024 -1025 0
-1025 348 1026 0
1025 -348 0
1025 -1026 0
-1026 345 347 0
1026 -345 0
1026 -347 0
1027 -1028 -1029 0
-1027 1028 0
-1027 1029 0
-1028 360 -1022 0
-1028 -2355 -360 1022 0
-1028 2355 360 0
1028 -360 -1022 0
1028 2355 -360 0
1028 -2355 360 1022 0
1029 -1030 -1031 0
-1029 1030 0
-1029 1031 0
-1030 355 -1023 0
-1030 -2355 -355 1023 0
-1030 2355 355 0
1030 -355 -1023 0
1030 2355 -355 0
1030 -2355 355 1023 0
1031 -1032 -1033 0
-1031 1032 0
-1031 1033 0
-1032 353 -1024 0
-1032 -2355 -353 1024 0
-1032 2355 353 0
1032 -353 -1024 0
1032 2355 -353 0
1032 -2355 353 1024 0
1033 -1034 -1035 0
-1033 1034 0
-1033 1035 0
-1034 350 -1025 0
-1034 -2355 -350 1025 0
-1034 2355 350 0
1034 -350 -1025 0
1034 2355 -350 0
1034 -2355 350 1025 0
1035 -1036 -1037 0
-1035 1036 0
-1035 1037 0
-1036 348 -1026 0
-1036 -2355 -348 1026 0
-1036 2355 348 0
1036 -348 -1026 0
1036 2355 -348 0
1036 -2355 348 1026 0
1037 -1038 -1039 0
-1037 1038 0
-1037 1039 0
-1038 2355 347 0
-1038 -2355 345 -347 0
-1038 -345 347 0
1038 2355 -347 0
1038 -345 -347 0
1038 -2355 345 347 0
-1039 2355 345 0
-1039 -2355 -345 0
1039 -2355 345 0
1039 2355 -345 0
-1040 1028 1029 0
-1040 -2358 -1028 -1029 0
-1040 2358 1028 0
1040 -1028 1029 0
1040 2358 -1028 0
1040 -2358 1028 -1029 0
-1041 1030 1031 0
-1041 -2358 -1030 -1031 0
-1041 2358 1030 0
1041 -1030 1031 0
1041 2358 -1030 0
1041 -2358 1030 -1031 0
-1042 2442 1043 0
-1042 -2442 -1043 0
1042 -2442 1043 0
1042 2442 -1043 0
-1043 1032 1033 0
-1043 -2358 -1032 -1033 0
-1043 2358 1032 0
1043 -1032 1033 0
1043 2358 -1032 0
1043 -2358 1032 -1033 0
-1044 1034 1035 0
-1044 -2358 -1034 -1035 0
-1044 2358 1034 0
1044 -1034 1035 0
1044 2358 -1034 0
1044 -2358 1034 -1035 0
-1045 2444 1046 0
-1045 -2444 -1046 0
1045 -2444 1046 0
1045 2444 -1046 0
-1046 1036 1037 0
-1046 -2358 -1036 -1037 0
-1046 2358 1036 0
1046 -1036 1037 0
1046 2358 -1036 0
1046 -2358 1036 -1037 0
-1047 2358 1038 0
-1047 1038 1039 0
-1047 -2358 -1038 -1039 0
1047 -1038 1039 0
1047 2358 -1038 0
1047 -2358 1038 -1039 0
-1048 2358 1039 0
-1048 -2358 -1039 0
1048 -2358 1039 0
1048 2358 -1039 0
-1049 2453 1050 1064 1067 0
-1049 -2453 1050 1064 -1067 0
1049 -1050 0
1049 -2453 1067 0
1049 -1064 0
1049 2453 -1067 0
-1050 2451 1051 1061 1063 0
-1050 -2451 1051 1061 -1063 0
1050 -1051 0
1050 -2451 1063 0
1050 -1061 0
1050 2451 -1063 0
-1051 2449 1052 1060 0
-1051 -2449 1052 -1060 0
1051 -1052 0
1051 -2449 1060 0
1051 2449 -1060 0
-1052 -2447 2448 -1053 1059 0
-1052 2447 2448 1053 1059 0
-1052 2447 -2448 1053 -1059 0
-1052 -2447 -2448 -1053 -1059 0
1052 -2447 1053 0
1052 2447 -1053 0
1052 2448 -1059 0
1052 -2448 1059 0
-1053 2300 1054 0
-1053 2300 2357 0
-1053 -2300 -2357 -1054 0
1053 -2300 2357 0
1053 2300 -2357 -1054 0
1053 -2300 1054 0
1054 -2301 -1055 0
-1054 2301 0
-1054 1055 0
1055 -2302 -1056 0
-1055 2302 0
-1055 1056 0
1056 -2303 -1057 0
-1056 2303 0
-1056 1057 0
1057 -2304 -1058 0
-1057 2304 0
-1057 1058 0
1058 -2305 -2306 -2307 0
-1058 2305 0
-1058 2306 0
-1058 2307 0
-1059 2301 1055 0
-1059 2301 2357 0
-1059 -2301 -2357 -1055 0
1059 -2301 2357 0
1059 2301 -2357 -1055 0
1059 -2301 1055 0
-1060 2302 1056 0
-1060 2302 2357 0
-1060 -2302 -2357 -1056 0
1060 -2302 2357 0
1060 2302 -2357 -1056 0
1060 -2302 1056 0
-1061 2450 1062 0
-1061 -2450 -1062 0
1061 -2450 1062 0
1061 2450 -1062 0
-1062 2303 1057 0
-1062 2303 2357 0
-1062 -2303 -2357 -1057 0
1062 -2303 2357 0
1062 2303 -2357 -1057 0
1062 -2303 1057 0
-1063 2304 1058 0
-1063 2304 2357 0
-1063 -2304 -2357 -1058 0
1063 -2304 2357 0
1063 2304 -2357 -1058 0
1063 -2304 1058 0
-1064 2452 1065 0
-1064 -2452 -1065 0
1064 -2452 1065 0
1064 2452 -1065 0
-1065 2305 1066 0
-1065 2305 2357 0
-1065 -2305 -2357 -1066 0
1065 -2305 2357 0
1065 2305 -2357 -1066 0
1065 -2305 1066 0
1066 -2306 -2307 0
-1066 2306 0
-1066 2307 0
-1067 2306 2357 0
-1067 2306 2307 0
-1067 -2306 -2307 -2357 0
1067 -2306 2307 0
1067 2306 -2307 -2357 0
1067 -2306 2357 0
-1068 -2307 -2357 0
-1068 2307 2357 0
1068 2307 -2357 0
1068 -2307 2357 0
-1069 -2308 -2455 0
-1069 2308 2455 0
1069 2308 -2455 0
1069 -2308 2455 0
-1070 -2458 -668 0
-1070 2458 668 0
1070 2458 -668 0
1070 -2458 668 0
-1071 -2459 -670 0
-1071 2459 670 0
1071 2459 -670 0
1071 -2459 670 0
-1072 -2315 -2462 0
-1072 2315 2462 0
1072 2315 -2462 0
1072 -2315 2462 0
-1073 -2463 -679 0
-1073 2463 679 0
1073 2463 -679 0
1073 -2463 679 0
-1074 2465 685 0
-1074 -2465 -685 0
1074 -2465 685 0
1074 2465 -685 0
-1075 -2467 -687 0
-1075 2467 687 0
1075 2467 -687 0
1075 -2467 687 0
-1076 -2323 -2470 0
-1076 2323 2470 0
1076 2323 -2470 0
1076 -2323 2470 0
-1077 -2471 -696 0
-1077 2471 696 0
1077 2471 -696 0
1077 -2471 696 0
-1078 2473 701 0
-1078 -2473 -701 0
1078 -2473 701 0
1078 2473 -701 0
-1079 -2476 -703 0
-1079 2476 703 0
1079 2476 -703 0
1079 -2476 703 0
-1080 -2330 -2477 0
-1080 2330 2477 0
1080 2330 -2477 0
1080 -2330 2477 0
-1081 -2479 -711 0
-1081 2479 711 0
1081 2479 -711 0
1081 -2479 711 0
-1082 -2335 -2482 0
-1082 2335 2482 0
1082 2335 -2482 0
1082 -2335 2482 0
1083 -2301 -2302 0
1083 -2301 -2303 -1084 0
-1083 2301 0
-1083 2302 1084 0
-1083 2302 2303 0
-1084 2304 2305 2306 2307 0
1084 -2307 0
1084 -2306 0
1084 -2304 0
1084 -2305 0
-1085 -2484 1088 0
-1085 2300 1086 1088 0
1085 -1088 0
1085 -2300 2484 0
1085 2484 -1086 0
1086 -2301 -2302 0
1086 -2301 -2303 -1087 0
-1086 2301 0
-1086 2302 1087 0
-1086 2302 2303 0
-1087 2304 2305 2306 2307 0
1087 -2307 0
1087 -2306 0
1087 -2304 0
1087 -2305 0
1088 1089 1470 1473 -1607 0
-1088 1607 0
-1088 -1089 0
-1088 -1473 0
-1088 -1470 0
-1089 1090 1241 1252 0
-1089 1090 -1247 1252 0
1089 -1252 0
1089 -1090 0
1089 -1241 1247 0
-1090 2397 1091 1207 1208 0
-1090 -2397 1091 1207 -1208 0
1090 -1207 0
1090 -2397 1208 0
1090 -1091 0
1090 2397 -1208 0
-1091 2354 1092 0
-1091 -325 1092 -1162 0
1091 -1092 0
1091 -2354 1162 0
1091 -2354 325 0
1092 2386 -1093 0
-1092 -2386 0
-1092 1093 0
1093 1094 -1153 0
1093 -1094 1153 0
-1093 -1094 -1153 0
-1093 1094 1153 0
-1094 1095 -1152 0
-1094 1095 1148 1150 0
1094 -1095 0
1094 -1148 1152 0
1094 -1150 1152 0
1095 -1096 1118 0
-1095 1096 0
-1095 -1118 0
1096 1097 -1111 0
-1096 -1097 0
-1096 1111 0
-1097 1101 1106 -1109 0
-1097 -1098 -1101 -1109 0
-1097 1098 1101 1106 0
1097 1098 -1101 0
1097 1101 -1106 0
1097 -1098 1109 0
-1098 -56 1099 0
-1098 -2341 56 51 -1099 0
-1098 2341 1099 0
-1098 -51 1099 0
1098 2341 -1099 0
1098 -2341 56 51 1099 0
1098 -56 -1099 0
1098 -51 -1099 0
-1099 -2241 2242 -2337 0
-1099 2241 -2242 1100 0
-1099 -2241 -1100 0
-1099 2241 2337 1100 0
1099 -2241 -2242 1100 0
1099 2241 2242 -2337 0
1099 2241 -1100 0
1099 -2241 2337 1100 0
1100 -2338 62 0
-1100 2338 0
-1100 -62 0
1101 -1102 1103 0
-1101 1102 0
-1101 -1103 0
1102 -2347 49 0
-1102 2347 0
-1102 -49 0
-1103 56 1104 0
-1103 -56 -1104 0
1103 -56 1104 0
1103 56 -1104 0
-1104 -2243 1105 0
-1104 2338 1105 0
1104 -1105 0
1104 2243 -2338 0
1105 -2341 51 0
-1105 2341 0
-1105 -51 0
1106 -2344 1107 0
-1106 2344 0
-1106 -1107 0
-1107 50 1108 0
1107 -50 0
1107 -1108 0
-1108 1098 1103 0
1108 -1098 0
1108 -1103 0
1109 1103 -1110 0
-1109 -1103 0
-1109 1110 0
-1110 2344 1102 0
-1110 -50 1102 0
1110 -1102 0
1110 -2344 50 0
1111 -1112 1113 0
-1111 1112 0
-1111 -1113 0
1112 -2356 327 0
-1112 2356 0
-1112 -327 0
-1113 1114 1115 0
-1113 -1114 -1115 0
1113 -1114 1115 0
1113 1114 -1115 0
-1114 1103 1110 0
-1114 -1103 -1110 0
1114 -1103 1110 0
1114 1103 -1110 0
-1115 1116 1117 0
1115 -1116 0
1115 -1117 0
1116 -2350 48 0
-1116 2350 0
-1116 -48 0
1117 -2353 309 0
-1117 2353 0
-1117 -309 0
-1118 1119 1145 0
1118 -1119 0
1118 -1145 0
-1119 1120 1135 0
-1119 -1120 -1135 0
1119 -1120 1135 0
1119 1120 -1135 0
1120 -1121 1127 0
1120 1121 -1127 0
-1120 1121 1127 0
-1120 -1121 -1127 0
-1121 -2239 -1122 0
-1121 1122 1126 0
1121 2239 -1122 0
1121 1122 -1126 0
1122 -1123 1124 0
-1122 1123 0
-1122 -1124 0
1123 2241 -2338 62 0
-1123 -62 0
-1123 2338 0
-1123 -2241 0
-1124 -2240 -1125 0
-1124 2240 1125 0
1124 2240 -1125 0
1124 -2240 1125 0
1125 -2337 72 0
-1125 2337 0
-1125 -72 0
-1126 2239 -2240 0
-1126 2239 1125 0
-1126 -2239 2240 -1125 0
1126 -2239 -2240 0
1126 -2239 1125 0
1126 2239 2240 -1125 0
-1127 1128 1132 0
1127 -1128 0
1127 -1132 0
1128 -1129 1131 0
-1128 1129 0
-1128 -1131 0
1129 -2341 1130 0
-1129 2341 0
-1129 -1130 0
-1130 56 51 1099 0
1130 -56 0
1130 -51 0
1130 -1099 0
-1131 1123 1124 0
-1131 -1123 -1124 0
1131 -1123 1124 0
1131 1123 -1124 0
1132 -2344 1133 0
-1132 2344 0
-1132 -1133 0
-1133 1107 1134 0
1133 -1107 0
1133 -1134 0
-1134 1129 1131 0
-1134 -1129 -1131 0
1134 -1129 1131 0
1134 1129 -1131 0
-1135 1136 1139 0
1135 -1136 0
1135 -1139 0
1136 -1102 1137 0
-1136 1102 0
-1136 -1137 0
-1137 1108 1138 0
1137 -1108 0
1137 -1138 0
-1138 2344 1134 0
-1138 -2344 1107 -1134 0
-1138 -1107 1134 0
1138 2344 -1134 0
1138 -1107 -1134 0
1138 -2344 1107 1134 0
1139 -2350 1140 0
-1139 2350 0
-1139 -1140 0
-1140 48 1141 1142 0
1140 -48 0
1140 -1141 0
1140 -1142 0
-1141 1097 1114 0
1141 -1097 0
1141 -1114 0
-1142 1136 1143 0
1142 -1136 0
1142 -1143 0
1143 1144 -1138 0
-1143 -1144 0
-1143 1138 0
1144 1098 -1101 0
-1144 -1098 0
-1144 1101 0
-1145 -1146 -1147 0
-1145 1146 1147 0
1145 1146 -1147 0
1145 -1146 1147 0
-1146 -48 1142 0
-1146 -2350 48 1141 -1142 0
-1146 2350 1142 0
-1146 -1141 1142 0
1146 2350 -1142 0
1146 -2350 48 1141 1142 0
1146 -48 -1142 0
1146 -1141 -1142 0
1147 -1117 1141 0
-1147 1117 0
-1147 -1141 0
1148 -1147 1149 0
-1148 1147 0
-1148 -1149 0
-1149 1119 1146 0
1149 -1119 0
1149 -1146 0
1150 -1119 1151 0
-1150 1119 0
-1150 -1151 0
1151 1146 -1147 0
-1151 -1146 0
-1151 1147 0
1152 -1096 1145 0
-1152 1096 0
-1152 -1145 0
1153 -1154 -1155 0
-1153 1154 0
-1153 1155 0
-1154 1096 1145 0
-1154 -1096 -1145 0
1154 -1096 1145 0
1154 1096 -1145 0
1155 -1156 -1159 0
-1155 1156 0
-1155 1159 0
1156 -1157 -1158 0
-1156 1157 0
-1156 1158 0
-1157 1112 1113 0
-1157 -1112 -1113 0
1157 -1112 1113 0
1157 1112 -1113 0
1158 -2358 -806 0
-1158 2358 0
-1158 806 0
1159 -1160 1161 0
1159 1160 -1161 0
-1159 1160 1161 0
-1159 -1160 -1161 0
1160 1114 -1115 0
-1160 -1114 0
-1160 1115 0
-1161 -1097 -1111 0
-1161 1097 1111 0
1161 1097 -1111 0
1161 -1097 1111 0
-1162 1163 1189 1191 0
1162 -1163 0
1162 -1189 0
1162 -1191 0
-1163 -1164 -1178 0
-1163 1164 1178 0
1163 1164 -1178 0
1163 -1164 1178 0
1164 -1148 1165 0
-1164 1148 0
-1164 -1165 0
-1165 1166 1168 0
-1165 -1166 -1168 0
1165 -1166 1168 0
1165 1166 -1168 0
1166 -2350 1167 0
-1166 2350 0
-1166 -1167 0
-1167 1120 1140 0
1167 -1120 0
1167 -1140 0
-1168 1169 1170 0
-1168 -1169 -1170 0
1168 -1169 1170 0
1168 1169 -1170 0
1169 1120 -1136 0
-1169 -1120 0
-1169 1136 0
-1170 -1171 -1176 0
-1170 1171 1176 0
1170 1171 -1176 0
1170 -1171 1176 0
-1171 -1172 -1175 0
-1171 1172 1175 0
1171 1172 -1175 0
1171 -1172 1175 0
-1172 -2238 -1173 0
-1172 -2238 -1174 0
-1172 2238 1173 1174 0
1172 2238 -1174 0
1172 -2238 1173 1174 0
1172 2238 -1173 0
1173 2239 -1122 0
-1173 -2239 0
-1173 1122 0
1174 2239 2240 -1125 0
-1174 1125 0
-1174 -2240 0
-1174 -2239 0
1175 1126 -1128 0
-1175 -1126 0
-1175 1128 0
1176 -2344 1177 0
-1176 2344 0
-1176 -1177 0
-1177 1121 1133 0
1177 -1121 0
1177 -1133 0
1178 -1179 1186 0
1178 1179 -1186 0
-1178 1179 1186 0
-1178 -1179 -1186 0
-1179 -1171 1180 0
-1179 1171 -1176 -1180 0
-1179 1176 1180 0
1179 -1171 -1180 0
1179 1176 -1180 0
1179 1171 -1176 1180 0
-1180 1181 1182 0
-1180 -1181 -1182 0
1180 -1181 1182 0
1180 1181 -1182 0
1181 1172 -1175 0
-1181 -1172 0
-1181 1175 0
-1182 1183 1184 0
-1182 -1183 -1184 0
1182 -1183 1184 0
1182 1183 -1184 0
1183 2238 -1173 0
-1183 -2238 0
-1183 1173 0
-1184 -2237 -1185 0
-1184 2237 1185 0
1184 2237 -1185 0
1184 -2237 1185 0
1185 2238 -1174 0
-1185 -2238 0
-1185 1174 0
-1186 1187 1188 0
1186 -1187 0
1186 -1188 0
1187 -1169 1170 0
-1187 1169 0
-1187 -1170 0
1188 -1166 1168 0
-1188 1166 0
-1188 -1168 0
-1189 1097 1118 1165 1190 0
1189 -1190 0
1189 -1097 0
1189 -1165 0
1189 -1118 0
-1190 327 1113 0
1190 -327 0
1190 -1113 0
-1191 -1192 -1193 0
-1191 1192 1193 0
1191 1192 -1193 0
1191 -1192 1193 0
1192 -1188 1179 0
-1192 1188 0
-1192 -1179 0
1193 -1194 1195 0
1193 1194 -1202 0
-1193 -1194 -1195 0
-1193 1194 1202 0
1194 -1187 1179 0
-1194 1187 0
-1194 -1179 0
-1195 -1197 1200 0
-1195 -1196 -1198 1200 0
-1195 1196 1198 1200 0
1195 -1200 0
1195 -1196 1197 1198 0
1195 1196 1197 -1198 0
1196 -1183 1184 0
-1196 1183 0
-1196 -1184 0
1197 -1181 1182 0
-1197 1181 0
-1197 -1182 0
-1198 -2236 -1199 0
-1198 2236 1199 0
1198 2236 -1199 0
1198 -2236 1199 0
1199 2237 -1185 0
-1199 -2237 0
-1199 1185 0
1200 -2341 1182 1198 1201 0
-1200 -1201 0
-1200 2341 0
-1200 -1198 0
-1200 -1182 0
-1201 1130 1126 1131 1172 0
1201 -1172 0
1201 -1130 0
1201 -1131 0
1201 -1126 0
-1202 -1203 1205 0
-1202 1195 1205 0
1202 -1205 0
1202 1203 -1195 0
1203 -1176 1204 0
-1203 1176 0
-1203 -1204 0
-1204 1171 1180 0
1204 -1171 0
1204 -1180 0
1205 -2344 1206 0
-1205 2344 0
-1205 -1206 0
-1206 1177 1204 1195 0
1206 -1177 0
1206 -1204 0
1206 -1195 0
1207 -2356 1162 0
1207 2333 2355 -2356 0
-1207 2356 0
-1207 -2333 -1162 0
-1207 -2355 -1162 0
-1208 1209 1220 0
-1208 -1209 -1220 0
1208 -1209 1220 0
1208 1209 -1220 0
1209 -2358 1210 0
-1209 2358 0
-1209 -1210 0
1210 2356 -1211 0
1210 -2356 1211 0
-1210 -2356 -1211 0
-1210 2356 1211 0
1211 2354 -1212 0
1211 -2354 1212 0
-1211 -2354 -1212 0
-1211 2354 1212 0
1212 2353 -1213 0
1212 -2353 1213 0
-1212 -2353 -1213 0
-1212 2353 1213 0
1213 2350 -1214 0
1213 -2350 1214 0
-1213 -2350 -1214 0
-1213 2350 1214 0
1214 2348 -1215 0
1214 -2348 1215 0
-1214 -2348 -1215 0
-1214 2348 1215 0
1215 2347 -1216 0
1215 -2347 1216 0
-1215 -2347 -1216 0
-1215 2347 1216 0
1216 2344 -1217 0
1216 -2344 1217 0
-1216 -2344 -1217 0
-1216 2344 1217 0
1217 2342 -1218 0
1217 -2342 1218 0
-1217 -2342 -1218 0
-1217 2342 1218 0
1218 2341 -1219 0
1218 -2341 1219 0
-1218 -2341 -1219 0
-1218 2341 1219 0
1219 2251 -2338 0
1219 -2251 2338 0
-1219 -2251 -2338 0
-1219 2251 2338 0
-1220 -1221 -1224 0
-1220 1221 1224 0
1220 1221 -1224 0
1220 -1221 1224 0
-1221 1222 1223 0
1221 -1222 0
1221 -1223 0
1222 -2354 -1212 0
-1222 2354 0
-1222 1212 0
1223 -2356 -1211 0
-1223 2356 0
-1223 1211 0
1224 -1225 1228 0
1224 1225 -1228 0
-1224 1225 1228 0
-1224 -1225 -1228 0
-1225 1226 1227 0
1225 -1226 0
1225 -1227 0
1226 -2350 -1214 0
-1226 2350 0
-1226 1214 0
1227 -2353 -1213 0
-1227 2353 0
-1227 1213 0
-1228 -1229 -1232 0
-1228 1229 1232 0
1228 1229 -1232 0
1228 -1229 1232 0
-1229 1230 1231 0
1229 -1230 0
1229 -1231 0
1230 -2347 -1216 0
-1230 2347 0
-1230 1216 0
1231 -2348 -1215 0
-1231 2348 0
-1231 1215 0
1232 -1233 1236 0
1232 1233 -1236 0
-1232 1233 1236 0
-1232 -1233 -1236 0
-1233 1234 1235 0
1233 -1234 0
1233 -1235 0
1234 -2342 -1218 0
-1234 2342 0
-1234 1218 0
1235 -2344 -1217 0
-1235 2344 0
-1235 1217 0
-1236 1237 1238 0
-1236 -1237 -1238 0
1236 -1237 1238 0
1236 1237 -1238 0
1237 2250 -2337 0
1237 -2250 2337 0
-1237 -2250 -2337 0
-1237 2250 2337 0
-1238 1239 1240 0
1238 -1239 0
1238 -1240 0
1239 -2251 -2338 0
-1239 2251 0
-1239 2338 0
1240 2251 -2338 -2341 0
1240 -2251 2338 -2341 0
-1240 2341 0
-1240 2251 2338 0
-1240 -2251 -2338 0
1241 -1242 -1246 0
-1241 1242 0
-1241 1246 0
1242 -1243 -1244 0
-1242 1243 0
-1242 1244 0
1243 -1094 -1153 0
-1243 1094 0
-1243 1153 0
-1244 -1095 1245 0
-1244 1148 1165 1245 0
-1244 -1148 -1165 1245 0
1244 -1245 0
1244 1095 -1148 1165 0
1244 1095 1148 -1165 0
1245 -2356 1189 0
-1245 2356 0
-1245 -1189 0
-1246 -1163 -1245 0
-1246 1163 1245 0
1246 1163 -1245 0
1246 -1163 1245 0
1247 1248 -1249 0
1247 -1248 1249 0
-1247 -1248 -1249 0
-1247 1248 1249 0
1248 1163 -1245 0
-1248 -1163 0
-1248 1245 0
1249 1250 -1251 0
1249 -1250 1251 0
-1249 -1250 -1251 0
-1249 1250 1251 0
1250 -1164 1178 0
-1250 1164 0
-1250 -1178 0
1251 -2383 1191 0
1251 2383 -1191 0
-1251 2383 1191 0
-1251 -2383 -1191 0
-1252 2386 1253 1375 0
-1252 -1093 1253 1375 0
1252 -1375 0
1252 -1253 0
1252 -2386 1093 0
-1253 1254 1302 0
-1253 -1298 1302 0
1253 -1302 0
1253 -1254 1298 0
1254 1255 -1286 0
-1254 -1255 0
-1254 1286 0
-1255 1256 1261 0
-1255 -1256 -1261 0
1255 -1256 1261 0
1255 1256 -1261 0
1256 2261 -1257 0
1256 -2261 1257 0
-1256 -2261 -1257 0
-1256 2261 1257 0
1257 -2262 -1258 0
-1257 2262 0
-1257 1258 0
1258 -2263 -1259 0
-1258 2263 0
-1258 1259 0
1259 -2264 -2265 -2266 -1260 0
-1259 1260 0
-1259 2264 0
-1259 2266 0
-1259 2265 0
1260 -2267 -2338 0
-1260 2267 0
-1260 2338 0
-1261 1262 1272 0
1261 -1262 0
1261 -1272 0
1262 1263 -1264 0
-1262 -1263 0
-1262 1264 0
1263 2262 -1258 0
1263 -2262 1258 0
-1263 -2262 -1258 0
-1263 2262 1258 0
1264 -1265 1271 0
-1264 1265 0
-1264 -1271 0
1265 -1266 1268 0
-1265 1266 0
-1265 -1268 0
1266 -2339 1267 0
-1266 2339 0
-1266 -1267 0
-1267 2265 2266 2267 2338 0
-1267 -2265 -2266 -2267 -2338 0
1267 2266 -2338 0
1267 -2265 2338 0
1267 -2266 2267 0
1267 2265 -2267 0
-1268 -2264 -1269 0
-1268 2264 1269 0
1268 2264 -1269 0
1268 -2264 1269 0
1269 -2265 -1270 0
-1269 2265 0
-1269 1270 0
1270 -2266 -1260 0
-1270 2266 0
-1270 1260 0
1271 2263 -1259 0
1271 -2263 1259 0
-1271 -2263 -1259 0
-1271 2263 1259 0
1272 -1273 1284 0
-1272 1273 0
-1272 -1284 0
1273 1268 -1274 0
-1273 -1268 0
-1273 1274 0
1274 -1275 1278 0
-1274 1275 0
-1274 -1278 0
1275 -2345 1276 0
-1275 2345 0
-1275 -1276 0
-1276 -2339 -1277 0
-1276 2339 1277 0
1276 2339 -1277 0
1276 -2339 1277 0
1277 2267 -2338 0
1277 -2267 2338 0
-1277 -2267 -2338 0
-1277 2267 2338 0
-1278 1279 1280 0
1278 -1279 0
1278 -1280 0
1279 2266 -1260 0
1279 -2266 1260 0
-1279 -2266 -1260 0
-1279 2266 1260 0
-1280 1266 -1282 0
-1280 1281 1266 0
1280 -1266 0
1280 -1281 1282 0
1281 2265 -1270 0
1281 -2265 1270 0
-1281 -2265 -1270 0
-1281 2265 1270 0
1282 1279 -1283 0
-1282 -1279 0
-1282 1283 0
1283 -2339 1277 0
-1283 2339 0
-1283 -1277 0
-1284 1271 1285 0
1284 -1271 0
1284 -1285 0
-1285 -1263 -1264 0
-1285 1263 1264 0
1285 1263 -1264 0
1285 -1263 1264 0
1286 1287 -1288 0
-1286 -1287 0
-1286 1288 0
-1287 -1271 1285 0
-1287 1273 1285 0
-1287 1271 -1273 -1285 0
1287 1273 -1285 0
1287 1271 -1273 1285 0
1287 -1271 -1285 0
1288 1289 -1291 0
-1288 -1289 0
-1288 1291 0
-1289 1271 1290 0
-1289 -1271 -1290 0
1289 -1271 1290 0
1289 1271 -1290 0
-1290 1265 1273 0
1290 -1265 0
1290 -1273 0
1291 -2351 1292 1293 0
-1291 2351 0
-1291 -1292 0
-1291 -1293 0
-1292 2345 1276 0
-1292 -2345 -1276 0
1292 -2345 1276 0
1292 2345 -1276 0
-1293 1294 1295 0
1293 -1294 0
1293 -1295 0
-1294 -1266 -1268 0
-1294 -1268 -1274 0
-1294 1266 1268 1274 0
1294 -1266 1268 0
1294 1268 -1274 0
1294 1266 -1268 1274 0
-1295 1296 1297 0
1295 -1296 0
1295 -1297 0
-1296 -2339 1277 -1279 0
-1296 2339 1279 1275 0
-1296 -1279 -1275 0
-1296 -1277 1279 1275 0
1296 -2339 1277 1279 0
1296 -1277 -1279 1275 0
1296 1279 -1275 0
1296 2339 -1279 1275 0
-1297 -1279 1280 0
-1297 1275 1280 0
-1297 1279 -1275 -1280 0
1297 1275 -1280 0
1297 1279 -1275 1280 0
1297 -1279 -1280 0
-1298 1299 1300 0
-1298 -1299 -1300 0
1298 -1299 1300 0
1298 1299 -1300 0
1299 1256 -1262 0
-1299 -1256 0
-1299 1262 0
-1300 -2260 -1301 0
-1300 2260 1301 0
1300 2260 -1301 0
1300 -2260 1301 0
1301 -2261 -1257 0
-1301 2261 0
-1301 1257 0
1302 2326 -2351 0
1302 -2351 1303 1361 0
-1302 2351 0
-1302 -2326 -1361 0
-1302 -2326 -1303 0
1303 -1304 1353 0
1303 1304 -1353 0
-1303 1304 1353 0
-1303 -1304 -1353 0
1304 -1305 1348 0
-1304 1305 0
-1304 -1348 0
1305 -1306 1335 0
-1305 1306 0
-1305 -1335 0
1306 1307 -1333 0
-1306 -1307 0
-1306 1333 0
-1307 -1308 -1324 0
-1307 1308 1324 0
1307 1308 -1324 0
1307 -1308 1324 0
-1308 2343 1320 0
-1308 -2343 1309 -1320 0
-1308 -1309 1320 0
1308 2343 -1320 0
1308 -1309 -1320 0
1308 -2343 1309 1320 0
-1309 197 1310 1318 0
1309 -197 0
1309 -1310 0
1309 -1318 0
-1310 -1311 -1316 0
-1310 1311 1316 0
1310 1311 -1316 0
1310 -1311 1316 0
1311 1312 -1314 0
-1311 -1312 0
-1311 1314 0
1312 2297 -1313 0
1312 -2297 1313 0
-1312 -2297 -1313 0
-1312 2297 1313 0
1313 -2298 -2337 0
-1313 2298 0
-1313 2337 0
1314 2299 -2339 1315 0
-1314 -2299 0
-1314 2339 0
-1314 -1315 0
1315 2298 -2337 0
1315 -2298 2337 0
-1315 -2298 -2337 0
-1315 2298 2337 0
1316 2296 -1317 0
1316 -2296 1317 0
-1316 -2296 -1317 0
-1316 2296 1317 0
1317 -2297 -2298 -2337 0
-1317 2297 0
-1317 2298 0
-1317 2337 0
-1318 1315 1319 0
1318 -1315 0
1318 -1319 0
-1319 -1312 -1314 0
-1319 1312 1314 0
1319 1312 -1314 0
1319 -1312 1314 0
-1320 -1321 -1322 0
-1320 1321 1322 0
1320 1321 -1322 0
1320 -1321 1322 0
1321 -1311 1316 0
-1321 1311 0
-1321 -1316 0
1322 2295 -1323 0
1322 -2295 1323 0
-1322 -2295 -1323 0
-1322 2295 1323 0
1323 -2296 -1317 0
-1323 2296 0
-1323 1317 0
1324 -1325 1326 0
-1324 1325 0
-1324 -1326 0
1325 -2345 232 0
-1325 2345 0
-1325 -232 0
-1326 1327 1332 0
1326 -1327 0
1326 -1332 0
-1327 1328 1330 0
1327 -1328 0
1327 -1330 0
-1328 1329 1319 0
-1328 -1329 1315 -1319 0
-1328 -1315 1319 0
1328 -1315 -1319 0
1328 1329 -1319 0
1328 -1329 1315 1319 0
1329 -2343 197 0
-1329 2343 0
-1329 -197 0
1330 -1315 1331 0
1330 1315 -1331 0
-1330 1315 1331 0
-1330 -1315 -1331 0
-1331 -2299 1329 0
-1331 2339 1329 0
1331 -1329 0
1331 2299 -2339 0
-1332 2343 1310 0
-1332 -2343 197 -1310 1318 0
-1332 -197 1310 0
-1332 1310 -1318 0
1332 -1310 -1318 0
1332 -2343 197 1310 1318 0
1332 2343 -1310 0
1332 -197 -1310 0
1333 -1334 1326 0
-1333 1334 0
-1333 -1326 0
1334 -2349 256 0
-1334 2349 0
-1334 -256 0
-1335 -1336 1346 0
-1335 1337 1346 0
1335 -1346 0
1335 1336 -1337 0
1336 1308 -1324 0
-1336 -1308 0
-1336 1324 0
-1337 1338 1339 0
-1337 -1338 -1339 0
1337 -1338 1339 0
1337 1338 -1339 0
1338 -2343 1309 1320 0
-1338 2343 0
-1338 -1309 0
-1338 -1320 0
-1339 -1340 1343 0
-1339 1341 1343 0
1339 -1343 0
1339 1340 -1341 0
1340 -1321 1322 0
-1340 1321 0
-1340 -1322 0
1341 2294 -1342 0
1341 -2294 1342 0
-1341 -2294 -1342 0
-1341 2294 1342 0
1342 -2295 -1323 0
-1342 2295 0
-1342 1323 0
1343 -2339 1344 0
-1343 2339 0
-1343 -1344 0
-1344 2294 2295 1323 1345 0
-1344 -2294 -2295 -1323 1345 0
1344 -2295 1323 0
1344 2294 -1323 0
1344 -1345 0
1344 -2294 2295 0
-1345 2299 1312 1315 1316 0
1345 -1316 0
1345 -1315 0
1345 -2299 0
1345 -1312 0
1346 -1324 1347 0
-1346 1324 0
-1346 -1347 0
-1347 1308 1337 0
1347 -1308 0
1347 -1337 0
-1348 1349 1350 0
-1348 -1349 -1350 0
1348 -1349 1350 0
1348 1349 -1350 0
1349 -1338 1339 0
-1349 1338 0
-1349 -1339 0
-1350 -1343 -1351 0
-1350 1343 1351 0
1350 1343 -1351 0
1350 -1343 1351 0
1351 2293 -1352 0
1351 -2293 1352 0
-1351 -2293 -1352 0
-1351 2293 1352 0
1352 -2294 -1342 0
-1352 2294 0
-1352 1342 0
-1353 -1354 -1355 0
-1353 1354 1359 0
1353 -1354 1355 0
1353 1354 -1359 0
1354 -1346 1348 0
-1354 1346 0
-1354 -1348 0
-1355 1356 1357 0
-1355 -1356 -1357 0
1355 -1356 1357 0
1355 1356 -1357 0
1356 -1343 1351 0
-1356 1343 0
-1356 -1351 0
-1357 -2292 -1358 0
-1357 2292 1358 0
1357 2292 -1358 0
1357 -2292 1358 0
1358 -2293 -1352 0
-1358 2293 0
-1358 1352 0
-1359 1360 1355 0
-1359 -1360 -1355 0
1359 -1360 1355 0
1359 1360 -1355 0
1360 -1349 1350 0
-1360 1349 0
-1360 -1350 0
-1361 1335 1362 1364 1368 0
1361 -1368 0
1361 -1335 0
1361 -1364 0
1361 -1362 0
1362 -1348 1363 0
1362 1348 -1363 0
-1362 1348 1363 0
-1362 -1348 -1363 0
-1363 1346 1305 0
1363 -1346 0
1363 -1305 0
-1364 290 1365 1366 0
1364 -290 0
1364 -1365 0
1364 -1366 0
-1365 -1307 -1333 0
-1365 1307 1333 0
1365 1307 -1333 0
1365 -1307 1333 0
-1366 1330 1367 0
-1366 -1330 -1367 0
1366 -1330 1367 0
1366 1330 -1367 0
-1367 1325 1334 0
1367 -1325 0
1367 -1334 0
-1368 1369 1370 0
1368 -1369 0
1368 -1370 0
-1369 -1325 -1328 1330 0
-1369 1325 1334 1328 0
-1369 1328 -1330 0
-1369 -1334 -1328 1330 0
1369 -1325 1328 1330 0
1369 1325 1334 -1328 0
1369 -1328 -1330 0
1369 -1334 1328 1330 0
-1370 1332 1371 0
-1370 -1332 -1371 0
1370 -1332 1371 0
1370 1332 -1371 0
-1371 1372 1374 0
1371 -1372 0
1371 -1374 0
1372 1328 -1373 0
-1372 -1328 0
-1372 1373 0
1373 -1334 1330 0
-1373 1334 0
-1373 -1330 0
1374 -1325 1327 0
-1374 1325 0
-1374 -1327 0
-1375 -2423 1376 0
-1375 -2387 1377 0
-1375 -2387 -2423 0
-1375 1376 1377 0
1375 2423 -1377 0
1375 2387 -1376 0
1376 1154 -1155 0
1376 -1154 1155 0
-1376 -1154 -1155 0
-1376 1154 1155 0
1377 -1378 1460 0
1377 1378 -1460 0
-1377 1378 1460 0
-1377 -1378 -1460 0
1378 -1379 -1447 0
-1378 1379 0
-1378 1447 0
1379 -1380 -1437 0
-1379 1380 0
-1379 1437 0
1380 -1381 -1425 0
-1380 1381 0
-1380 1425 0
1381 -1382 -1414 0
-1381 1382 0
-1381 1414 0
1382 -1383 -1411 0
-1382 1383 0
-1382 1411 0
1383 1384 -1400 0
1383 -1384 1400 0
-1383 -1384 -1400 0
-1383 1384 1400 0
1384 -1385 -1391 0
-1384 1385 0
-1384 1391 0
1385 -2353 -1386 0
-1385 2353 0
-1385 1386 0
1386 2348 -1387 0
1386 -2348 1387 0
-1386 -2348 -1387 0
-1386 2348 1387 0
1387 2347 -1388 0
1387 -2347 1388 0
-1387 -2347 -1388 0
-1387 2347 1388 0
1388 2342 -1389 0
1388 -2342 1389 0
-1388 -2342 -1389 0
-1388 2342 1389 0
1389 2341 -1390 0
1389 -2341 1390 0
-1389 -2341 -1390 0
-1389 2341 1390 0
1390 2283 -2338 0
1390 -2283 2338 0
-1390 -2283 -2338 0
-1390 2283 2338 0
1391 -1392 1397 0
1391 1392 -1397 0
-1391 1392 1397 0
-1391 -1392 -1397 0
1392 -1394 1395 0
1392 1393 1394 -1395 0
1392 2282 -1393 1394 0
-1392 -1394 -1395 0
-1392 1393 1394 1395 0
-1392 -2282 -1393 1394 0
1393 2283 -2338 -2341 0
1393 -2283 2338 -2341 0
-1393 2341 0
-1393 2283 2338 0
-1393 -2283 -2338 0
1394 -2342 -1389 0
-1394 2342 0
-1394 1389 0
1395 2282 -1396 0
1395 -2282 1396 0
-1395 -2282 -1396 0
-1395 2282 1396 0
1396 -2283 -2338 0
-1396 2283 0
-1396 2338 0
-1397 1398 1399 0
1397 -1398 0
1397 -1399 0
1398 -2347 -1388 0
-1398 2347 0
-1398 1388 0
1399 -2348 -1387 0
-1399 2348 0
-1399 1387 0
1400 1401 -1410 0
1400 -1401 1410 0
-1400 -1401 -1410 0
-1400 1401 1410 0
1401 1402 -1408 0
1401 -1402 1408 0
-1401 -1402 -1408 0
-1401 1402 1408 0
1402 1403 -1404 0
1402 -1403 1404 0
-1402 -1403 -1404 0
-1402 1403 1404 0
1403 -1394 -1395 0
-1403 1394 0
-1403 1395 0
1404 1405 -1406 0
1404 -1405 1406 0
-1404 -1405 -1406 0
-1404 1405 1406 0
1405 -2282 -1393 0
-1405 2282 0
-1405 1393 0
1406 2281 -1407 0
1406 -2281 1407 0
-1406 -2281 -1407 0
-1406 2281 1407 0
1407 -2282 -2283 -2338 0
-1407 2282 0
-1407 2283 0
-1407 2338 0
1408 -1398 -1409 0
-1408 1398 0
-1408 1409 0
1409 2282 -1393 0
1409 1393 -1395 0
-1409 -2282 -1393 0
-1409 1393 1395 0
1410 -1399 -1392 0
-1410 1399 0
-1410 1392 0
1411 -1391 -1412 0
-1411 1391 0
-1411 1412 0
1412 -2354 -1413 0
-1412 2354 0
-1412 1413 0
1413 2353 -1386 0
1413 -2353 1386 0
-1413 -2353 -1386 0
-1413 2353 1386 0
1414 -1415 1422 0
1414 1415 -1422 0
-1414 1415 1422 0
-1414 -1415 -1422 0
1415 -1417 1418 0
1415 1416 1417 -1418 0
1415 -1416 1418 0
-1415 -1416 -1418 0
-1415 1416 1417 1418 0
-1415 -1417 -1418 0
1416 -1403 -1404 0
-1416 1403 0
-1416 1404 0
1417 -1402 -1408 0
-1417 1402 0
-1417 1408 0
1418 1419 -1420 0
1418 -1419 1420 0
-1418 -1419 -1420 0
-1418 1419 1420 0
1419 -1405 -1406 0
-1419 1405 0
-1419 1406 0
1420 2280 -1421 0
1420 -2280 1421 0
-1420 -2280 -1421 0
-1420 2280 1421 0
1421 -2281 -1407 0
-1421 2281 0
-1421 1407 0
-1422 1423 1424 0
1422 -1423 0
1422 -1424 0
1423 -1401 -1410 0
-1423 1401 0
-1423 1410 0
1424 -1384 -1400 0
-1424 1384 0
-1424 1400 0
1425 1426 -1427 0
1425 -1426 1427 0
-1425 -1426 -1427 0
-1425 1426 1427 0
1426 -1424 -1415 0
-1426 1424 0
-1426 1415 0
1427 1428 -1429 0
1427 -1428 1429 0
-1427 -1428 -1429 0
-1427 1428 1429 0
1428 -1423 -1415 0
-1428 1423 0
-1428 1415 0
1429 1430 -1431 0
1429 -1430 1431 0
-1429 -1430 -1431 0
-1429 1430 1431 0
1430 -1417 -1418 0
-1430 1417 0
-1430 1418 0
1431 1432 -1433 0
1431 -1432 1433 0
-1431 -1432 -1433 0
-1431 1432 1433 0
1432 -1416 -1418 0
-1432 1416 0
-1432 1418 0
1433 1434 -1435 0
1433 -1434 1435 0
-1433 -1434 -1435 0
-1433 1434 1435 0
1434 -1419 -1420 0
-1434 1419 0
-1434 1420 0
1435 2279 -1436 0
1435 -2279 1436 0
-1435 -2279 -1436 0
-1435 2279 1436 0
1436 -2280 -1421 0
-1436 2280 0
-1436 1421 0
-1437 1438 1444 0
-1437 -1438 -1444 0
1437 -1438 1444 0
1437 1438 -1444 0
-1438 1439 1441 0
-1438 -1439 -1441 0
1438 -1439 1441 0
1438 1439 -1441 0
1439 2278 -1440 0
1439 -2278 1440 0
-1439 -2278 -1440 0
-1439 2278 1440 0
1440 -2279 -1436 0
-1440 2279 0
-1440 1436 0
-1441 1442 1443 0
1441 -1442 0
1441 -1443 0
1442 -1434 -1435 0
-1442 1434 0
-1442 1435 0
1443 -1432 -1433 0
-1443 1432 0
-1443 1433 0
-1444 1445 1446 0
1444 -1445 0
1444 -1446 0
1445 -1430 -1431 0
-1445 1430 0
-1445 1431 0
1446 -1428 -1429 0
-1446 1428 0
-1446 1429 0
1447 1448 -1450 0
1447 -1448 1450 0
-1447 -1448 -1450 0
-1447 1448 1450 0
1448 -1449 -1437 0
-1448 1449 0
-1448 1437 0
1449 -1426 -1427 0
-1449 1426 0
-1449 1427 0
1450 1451 -1452 0
1450 -1451 1452 0
-1450 -1451 -1452 0
-1450 1451 1452 0
1451 -1446 -1438 0
-1451 1446 0
-1451 1438 0
1452 1453 -1454 0
1452 -1453 1454 0
-1452 -1453 -1454 0
-1452 1453 1454 0
1453 -1445 -1438 0
-1453 1445 0
-1453 1438 0
1454 1455 -1456 0
1454 -1455 1456 0
-1454 -1455 -1456 0
-1454 1455 1456 0
1455 -1443 -1439 0
-1455 1443 0
-1455 1439 0
1456 1457 -1458 0
1456 -1457 1458 0
-1456 -1457 -1458 0
-1456 1457 1458 0
1457 -1442 -1439 0
-1457 1442 0
-1457 1439 0
1458 2277 -1459 0
1458 -2277 1459 0
-1458 -2277 -1459 0
-1458 2277 1459 0
1459 -2278 -1440 0
-1459 2278 0
-1459 1440 0
-1460 1461 1462 0
-1460 -1461 -1462 0
1460 -1461 1462 0
1460 1461 -1462 0
-1461 1448 1452 0
-1461 1451 1452 0
-1461 1448 1451 0
1461 -1448 -1451 0
1461 -1451 -1452 0
1461 -1448 -1452 0
-1462 -1463 -1464 0
-1462 1463 1464 0
1462 1463 -1464 0
1462 -1463 1464 0
1463 -1453 -1454 0
-1463 1453 0
-1463 1454 0
1464 1465 -1468 0
1464 -1465 1468 0
-1464 -1465 -1468 0
-1464 1465 1468 0
-1465 1466 1467 0
1465 -1466 0
1465 -1467 0
1466 -1457 -1458 0
-1466 1457 0
-1466 1458 0
1467 -1455 -1456 0
-1467 1455 0
-1467 1456 0
1468 2276 -1469 0
1468 -2276 1469 0
-1468 -2276 -1469 0
-1468 2276 1469 0
1469 -2277 -1459 0
-1469 2277 0
-1469 1459 0
-1470 -2385 1471 0
-1470 -1242 1472 0
-1470 -2385 -1242 0
-1470 1471 1472 0
1470 2385 -1472 0
1470 1242 -1471 0
1471 -2384 1246 0
1471 2384 -1246 0
-1471 2384 1246 0
-1471 -2384 -1246 0
1472 -1243 1244 0
1472 1243 -1244 0
-1472 1243 1244 0
-1472 -1243 -1244 0
-1473 1474 1602 0
-1473 -2392 -1587 1602 0
1473 -1602 0
1473 -1474 1587 0
1473 2392 -1474 0
1474 1475 -1579 0
-1474 -1475 0
-1474 1579 0
1475 1476 -1557 0
1475 -1476 1557 0
-1475 -1476 -1557 0
-1475 1476 1557 0
1476 -1477 -1544 0
-1476 1477 0
-1476 1544 0
1477 1478 -1527 0
1477 -1478 1527 0
-1477 -1478 -1527 0
-1477 1478 1527 0
1478 -1479 -1522 0
-1478 1479 0
-1478 1522 0
1479 -1480 1507 0
1479 1480 -1507 0
-1479 1480 1507 0
-1479 -1480 -1507 0
1480 -1481 -1502 0
-1480 1481 0
-1480 1502 0
1481 1482 -1492 0
1481 -1482 1492 0
-1481 -1482 -1492 0
-1481 1482 1492 0
1482 -1483 -1484 0
-1482 1483 0
-1482 1484 0
1483 -1230 -1232 0
-1483 1230 0
-1483 1232 0
-1484 1485 1489 0
-1484 -1485 -1489 0
1484 -1485 1489 0
1484 1485 -1489 0
1485 1486 -1487 0
1485 -1486 1487 0
-1485 -1486 -1487 0
-1485 1486 1487 0
1486 -1240 -1237 0
-1486 1240 0
-1486 1237 0
1487 2249 -1488 0
1487 -2249 1488 0
-1487 -2249 -1488 0
-1487 2249 1488 0
1488 -2250 -2337 0
1488 -2337 -1239 0
1488 -2250 -1239 0
-1488 2250 1239 0
-1488 2337 1239 0
-1488 2250 2337 0
-1489 1490 1491 0
1489 -1490 0
1489 -1491 0
1490 -1235 -1236 0
-1490 1235 0
-1490 1236 0
1491 -1234 -1236 0
-1491 1234 0
-1491 1236 0
1492 1493 -1494 0
1492 -1493 1494 0
-1492 -1493 -1494 0
-1492 1493 1494 0
1493 -1485 -1490 0
-1493 1485 0
-1493 1490 0
1494 1495 -1496 0
1494 -1495 1496 0
-1494 -1495 -1496 0
-1494 1495 1496 0
1495 -1485 -1491 0
-1495 1485 0
-1495 1491 0
1496 1497 -1498 0
1496 -1497 1498 0
-1496 -1497 -1498 0
-1496 1497 1498 0
1497 -1486 -1487 0
-1497 1486 0
-1497 1487 0
1498 1499 -1501 0
1498 -1499 1501 0
-1498 -1499 -1501 0
-1498 1499 1501 0
1499 2248 -1500 0
1499 -2248 1500 0
-1499 -2248 -1500 0
-1499 2248 1500 0
1500 -2249 -2250 -2337 0
-1500 2249 0
-1500 2250 0
-1500 2337 0
1501 -2249 -1239 -1237 0
-1501 2249 0
-1501 1239 0
-1501 1237 0
1502 -1503 -1506 0
-1502 1503 0
-1502 1506 0
1503 1504 -1505 0
1503 -1504 1505 0
-1503 -1504 -1505 0
-1503 1504 1505 0
1504 -1231 -1232 0
-1504 1231 0
-1504 1232 0
1505 -1483 1484 0
1505 1483 -1484 0
-1505 1483 1484 0
-1505 -1483 -1484 0
1506 -1226 -1228 0
-1506 1226 0
-1506 1228 0
-1507 1508 1518 0
-1507 -1508 -1518 0
1507 -1508 1518 0
1507 1508 -1518 0
1508 1509 -1510 0
1508 -1509 1510 0
-1508 -1509 -1510 0
-1508 1509 1510 0
1509 -1493 -1494 0
-1509 1493 0
-1509 1494 0
1510 -1511 1515 0
1510 1511 -1515 0
-1510 1511 1515 0
-1510 -1511 -1515 0
1511 -1512 1513 0
1511 1512 -1513 0
-1511 1512 1513 0
-1511 -1512 -1513 0
1512 -1499 -1501 0
-1512 1499 0
-1512 1501 0
-1513 -2247 -1514 0
-1513 2247 1514 0
1513 2247 -1514 0
1513 -2247 1514 0
1514 -2248 -2249 -2250 -2337 0
-1514 2337 0
-1514 2248 0
-1514 2250 0
-1514 2249 0
-1515 1516 1517 0
1515 -1516 0
1515 -1517 0
1516 -1497 -1498 0
-1516 1497 0
-1516 1498 0
1517 -1495 -1496 0
-1517 1495 0
-1517 1496 0
-1518 1519 1520 0
1518 -1519 0
1518 -1520 0
1519 -1482 -1492 0
-1519 1482 0
-1519 1492 0
1520 -1481 -1521 0
-1520 1481 0
-1520 1521 0
1521 -1504 -1505 0
-1521 1504 0
-1521 1505 0
1522 -1523 -1526 0
-1522 1523 0
-1522 1526 0
1523 -1524 -1525 0
-1523 1524 0
-1523 1525 0
1524 1503 -1506 0
1524 -1503 1506 0
-1524 -1503 -1506 0
-1524 1503 1506 0
1525 -1227 -1228 0
-1525 1227 0
-1525 1228 0
1526 1481 -1502 0
1526 -1481 1521 1502 0
1526 1481 -1521 0
-1526 -1481 -1521 0
-1526 -1481 -1502 0
-1526 1481 1521 1502 0
1527 1528 -1529 0
1527 -1528 1529 0
-1527 -1528 -1529 0
-1527 1528 1529 0
1528 -1480 -1507 0
-1528 1480 0
-1528 1507 0
1529 1530 -1531 0
1529 -1530 1531 0
-1529 -1530 -1531 0
-1529 1530 1531 0
1530 -1508 -1520 0
-1530 1508 0
-1530 1520 0
1531 1532 -1533 0
1531 -1532 1533 0
-1531 -1532 -1533 0
-1531 1532 1533 0
1532 -1519 -1508 0
-1532 1519 0
-1532 1508 0
1533 1534 -1535 0
1533 -1534 1535 0
-1533 -1534 -1535 0
-1533 1534 1535 0
1534 -1509 -1510 0
-1534 1509 0
-1534 1510 0
1535 1536 -1537 0
1535 -1536 1537 0
-1535 -1536 -1537 0
-1535 1536 1537 0
1536 -1517 -1511 0
-1536 1517 0
-1536 1511 0
1537 1538 -1539 0
1537 -1538 1539 0
-1537 -1538 -1539 0
-1537 1538 1539 0
1538 -1516 -1511 0
-1538 1516 0
-1538 1511 0
1539 1540 -1541 0
1539 -1540 1541 0
-1539 -1540 -1541 0
-1539 1540 1541 0
1540 -1512 -1513 0
-1540 1512 0
-1540 1513 0
1541 2246 -1542 0
1541 -2246 1542 0
-1541 -2246 -1542 0
-1541 2246 1542 0
1542 -2248 -2249 -2337 -1543 0
-1542 1543 0
-1542 2248 0
-1542 2337 0
-1542 2249 0
1543 -2247 -2250 0
-1543 2247 0
-1543 2250 0
1544 -1545 -1551 0
-1544 1545 0
-1544 1551 0
1545 1546 -1547 0
1545 -1546 1547 0
-1545 -1546 -1547 0
-1545 1546 1547 0
1546 1479 -1522 0
1546 -1479 1522 0
-1546 -1479 -1522 0
-1546 1479 1522 0
1547 -1526 -1548 0
-1547 1526 0
-1547 1548 0
1548 -1549 -1550 0
-1548 1549 0
-1548 1550 0
1549 1524 -1525 0
1549 -1524 1525 0
-1549 -1524 -1525 0
-1549 1524 1525 0
1550 -1222 -1224 0
-1550 1222 0
-1550 1224 0
1551 -1552 -1555 0
-1551 1552 0
-1551 1555 0
1552 -1553 -1554 0
-1552 1553 0
-1552 1554 0
1553 1549 -1550 0
1553 -1549 1550 0
-1553 -1549 -1550 0
-1553 1549 1550 0
1554 -1223 -1224 0
-1554 1223 0
-1554 1224 0
1555 -1526 1556 0
1555 1526 -1556 0
-1555 1526 1556 0
-1555 -1526 -1556 0
-1556 1523 1548 0
1556 -1523 0
1556 -1548 0
1557 1558 -1562 0
1557 -1558 1562 0
-1557 -1558 -1562 0
-1557 1558 1562 0
-1558 1559 1560 0
1558 -1559 0
1558 -1560 0
1559 -1478 -1527 0
-1559 1478 0
-1559 1527 0
1560 -1477 -1561 0
-1560 1477 0
-1560 1561 0
1561 -1546 -1547 0
-1561 1546 0
-1561 1547 0
1562 -1563 1566 0
1562 1563 -1566 0
-1562 1563 1566 0
-1562 -1563 -1566 0
-1563 1564 1565 0
1563 -1564 0
1563 -1565 0
1564 -1530 -1531 0
-1564 1530 0
-1564 1531 0
1565 -1528 -1529 0
-1565 1528 0
-1565 1529 0
-1566 -1567 -1568 0
-1566 1567 1568 0
1566 1567 -1568 0
1566 -1567 1568 0
1567 -1532 -1533 0
-1567 1532 0
-1567 1533 0
1568 -1569 1578 0
-1568 1569 0
-1568 -1578 0
-1569 -1570 1571 -1572 0
-1569 1570 1571 1572 0
1569 -1571 0
1569 -1570 1572 0
1569 1570 -1572 0
1570 -1536 -1537 0
-1570 1536 0
-1570 1537 0
1571 -1534 -1535 0
-1571 1534 0
-1571 1535 0
1572 1573 -1574 0
1572 -1573 1574 0
-1572 -1573 -1574 0
-1572 1573 1574 0
1573 -1538 -1539 0
-1573 1538 0
-1573 1539 0
1574 1575 -1576 0
1574 -1575 1576 0
-1574 -1575 -1576 0
-1574 1575 1576 0
1575 -1540 -1541 0
-1575 1540 0
-1575 1541 0
1576 2245 -1577 0
1576 -2245 1577 0
-1576 -2245 -1577 0
-1576 2245 1577 0
1577 -2246 -1542 0
-1577 2246 0
-1577 1542 0
1578 -1571 -1572 0
-1578 1571 0
-1578 1572 0
1579 1580 -1581 0
-1579 -1580 0
-1579 1581 0
1580 1477 -1544 0
1580 -1477 1561 1544 0
1580 1477 -1561 0
-1580 -1477 -1561 0
-1580 -1477 -1544 0
-1580 1477 1561 1544 0
1581 -2358 1582 0
-1581 2358 0
-1581 -1582 0
-1582 1220 1583 1584 1585 0
1582 -1585 0
1582 -1584 0
1582 -1220 0
1582 -1583 0
1583 1545 -1551 0
1583 -1545 1551 0
-1583 -1545 -1551 0
-1583 1545 1551 0
1584 1552 -1555 0
1584 -1552 1555 0
-1584 -1552 -1555 0
-1584 1552 1555 0
-1585 1210 1586 0
1585 -1210 0
1585 -1586 0
1586 1553 -1554 0
1586 -1553 1554 0
-1586 -1553 -1554 0
-1586 1553 1554 0
-1587 -2391 -1588 0
-1587 2391 1588 0
1587 2391 -1588 0
1587 -2391 1588 0
1588 1589 -1590 0
1588 -1589 1590 0
-1588 -1589 -1590 0
-1588 1589 1590 0
1589 -1476 -1557 0
-1589 1476 0
-1589 1557 0
1590 -1591 1592 0
1590 1591 -1592 0
-1590 1591 1592 0
-1590 -1591 -1592 0
1591 -1558 -1562 0
-1591 1558 0
-1591 1562 0
-1592 1593 1594 0
-1592 -1593 -1594 0
1592 -1593 1594 0
1592 1593 -1594 0
1593 -1563 -1566 0
-1593 1563 0
-1593 1566 0
-1594 -1595 -1596 0
-1594 1595 1596 0
1594 1595 -1596 0
1594 -1595 1596 0
-1595 1569 1578 0
-1595 1567 1578 0
1595 -1578 0
1595 -1567 -1569 0
1596 1597 -1598 0
1596 -1597 1598 0
-1596 -1597 -1598 0
-1596 1597 1598 0
-1597 1573 1574 0
-1597 1570 1574 0
-1597 1573 1570 0
1597 -1573 -1570 0
1597 -1570 -1574 0
1597 -1573 -1574 0
1598 -1599 1600 0
1598 1599 -1600 0
-1598 1599 1600 0
-1598 -1599 -1600 0
1599 -1575 -1576 0
-1599 1575 0
-1599 1576 0
-1600 -2244 -1601 0
-1600 2244 1601 0
1600 2244 -1601 0
1600 -2244 1601 0
1601 -2245 -1577 0
-1601 2245 0
-1601 1577 0
-1602 -2392 -2395 -1604 0
-1602 -2392 2395 1604 0
-1602 2395 1603 1604 0
-1602 -2395 1603 -1604 0
1602 2395 -1604 0
1602 -2395 1604 0
1602 2392 -1603 0
1603 -1475 1579 0
-1603 1475 0
-1603 -1579 0
-1604 -1584 -1605 0
-1604 1584 1605 0
1604 1584 -1605 0
1604 -1584 1605 0
1605 -1606 1586 0
-1605 1606 0
-1605 -1586 0
1606 -1209 1220 0
-1606 1209 0
-1606 -1220 0
1607 1608 -1697 2115 2116 0
-1607 -2116 0
-1607 -1608 0
-1607 1697 0
-1607 -2115 0
-1608 2358 1609 0
-1608 1609 -1665 -1666 0
1608 -1609 0
1608 -2358 1666 0
1608 -2358 1665 0
1609 -2358 1610 1654 1660 0
-1609 -1660 0
-1609 2358 0
-1609 -1654 0
-1609 -1610 0
-1610 1611 1646 0
1610 -1611 0
1610 -1646 0
1611 1612 -1638 0
1611 -1612 1638 0
-1611 -1612 -1638 0
-1611 1612 1638 0
1612 -1613 -1634 0
-1612 1613 0
-1612 1634 0
1613 -1614 -1628 0
-1613 1614 0
-1613 1628 0
1614 -1615 -1623 0
-1614 1615 0
-1614 1623 0
1615 -1616 -1619 0
-1615 1616 0
-1615 1619 0
1616 -2353 -1617 0
-1616 2353 0
-1616 1617 0
1617 2347 -1618 0
1617 -2347 1618 0
-1617 -2347 -1618 0
-1617 2347 1618 0
1618 2291 -2341 0
1618 -2291 2341 0
-1618 -2291 -2341 0
-1618 2291 2341 0
1619 -1620 1621 0
1619 1620 -1621 0
-1619 1620 1621 0
-1619 -1620 -1621 0
1620 2290 -2337 0
1620 -2290 2337 0
-1620 -2290 -2337 0
-1620 2290 2337 0
-1621 2291 1622 0
-1621 2341 1622 0
1621 -1622 0
1621 -2291 -2341 0
1622 2291 -2341 -2347 0
1622 -2291 2341 -2347 0
-1622 2347 0
-1622 2291 2341 0
-1622 -2291 -2341 0
1623 1624 -1625 0
1623 -1624 1625 0
-1623 -1624 -1625 0
-1623 1624 1625 0
1624 -1622 -1620 0
-1624 1622 0
-1624 1620 0
1625 -2289 1626 0
1625 2289 -1626 0
-1625 2289 1626 0
-1625 -2289 -1626 0
-1626 2290 1627 0
-1626 2337 1627 0
1626 -1627 0
1626 -2290 -2337 0
1627 -2291 -2341 -1620 0
-1627 2291 0
-1627 2341 0
-1627 1620 0
1628 1629 -1630 0
1628 -1629 1630 0
-1628 -1629 -1630 0
-1628 1629 1630 0
1629 -1624 -1625 0
-1629 1624 0
-1629 1625 0
1630 1631 -1633 0
1630 -1631 1633 0
-1630 -1631 -1633 0
-1630 1631 1633 0
1631 2288 -1632 0
1631 -2288 1632 0
-1631 -2288 -1632 0
-1631 2288 1632 0
1632 -2289 -2290 -2337 0
-1632 2289 0
-1632 2290 0
-1632 2337 0
1633 -2289 -1627 0
-1633 2289 0
-1633 1627 0
1634 2287 1635 -1637 0
1634 -2287 -1635 -1637 0
1634 2287 -1635 1636 1637 0
1634 -2287 -1635 -1636 0
1634 2287 1635 -1636 0
1634 -2287 1635 1636 1637 0
-1634 2287 -1635 -1637 0
-1634 -2287 1635 -1636 0
-1634 -2287 -1635 1636 1637 0
-1634 2287 -1635 -1636 0
-1634 -2287 1635 -1637 0
-1634 2287 1635 1636 1637 0
1635 -2288 -2289 -2290 -2337 0
-1635 2337 0
-1635 2288 0
-1635 2290 0
-1635 2289 0
1636 -1631 -1633 0
-1636 1631 0
-1636 1633 0
1637 -1629 -1630 0
-1637 1629 0
-1637 1630 0
1638 1639 -1641 0
1638 -1639 1641 0
-1638 -1639 -1641 0
-1638 1639 1641 0
1639 -1637 -1640 0
-1639 1637 0
-1639 1640 0
-1640 -2287 -1635 0
-1640 2287 1635 0
1640 2287 -1635 0
1640 -2287 1635 0
1641 1642 -1643 0
1641 -1642 1643 0
-1641 -1642 -1643 0
-1641 1642 1643 0
1642 -1636 -1640 0
-1642 1636 0
-1642 1640 0
1643 2286 -1644 0
1643 -2286 1644 0
-1643 -2286 -1644 0
-1643 2286 1644 0
1644 -2288 -2289 -2337 -1645 0
-1644 1645 0
-1644 2288 0
-1644 2337 0
-1644 2289 0
1645 -2287 -2290 0
-1645 2287 0
-1645 2290 0
-1646 1647 1651 0
-1646 -1647 -1651 0
1646 -1647 1651 0
1646 1647 -1651 0
1647 1648 -1649 0
1647 -1648 1649 0
-1647 -1648 -1649 0
-1647 1648 1649 0
1648 -1642 -1643 0
-1648 1642 0
-1648 1643 0
1649 2285 -1650 0
1649 -2285 1650 0
-1649 -2285 -1650 0
-1649 2285 1650 0
1650 -2286 -1644 0
-1650 2286 0
-1650 1644 0
-1651 1652 1653 0
1651 -1652 0
1651 -1653 0
1652 -1639 -1641 0
-1652 1639 0
-1652 1641 0
1653 -1612 -1638 0
-1653 1612 0
-1653 1638 0
-1654 1655 1656 0
-1654 -1655 -1656 0
1654 -1655 1656 0
1654 1655 -1656 0
1655 -1653 -1647 0
-1655 1653 0
-1655 1647 0
-1656 -1657 -1658 0
-1656 1657 1658 0
1656 1657 -1658 0
1656 -1657 1658 0
1657 -1648 -1652 0
1657 -1652 -1649 0
1657 -1648 -1649 0
-1657 1648 1649 0
-1657 1652 1649 0
-1657 1648 1652 0
1658 2284 -1659 0
1658 -2284 1659 0
-1658 -2284 -1659 0
-1658 2284 1659 0
1659 -2285 -1650 0
-1659 2285 0
-1659 1650 0
-1660 1661 1662 1663 1664 0
1660 -1664 0
1660 -1663 0
1660 -1661 0
1660 -1662 0
1661 1616 -1619 0
1661 -1616 1619 0
-1661 -1616 -1619 0
-1661 1616 1619 0
1662 1614 -1628 0
1662 -1614 1628 0
-1662 -1614 -1628 0
-1662 1614 1628 0
1663 1613 -1634 0
1663 -1613 1634 0
-1663 -1613 -1634 0
-1663 1613 1634 0
1664 1615 -1623 0
1664 -1615 1623 0
-1664 -1615 -1623 0
-1664 1615 1623 0
-1665 1475 1580 1582 1588 0
1665 -1475 0
1665 -1588 0
1665 -1582 0
1665 -1580 0
1666 -378 -1667 -1695 0
1666 -378 -1691 -1695 0
-1666 378 0
-1666 1695 0
-1666 1667 1691 0
-1667 1668 1682 1683 1684 0
1667 -1684 0
1667 -1683 0
1667 -1668 0
1667 -1682 0
1668 -1669 1680 0
1668 1669 -1680 0
-1668 1669 1680 0
-1668 -1669 -1680 0
1669 -1670 -1678 0
-1669 1670 0
-1669 1678 0
1670 -1671 -1676 0
-1670 1671 0
-1670 1676 0
1671 -1672 -1674 0
-1671 1672 0
-1671 1674 0
-1672 -2232 -1673 0
-1672 2232 1673 0
1672 2232 -1673 0
1672 -2232 1673 0
1673 2233 2234 -2337 0
-1673 2337 0
-1673 -2234 0
-1673 -2233 0
1674 2233 2234 -2337 -1675 0
1674 -2233 -2234 2337 -1675 0
-1674 -2233 -2337 0
-1674 2234 2337 0
-1674 1675 0
-1674 2233 -2234 0
1675 -2235 -2357 0
-1675 2235 0
-1675 2357 0
-1676 -2231 -1677 0
-1676 2231 1677 0
1676 2231 -1677 0
1676 -2231 1677 0
1677 2232 -1673 0
-1677 -2232 0
-1677 1673 0
-1678 -2230 -1679 0
-1678 2230 1679 0
1678 2230 -1679 0
1678 -2230 1679 0
1679 2231 -1677 0
-1679 -2231 0
-1679 1677 0
-1680 -2229 -1681 0
-1680 2229 1681 0
1680 2229 -1681 0
1680 -2229 1681 0
1681 2230 -1679 0
-1681 -2230 0
-1681 1679 0
1682 403 -1675 0
1682 -403 1675 0
-1682 -403 -1675 0
-1682 403 1675 0
1683 1672 -1674 0
1683 -1672 1674 0
-1683 -1672 -1674 0
-1683 1672 1674 0
-1684 1685 1686 1690 0
1684 -1685 0
1684 -1690 0
1684 -1686 0
1685 -1670 1678 0
1685 1670 -1678 0
-1685 1670 1678 0
-1685 -1670 -1678 0
1686 1687 -1689 0
1686 -1687 1689 0
-1686 -1687 -1689 0
-1686 1687 1689 0
-1687 -2233 -1688 0
-1687 2233 1688 0
1687 2233 -1688 0
1687 -2233 1688 0
1688 2234 -2337 0
-1688 -2234 0
-1688 2337 0
1689 -2235 -2357 -403 0
-1689 2235 0
-1689 2357 0
-1689 403 0
1690 -1671 1676 0
1690 1671 -1676 0
-1690 1671 1676 0
-1690 -1671 -1676 0
-1691 1692 1693 0
-1691 -1692 -1693 0
1691 -1692 1693 0
1691 1692 -1693 0
1692 -1669 -1680 0
-1692 1669 0
-1692 1680 0
-1693 -2228 -1694 0
-1693 2228 1694 0
1693 2228 -1694 0
1693 -2228 1694 0
1694 2229 -1681 0
-1694 -2229 0
-1694 1681 0
-1695 2272 2273 887 1696 0
1695 -2272 0
1695 -1696 0
1695 -887 0
1695 -2273 0
-1696 2268 2269 2270 2271 0
1696 -2271 0
1696 -2270 0
1696 -2268 0
1696 -2269 0
1697 1242 1698 -1733 0
1697 -1471 1698 -1733 0
-1697 1733 0
-1697 -1698 0
-1697 -1242 1471 0
-1698 2441 1699 1700 1725 0
-1698 -2441 1699 -1700 1725 0
1698 -1725 0
1698 2441 -1700 0
1698 -1699 0
1698 -2441 1700 0
1699 1241 -1247 0
-1699 -1241 0
-1699 1247 0
1700 -1701 1720 0
1700 1701 -1720 0
-1700 1701 1720 0
-1700 -1701 -1720 0
1701 -1702 -1717 0
-1701 1702 0
-1701 1717 0
1702 -1703 -1713 0
-1702 1703 0
-1702 1713 0
1703 -1704 -1709 0
-1703 1704 0
-1703 1709 0
-1704 1705 1707 0
-1704 -1705 -1707 0
1704 -1705 1707 0
1704 1705 -1707 0
1705 -1706 1366 0
-1705 1706 0
-1705 -1366 0
1706 -2355 345 0
-1706 2355 0
-1706 -345 0
-1707 1708 1369 0
-1707 -1708 1366 -1369 0
-1707 -1366 1369 0
1707 1708 -1369 0
1707 -1366 -1369 0
1707 -1708 1366 1369 0
1708 -2351 290 0
-1708 2351 0
-1708 -290 0
1709 -1710 -1711 0
-1709 1710 0
-1709 1711 0
1710 -2358 -1039 0
-1710 2358 0
-1710 1039 0
1711 -1366 1712 0
1711 1366 -1712 0
-1711 1366 1712 0
-1711 -1366 -1712 0
-1712 1708 1706 0
1712 -1708 0
1712 -1706 0
-1713 -1715 1716 0
-1713 1370 1714 1716 0
-1713 -1370 -1714 1716 0
1713 -1716 0
1713 1370 -1714 1715 0
1713 -1370 1714 1715 0
1714 -1708 1366 1369 0
-1714 1708 0
-1714 -1366 0
-1714 -1369 0
1715 -1705 1707 0
-1715 1705 0
-1715 -1707 0
1716 1368 -1705 0
-1716 -1368 0
-1716 1705 0
-1717 1716 1718 0
-1717 -1716 -1718 0
1717 -1716 1718 0
1717 1716 -1718 0
-1718 -1365 -1719 0
-1718 1365 1719 0
1718 1365 -1719 0
1718 -1365 1719 0
1719 1370 -1714 0
-1719 -1370 0
-1719 1714 0
-1720 1721 1722 0
-1720 -1721 -1722 0
1720 -1721 1722 0
1720 1721 -1722 0
1721 -1716 1718 0
-1721 1716 0
-1721 -1718 0
-1722 1335 1723 0
-1722 -1335 -1723 0
1722 -1335 1723 0
1722 1335 -1723 0
-1723 1306 1724 0
1723 -1306 0
1723 -1724 0
1724 1365 -1719 0
-1724 -1365 0
-1724 1719 0
-1725 2396 -2440 1726 -1727 0
-1725 2396 2440 1726 1727 0
-1725 -2396 -2440 -1726 -1727 0
-1725 -2396 2440 -1726 1727 0
1725 -2396 1726 0
1725 2396 -1726 0
1725 2440 -1727 0
1725 -2440 1727 0
-1726 -1606 -1586 0
-1726 1606 1586 0
1726 1606 -1586 0
1726 -1606 1586 0
1727 -1728 1729 0
1727 1728 -1729 0
-1727 1728 1729 0
-1727 -1728 -1729 0
1728 -1701 -1720 0
-1728 1701 0
-1728 1720 0
-1729 1730 1731 0
-1729 -1730 -1731 0
1729 -1730 1731 0
1729 1730 -1731 0
1730 -1721 1722 0
-1730 1721 0
-1730 -1722 0
-1731 -1362 -1732 0
-1731 1362 1732 0
1731 1362 -1732 0
1731 -1362 1732 0
1732 1335 -1724 0
-1732 -1335 0
-1732 1724 0
1733 2385 -2484 -1734 0
1733 -2484 -1472 -1734 0
-1733 1734 0
-1733 2484 0
-1733 -2385 1472 0
1734 2353 1737 -1748 0
1734 -1735 1737 -1748 0
-1734 1748 0
-1734 -1737 0
-1734 -2353 1735 0
1735 -308 -309 0
1735 -308 -1736 0
1735 -308 -1178 0
-1735 308 0
-1735 309 1178 1736 0
-1736 1141 1149 1165 1191 0
1736 -1191 0
1736 -1141 0
1736 -1165 0
1736 -1149 0
-1737 2355 1740 0
-1737 -344 -1738 1740 0
1737 -1740 0
1737 -2355 1738 0
1737 -2355 344 0
-1738 1303 1722 1731 1739 0
1738 -1303 0
1738 -1739 0
1738 -1731 0
1738 -1722 0
-1739 345 1366 1368 1718 0
1739 -1718 0
1739 -345 0
1739 -1368 0
1739 -1366 0
-1740 2424 1741 1742 1745 0
-1740 -2424 -1741 1742 1745 0
1740 -1745 0
1740 -2424 1741 0
1740 -1742 0
1740 2424 -1741 0
1741 1379 -1447 0
1741 -1379 1447 0
-1741 -1379 -1447 0
-1741 1379 1447 0
-1742 2443 1425 1743 1744 0
-1742 -2443 1425 -1743 1744 0
-1742 -2443 -1425 -1743 -1744 0
-1742 2443 -1425 1743 -1744 0
1742 -2443 1743 0
1742 2443 -1743 0
1742 1425 -1744 0
1742 -1425 1744 0
1743 -1703 1713 0
1743 1703 -1713 0
-1743 1703 1713 0
-1743 -1703 -1713 0
-1744 -2426 -1381 0
-1744 2426 1381 0
1744 2426 -1381 0
1744 -2426 1381 0
-1745 2423 1746 1747 0
-1745 -1377 -1746 -1747 0
-1745 2423 -1746 -1747 0
-1745 -1377 1746 1747 0
1745 -1746 1747 0
1745 1746 -1747 0
1745 -2423 1377 0
-1746 1449 1380 0
1746 -1449 0
1746 -1380 0
-1747 2425 1437 0
-1747 -2425 -1437 0
1747 -2425 1437 0
1747 2425 -1437 0
1748 -1376 -1749 2109 0
1748 2387 -1749 2109 0
-1748 1749 0
-1748 -2109 0
-1748 -2387 1376 0
1749 1750 1763 -1771 2091 0
-1749 -2091 0
-1749 -1750 0
-1749 1771 0
-1749 -1763 0
-1750 2431 1751 1758 1760 0
-1750 -2431 -1751 1758 1760 0
1750 -1760 0
1750 2431 -1751 0
1750 -1758 0
1750 -2431 1751 0
-1751 1654 1609 0
-1751 1609 -1752 0
1751 -1609 0
1751 -1654 1752 0
1752 1646 -1753 0
-1752 -1646 0
-1752 1753 0
1753 1611 -1754 0
-1753 -1611 0
-1753 1754 0
1754 1663 -1755 0
-1754 -1663 0
-1754 1755 0
1755 1662 -1756 0
-1755 -1662 0
-1755 1756 0
1756 1664 -1757 0
-1756 -1664 0
-1756 1757 0
1757 -2358 1661 0
-1757 2358 0
-1757 -1661 0
-1758 2409 1759 0
-1758 -2409 -1759 0
1758 -2409 1759 0
1758 2409 -1759 0
-1759 -1287 -1288 0
-1759 1287 1288 0
1759 1287 -1288 0
1759 -1287 1288 0
-1760 -2390 -2433 -1762 0
-1760 -2390 2433 1762 0
-1760 2433 1761 1762 0
-1760 -2433 1761 -1762 0
1760 2433 -1762 0
1760 -2433 1762 0
1760 2390 -1761 0
1761 -2358 806 0
1761 2358 -806 0
-1761 2358 806 0
-1761 -2358 -806 0
-1762 -1611 -1754 0
-1762 1611 1754 0
1762 1611 -1754 0
1762 -1611 1754 0
-1763 2347 1766 0
-1763 -250 -1764 1766 0
1763 -1766 0
1763 -2347 1764 0
1763 -2347 250 0
-1764 1137 1179 1202 1765 0
1764 -1765 0
1764 -1137 0
1764 -1202 0
1764 -1179 0
-1765 49 1120 1170 0
1765 -49 0
1765 -1120 0
1765 -1170 0
-1766 2349 1769 0
-1766 -255 -1767 1769 0
1766 -1769 0
1766 -2349 1767 0
1766 -2349 255 0
-1767 256 1335 1353 1768 0
1767 -1768 0
1767 -256 0
1767 -1353 0
1767 -1335 0
-1768 1326 1307 1348 0
1768 -1326 0
1768 -1307 0
1768 -1348 0
1769 2442 -1770 0
1769 -2442 1770 0
-1769 -2442 -1770 0
-1769 2442 1770 0
1770 -1702 1717 0
1770 1702 -1717 0
-1770 1702 1717 0
-1770 -1702 -1717 0
1771 1772 1773 -1830 2086 0
-1771 -1772 0
-1771 -2086 0
-1771 1830 0
-1771 -1773 0
1772 -1192 1193 0
-1772 1192 0
-1772 -1193 0
-1773 1383 1774 1826 1827 0
-1773 -1383 1774 -1826 1827 0
1773 -1827 0
1773 -1383 1826 0
1773 -1774 0
1773 1383 -1826 0
-1774 2434 1775 1778 1825 0
-1774 -2434 1775 1778 -1825 0
1774 -1775 0
1774 -2434 1825 0
1774 -1778 0
1774 2434 -1825 0
-1775 2410 2445 1776 1777 0
-1775 2410 -2445 -1776 1777 0
-1775 -2410 -2445 -1776 -1777 0
-1775 -2410 2445 1776 -1777 0
1775 -2410 1777 0
1775 2410 -1777 0
1775 -2445 1776 0
1775 2445 -1776 0
1776 1710 -1711 0
1776 -1710 1711 0
-1776 -1710 -1711 0
-1776 1710 1711 0
-1777 1289 -1292 0
-1777 -2351 -1289 1292 1293 0
-1777 2351 1289 0
-1777 1289 -1293 0
1777 -1289 -1293 0
1777 -2351 1289 1292 1293 0
1777 -1289 -1292 0
1777 2351 -1289 0
-1778 2435 1779 1824 0
-1778 -2435 1779 -1824 0
1778 -1779 0
1778 -2435 1824 0
1778 2435 -1824 0
-1779 -2367 -1780 1814 1821 0
-1779 2367 1780 1814 1821 0
1779 -1821 0
1779 2367 -1780 0
1779 -1814 0
1779 -2367 1780 0
-1780 1781 1810 0
-1780 -1781 -1810 0
1780 -1781 1810 0
1780 1781 -1810 0
1781 -1782 -1806 0
-1781 1782 0
-1781 1806 0
1782 -1783 -1791 0
-1782 1783 0
-1782 1791 0
-1783 -1784 -1787 0
-1783 1784 1787 0
1783 1784 -1787 0
1783 -1784 1787 0
1784 2222 -1785 0
1784 -2222 1785 0
-1784 -2222 -1785 0
-1784 2222 1785 0
1785 -2223 -1786 0
-1785 2223 0
-1785 1786 0
1786 -2224 -2225 -2226 -2337 0
-1786 2337 0
-1786 2224 0
-1786 2226 0
-1786 2225 0
1787 -2357 1788 0
-1787 2357 0
-1787 -1788 0
-1788 2223 2224 1789 1790 0
-1788 -2223 -2224 -1789 1790 0
1788 -2224 1789 0
1788 2223 -1789 0
1788 -1790 0
1788 -2223 2224 0
1789 -2225 -2226 -2337 0
-1789 2225 0
-1789 2226 0
-1789 2337 0
-1790 2225 2226 2227 2337 0
-1790 -2225 -2226 2227 -2337 0
1790 2226 -2337 0
1790 -2225 2337 0
1790 -2227 0
1790 2225 -2226 0
1791 -1792 -1797 0
-1791 1792 0
-1791 1797 0
-1792 1787 -1794 0
-1792 1793 1787 0
1792 -1787 0
1792 -1793 1794 0
1793 2223 -1786 0
1793 -2223 1786 0
-1793 -2223 -1786 0
-1793 2223 1786 0
1794 1795 -1796 0
-1794 -1795 0
-1794 1796 0
1795 2224 -1789 0
1795 -2224 1789 0
-1795 -2224 -1789 0
-1795 2224 1789 0
1796 -2357 1790 0
-1796 2357 0
-1796 -1790 0
1797 -1798 -1799 0
-1797 1798 0
-1797 1799 0
-1798 -1795 -1796 0
-1798 1795 1796 0
1798 1795 -1796 0
1798 -1795 1796 0
1799 -1800 -1803 0
-1799 1800 0
-1799 1803 0
-1800 1801 -1802 0
-1800 -2357 -1801 1802 0
-1800 2357 1801 0
1800 -1801 -1802 0
1800 2357 -1801 0
1800 -2357 1801 1802 0
-1801 2225 2337 0
-1801 2225 2226 0
-1801 -2225 -2226 -2337 0
1801 -2225 2226 0
1801 2225 -2226 -2337 0
1801 -2225 2337 0
-1802 -2226 2227 -2337 0
-1802 2226 2227 2337 0
1802 -2227 0
1802 -2226 2337 0
1802 2226 -2337 0
1803 -2358 -1804 0
-1803 2358 0
-1803 1804 0
-1804 2357 1805 0
-1804 2227 -2357 -1805 0
-1804 -2227 1805 0
1804 -2227 -1805 0
1804 2357 -1805 0
1804 2227 -2357 1805 0
1805 2226 -2337 0
1805 -2226 2337 0
-1805 -2226 -2337 0
-1805 2226 2337 0
-1806 -1807 -1808 0
-1806 1807 1808 0
1806 1807 -1808 0
1806 -1807 1808 0
1807 1784 -1787 0
-1807 -1784 0
-1807 1787 0
1808 2221 -1809 0
1808 -2221 1809 0
-1808 -2221 -1809 0
-1808 2221 1809 0
1809 -2222 -1785 0
-1809 2222 0
-1809 1785 0
-1810 1811 1812 0
-1810 -1811 -1812 0
1810 -1811 1812 0
1810 1811 -1812 0
1811 -1807 1808 0
-1811 1807 0
-1811 -1808 0
-1812 -2220 -1813 0
-1812 2220 1813 0
1812 2220 -1813 0
1812 -2220 1813 0
1813 -2221 -1809 0
-1813 2221 0
-1813 1809 0
1814 -1815 1820 0
1814 1815 -1820 0
-1814 1815 1820 0
-1814 -1815 -1820 0
1815 1685 -1816 0
-1815 -1685 0
-1815 1816 0
1816 1690 -1817 0
-1816 -1690 0
-1816 1817 0
1817 1683 -1818 0
-1817 -1683 0
-1817 1818 0
1818 1686 -1819 0
-1818 -1686 0
-1818 1819 0
1819 -2358 1682 0
-1819 2358 0
-1819 -1682 0
-1820 -2376 -1668 0
-1820 2376 1668 0
1820 2376 -1668 0
1820 -2376 1668 0
-1821 -2369 -2436 -1823 0
-1821 -2369 2436 1823 0
-1821 2436 1822 1823 0
-1821 -2436 1822 -1823 0
1821 2436 -1823 0
1821 -2436 1823 0
1821 2369 -1822 0
1822 1783 -1791 0
1822 -1783 1791 0
-1822 -1783 -1791 0
-1822 1783 1791 0
-1823 -1664 -1757 0
-1823 1664 1757 0
1823 1664 -1757 0
1823 -1664 1757 0
-1824 -1662 -1756 0
-1824 1662 1756 0
1824 1662 -1756 0
1824 -1662 1756 0
-1825 -1663 -1755 0
-1825 1663 1755 0
1825 1663 -1755 0
1825 -1663 1755 0
-1826 -2428 -1411 0
-1826 2428 1411 0
1826 2428 -1411 0
1826 -2428 1411 0
-1827 -272 -1828 0
-1827 2350 2407 0
-1827 2350 -1828 0
-1827 2407 -272 0
1827 -2350 272 0
1827 -2407 1828 0
1828 -1298 1829 0
1828 1298 -1829 0
-1828 1298 1829 0
-1828 -1298 -1829 0
-1829 -1256 1254 0
-1829 1272 1254 0
1829 -1254 0
1829 1256 -1272 0
1830 -2398 -1832 -1897 0
1830 1831 -1832 -1897 0
-1830 1897 0
-1830 1832 0
-1830 2398 -1831 0
-1831 -2358 -1210 0
-1831 2358 1210 0
1831 2358 -1210 0
1831 -2358 1210 0
1832 2341 1833 -1841 0
1832 -191 1833 -1841 0
-1832 1841 0
-1832 -1833 0
-1832 -2341 191 0
-1833 2411 1834 1837 0
-1833 -2411 -1834 1837 0
1833 -1837 0
1833 2411 -1834 0
1833 -2411 1834 0
-1834 1294 1291 0
-1834 1291 -1835 0
1834 -1291 0
1834 -1294 1835 0
1835 1295 -1836 0
-1835 -1295 0
-1835 1836 0
1836 -2351 1292 0
-1836 2351 0
-1836 -1292 0
-1837 -2375 -1840 0
-1837 2430 1838 0
-1837 1838 -1840 0
-1837 -2375 2430 0
1837 -2430 1840 0
1837 2375 -1838 0
1838 1691 -1839 0
1838 -1691 1839 0
-1838 -1691 -1839 0
-1838 1691 1839 0
1839 -2358 1667 0
-1839 2358 0
-1839 -1667 0
1840 2354 -1413 0
1840 -2354 1413 0
-1840 -2354 -1413 0
-1840 2354 1413 0
1841 2339 -1846 1893 0
1841 -1842 -1846 1893 0
-1841 -1893 0
-1841 1846 0
-1841 -2339 1842 0
1842 -2310 -1843 -1845 0
1842 -2310 -1844 -1845 0
-1842 2310 0
-1842 1845 0
-1842 1843 1844 0
-1843 1267 1268 1271 0
1843 -1267 0
1843 -1268 0
1843 -1271 0
-1844 2260 2261 2262 1258 0
-1844 -2260 -2261 -2262 -1258 0
1844 2261 -1258 0
1844 -2260 1258 0
1844 -2261 2262 0
1844 2260 -2262 0
-1845 2292 2293 1352 1344 0
-1845 -2292 -2293 -1352 1344 0
1845 -2293 1352 0
1845 2292 -1352 0
1845 -1344 0
1845 -2292 2293 0
1846 2362 -1847 1886 -1887 0
1846 -2362 -1847 -1886 -1887 0
-1846 1887 0
-1846 -2362 1886 0
-1846 1847 0
-1846 2362 -1886 0
1847 648 1848 -1875 1883 0
-1847 -1848 0
-1847 1875 0
-1847 -648 0
-1847 -1883 0
-1848 -2360 678 1849 0
-1848 678 1849 1871 0
1848 -1849 0
1848 -678 0
1848 2360 -1871 0
-1849 2419 1850 1861 1863 0
-1849 -2419 1850 -1861 1863 0
1849 -1863 0
1849 -2419 1861 0
1849 -1850 0
1849 2419 -1861 0
-1850 -2451 1851 -1858 0
-1850 2451 1851 1858 0
1850 -1851 0
1850 -2451 1858 0
1850 2451 -1858 0
1851 2308 -2337 0
1851 -2337 1852 0
1851 -2337 1854 0
-1851 2337 0
-1851 -2308 -1852 -1854 0
-1852 2215 131 1853 0
1852 -1853 0
1852 -131 0
1852 -2215 0
-1853 2216 2217 2218 2219 0
1853 -2219 0
1853 -2218 0
1853 -2216 0
1853 -2217 0
1854 -134 -1856 0
1854 -2221 -1856 0
1854 -1855 -1856 0
-1854 1856 0
-1854 2221 134 1855 0
-1855 2220 2222 2223 2224 0
1855 -2224 0
1855 -2223 0
1855 -2220 0
1855 -2222 0
-1856 2236 2237 2238 1857 0
1856 -1857 0
1856 -2238 0
1856 -2236 0
1856 -2237 0
-1857 2239 2240 72 0
1857 -72 0
1857 -2240 0
1857 -2239 0
1858 2304 -1859 0
1858 -2304 1859 0
-1858 -2304 -1859 0
-1858 2304 1859 0
1859 -2305 -1860 0
-1859 2305 0
-1859 1860 0
1860 -2306 -2307 -2357 0
-1860 2306 0
-1860 2307 0
-1860 2357 0
-1861 2272 -2273 0
-1861 2272 1862 0
-1861 -2272 2273 -1862 0
1861 -2272 -2273 0
1861 -2272 1862 0
1861 2272 2273 -1862 0
1862 -2358 887 0
-1862 2358 0
-1862 -887 0
-1863 635 1864 1865 1866 0
1863 -635 0
1863 -1866 0
1863 -1865 0
1863 -1864 0
-1864 -2322 -2469 1072 0
-1864 2322 2469 1072 0
1864 -1072 0
1864 -2322 2469 0
1864 2322 -2469 0
-1865 -2331 -2478 654 0
-1865 2331 2478 654 0
1865 -654 0
1865 -2331 2478 0
1865 2331 -2478 0
-1866 2453 1867 1868 1869 0
-1866 -2453 1867 1868 -1869 0
1866 -1867 0
1866 2453 -1869 0
1866 -1868 0
1866 -2453 1869 0
1867 -2472 14 0
-1867 2472 0
-1867 -14 0
1868 -2475 10 0
-1868 2475 0
-1868 -10 0
1869 2306 -1870 0
1869 -2306 1870 0
-1869 -2306 -1870 0
-1869 2306 1870 0
1870 -2307 -2357 0
-1870 2307 0
-1870 2357 0
-1871 -2213 -1872 0
-1871 2213 1872 0
1871 2213 -1872 0
1871 -2213 1872 0
1872 2214 -1873 0
-1872 -2214 0
-1872 1873 0
1873 2215 -1874 0
-1873 -2215 0
-1873 1874 0
1874 -2337 1853 0
-1874 2337 0
-1874 -1853 0
-1875 1876 1879 1881 1882 0
1875 -1882 0
1875 -1876 0
1875 -1881 0
1875 -1879 0
-1876 2343 2348 1877 1878 0
1876 -2343 0
1876 -1878 0
1876 -1877 0
1876 -2348 0
-1877 2338 2339 2342 2347 0
1877 -2347 0
1877 -2342 0
1877 -2338 0
1877 -2339 0
-1878 2346 2349 2350 0
1878 -2346 0
1878 -2350 0
1878 -2349 0
-1879 2337 2340 2341 1880 0
1879 -1880 0
1879 -2341 0
1879 -2337 0
1879 -2340 0
-1880 2356 2357 0
1880 -2356 0
1880 -2357 0
-1881 2344 2345 2352 2358 0
1881 -2358 0
1881 -2352 0
1881 -2344 0
1881 -2345 0
-1882 2351 2353 2354 2355 0
1882 -2355 0
1882 -2354 0
1882 -2351 0
1882 -2353 0
-1883 710 1884 -1885 0
-1883 2361 710 1884 0
1883 -1884 0
1883 -710 0
1883 -2361 1885 0
1884 2228 -1694 0
-1884 -2228 0
-1884 1694 0
-1885 -2214 -1873 0
-1885 2214 1873 0
1885 2214 -1873 0
1885 -2214 1873 0
-1886 -2215 -1874 0
-1886 2215 1874 0
1886 2215 -1874 0
1886 -2215 1874 0
1887 2373 -1888 -1889 1892 0
1887 -2373 -1888 -1889 -1892 0
-1887 1888 0
-1887 2373 -1892 0
-1887 1889 0
-1887 -2373 1892 0
-1888 21 681 0
1888 -21 0
1888 -681 0
1889 -1890 -1891 0
1889 2381 -1890 0
-1889 1890 0
-1889 -2381 1891 0
-1890 2325 651 0
1890 -2325 0
1890 -651 0
-1891 -2358 -1682 0
-1891 2358 1682 0
1891 2358 -1682 0
1891 -2358 1682 0
1892 -2358 1804 0
1892 2358 -1804 0
-1892 2358 1804 0
-1892 -2358 -1804 0
-1893 -2430 1894 0
-1893 1840 1894 0
1893 -1894 0
1893 2430 -1840 0
-1894 -2368 1200 1895 0
-1894 1200 1895 1896 0
1894 -1895 0
1894 -1200 0
1894 2368 -1896 0
1895 -1360 1355 0
-1895 1360 0
-1895 -1355 0
1896 -1782 1806 0
1896 1782 -1806 0
-1896 1782 1806 0
-1896 -1782 -1806 0
1897 2342 -1899 0
1897 -1898 -1206 -1899 0
-1897 1899 0
-1897 -2342 1206 0
-1897 -2342 1898 0
-1898 2313 2341 0
1898 -2313 0
1898 -2341 0
1899 1205 1900 1902 -1967 0
-1899 -1205 0
-1899 1967 0
-1899 -1902 0
-1899 -1900 0
-1900 2390 2446 1901 0
-1900 -2446 -1761 -1901 0
-1900 2390 -2446 -1901 0
-1900 2446 -1761 1901 0
1900 2446 -1901 0
1900 -2446 1901 0
1900 -2390 1761 0
1901 -2358 1039 0
1901 2358 -1039 0
-1901 2358 1039 0
-1901 -2358 -1039 0
-1902 2375 1903 1962 0
-1902 -1838 1903 1962 0
1902 -1962 0
1902 -1903 0
1902 -2375 1838 0
-1903 2412 1904 1940 0
-1903 1904 1940 -1961 0
1903 -1940 0
1903 -1904 0
1903 -2412 1961 0
-1904 2400 1905 1921 1935 0
-1904 -2400 1905 1921 -1935 0
1904 -1905 0
1904 -2400 1935 0
1904 -1921 0
1904 2400 -1935 0
-1905 2414 1906 1907 1909 0
-1905 -2414 -1906 1907 1909 0
1905 -1909 0
1905 2414 -1906 0
1905 -1907 0
1905 -2414 1906 0
-1906 2351 1292 0
-1906 -2351 -1292 0
1906 -2351 1292 0
1906 2351 -1292 0
-1907 2379 1908 0
-1907 -2379 -1908 0
1907 -2379 1908 0
1907 2379 -1908 0
-1908 -1683 -1818 0
-1908 1683 1818 0
1908 1683 -1818 0
1908 -1683 1818 0
-1909 2416 1910 1911 1915 0
-1909 -2416 1910 -1911 1915 0
1909 -1910 0
1909 -2416 1911 0
1909 -1915 0
1909 2416 -1911 0
1910 2361 -1885 0
-1910 -2361 0
-1910 1885 0
-1911 -2269 -1912 0
-1911 2269 1912 0
1911 2269 -1912 0
1911 -2269 1912 0
1912 2270 -1913 0
-1912 -2270 0
-1912 1913 0
1913 2271 -1914 0
-1913 -2271 0
-1913 1914 0
1914 2272 2273 -1862 0
-1914 1862 0
-1914 -2273 0
-1914 -2272 0
1915 -1916 1918 0
1915 1916 -1918 0
-1915 1916 1918 0
-1915 -1916 -1918 0
1916 -2338 1917 0
-1916 2338 0
-1916 -1917 0
-1917 2257 2258 2259 2337 0
-1917 -2257 -2258 2259 -2337 0
1917 2258 -2337 0
1917 -2257 2337 0
1917 -2259 0
1917 2257 -2258 0
-1918 -2403 -1919 0
-1918 2403 1919 0
1918 2403 -1919 0
1918 -2403 1919 0
1919 2256 -1920 0
1919 -2256 1920 0
-1919 -2256 -1920 0
-1919 2256 1920 0
1920 -2257 -2258 -2337 0
-1920 2257 0
-1920 2258 0
-1920 2337 0
-1921 -1296 -1922 1923 1928 0
-1921 1296 1922 1923 1928 0
1921 -1928 0
1921 1296 -1922 0
1921 -1923 0
1921 -1296 1922 0
-1922 -2413 -1836 0
-1922 2413 1836 0
1922 2413 -1836 0
1922 -2413 1836 0
-1923 2417 2449 1924 1927 0
-1923 2417 -2449 -1924 1927 0
-1923 -2417 -2449 -1924 -1927 0
-1923 -2417 2449 1924 -1927 0
1923 -2417 1927 0
1923 2417 -1927 0
1923 -2449 1924 0
1923 2449 -1924 0
1924 2302 -1925 0
1924 -2302 1925 0
-1924 -2302 -1925 0
-1924 2302 1925 0
1925 -2303 -1926 0
-1925 2303 0
-1925 1926 0
1926 -2304 -2305 -1860 0
-1926 2304 0
-1926 2305 0
-1926 1860 0
-1927 -2270 -1913 0
-1927 2270 1913 0
1927 2270 -1913 0
1927 -2270 1913 0
1928 -1929 1931 0
1928 1929 -1931 0
-1928 1929 1931 0
-1928 -1929 -1931 0
1929 -2338 1930 0
-1929 2338 0
-1929 -1930 0
-1930 2255 2256 1920 1917 0
-1930 -2255 -2256 -1920 1917 0
1930 -2256 1920 0
1930 2255 -1920 0
1930 -1917 0
1930 -2255 2256 0
-1931 -2401 -1932 0
-1931 2401 1932 0
1931 2401 -1932 0
1931 -2401 1932 0
1932 2254 -1933 0
1932 -2254 1933 0
-1932 -2254 -1933 0
-1932 2254 1933 0
1933 -2255 -1934 0
-1933 2255 0
-1933 1934 0
1934 -2256 -1920 0
-1934 2256 0
-1934 1920 0
-1935 -1936 -1938 0
-1935 1936 1938 0
1935 1936 -1938 0
1935 -1936 1938 0
1936 -2338 1937 0
-1936 2338 0
-1936 -1937 0
-1937 1930 1932 0
1937 -1930 0
1937 -1932 0
1938 2253 -1939 0
1938 -2253 1939 0
-1938 -2253 -1939 0
-1938 2253 1939 0
1939 -2254 -1933 0
-1939 2254 0
-1939 1933 0
-1940 2370 1942 1950 0
-1940 -1941 1942 1950 0
1940 -1950 0
1940 -1942 0
1940 -2370 1941 0
1941 1792 -1797 0
1941 -1792 1797 0
-1941 -1792 -1797 0
-1941 1792 1797 0
-1942 -2418 1943 -1945 1946 0
-1942 2418 1943 1945 1946 0
1942 -1943 0
1942 -2418 1945 0
1942 -1946 0
1942 2418 -1945 0
1943 -2359 1944 0
-1943 2359 0
-1943 -1944 0
-1944 2212 -2213 0
-1944 2212 1872 0
-1944 -2212 2213 -1872 0
1944 -2212 -2213 0
1944 -2212 1872 0
1944 2212 2213 -1872 0
-1945 -2271 -1914 0
-1945 2271 1914 0
1945 2271 -1914 0
1945 -2271 1914 0
-1946 2450 676 1947 1949 0
-1946 -2450 676 1947 -1949 0
1946 -676 0
1946 2450 -1949 0
1946 -1947 0
1946 -2450 1949 0
-1947 708 1948 0
-1947 -2438 708 0
1947 -708 0
1947 2438 -1948 0
1948 2353 -1617 0
1948 -2353 1617 0
-1948 -2353 -1617 0
-1948 2353 1617 0
1949 2303 -1926 0
1949 -2303 1926 0
-1949 -2303 -1926 0
-1949 2303 1926 0
-1950 2357 1952 0
-1950 -2336 -1951 1952 0
1950 -1952 0
1950 -2357 1951 0
1950 2336 -2357 0
-1951 1784 1788 1808 1812 0
1951 -1788 0
1951 -1808 0
1951 -1784 0
1951 -1812 0
-1952 1953 1955 1958 0
-1952 -1955 -1957 1958 0
1952 -1958 0
1952 -1953 1955 0
1952 -1955 1957 0
-1953 -2301 1954 0
-1953 2448 1954 0
1953 -1954 0
1953 2301 -2448 0
1954 2300 -2447 0
1954 -2300 2447 0
-1954 -2300 -2447 0
-1954 2300 2447 0
-1955 -2448 1956 0
-1955 2301 -1954 0
-1955 2301 1956 0
-1955 -2448 -1954 0
1955 -2301 2448 0
1955 -1956 1954 0
1956 -2302 -1925 0
-1956 2302 0
-1956 1925 0
1957 -1956 -1953 0
-1957 1956 0
-1957 1953 0
1958 1959 -1960 0
1958 -1959 1960 0
-1958 -1959 -1960 0
-1958 1959 1960 0
1959 2269 -1912 0
-1959 -2269 0
-1959 1912 0
1960 2268 -2415 0
1960 -2268 2415 0
-1960 -2268 -2415 0
-1960 2268 2415 0
-1961 1297 1836 0
-1961 1296 -1297 -1836 0
-1961 -1296 1297 0
1961 -1297 1836 0
1961 -1296 -1297 0
1961 1296 1297 -1836 0
-1962 2343 1963 1964 0
-1962 -196 -1963 -1964 0
-1962 -196 1963 1964 0
-1962 2343 -1963 -1964 0
1962 1963 -1964 0
1962 -1963 1964 0
1962 -2343 196 0
1963 -1936 1938 0
-1963 1936 0
-1963 -1938 0
-1964 2399 1965 0
-1964 -2399 -1965 0
1964 -2399 1965 0
1964 2399 -1965 0
-1965 -2252 -1966 0
-1965 2252 1966 0
1965 2252 -1966 0
1965 -2252 1966 0
1966 -2253 -1939 0
-1966 2253 0
-1966 1939 0
1967 2368 -1968 -2068 0
1967 -1896 -1968 -2068 0
-1967 2068 0
-1967 1968 0
-1967 -2368 1896 0
1968 -2412 -1969 2066 0
1968 1961 -1969 2066 0
-1968 -2066 0
-1968 1969 0
-1968 2412 -1961 0
1969 2369 -1970 -2012 0
1969 -1822 -1970 -2012 0
-1969 2012 0
-1969 1970 0
-1969 -2369 1822 0
1970 659 -1971 1996 -2003 0
-1970 -659 0
-1970 2003 0
-1970 -1996 0
-1970 1971 0
1971 1972 1973 1974 -1978 0
-1971 -1972 0
-1971 1978 0
-1971 -1974 0
-1971 -1973 0
1972 2467 -687 0
-1972 -2467 0
-1972 687 0
1973 2479 -711 0
-1973 -2479 0
-1973 711 0
-1974 2480 7 1975 1976 0
-1974 -2480 -7 1975 1976 0
1974 -1975 0
1974 2480 -7 0
1974 -1976 0
1974 -2480 7 0
1975 2473 -701 0
-1975 -2473 0
-1975 701 0
-1976 -2475 1977 0
-1976 10 1977 0
1976 -1977 0
1976 2475 -10 0
1977 -2468 17 0
-1977 2468 0
-1977 -17 0
1978 1979 -1980 1991 1993 0
-1978 -1979 0
-1978 -1993 0
-1978 -1991 0
-1978 1980 0
1979 -2323 -650 0
-1979 2323 0
-1979 650 0
1980 -2454 1981 -1988 -1990 0
1980 2454 1981 -1988 1990 0
-1980 -1981 0
-1980 2454 -1990 0
-1980 1988 0
-1980 -2454 1990 0
-1981 2382 1982 1985 0
-1981 1982 1985 -1987 0
1981 -1985 0
1981 -1982 0
1981 -2382 1987 0
-1982 647 1984 0
-1982 2322 1983 1984 0
1982 -1984 0
1982 -1983 -647 0
1982 -2322 -647 0
1983 -2319 -2320 0
1983 -2318 -2320 0
-1983 2320 0
-1983 2318 2319 0
-1984 2310 248 0
-1984 2311 248 0
1984 -248 0
1984 -2310 -2311 0
-1985 1986 -1860 0
-1985 -2305 -2452 1986 0
-1985 2305 2452 1986 0
1985 -1986 0
1985 -2305 2452 1860 0
1985 2305 -2452 1860 0
1986 -2457 26 0
-1986 2457 0
-1986 -26 0
1987 2235 -2357 0
1987 -2235 2357 0
-1987 -2235 -2357 0
-1987 2235 2357 0
1988 646 667 684 -1989 0
-1988 1989 0
-1988 -684 0
-1988 -646 0
-1988 -667 0
1989 -2308 -2309 -2336 -378 0
-1989 378 0
-1989 2308 0
-1989 2336 0
-1989 2309 0
1990 2307 -2357 0
1990 -2307 2357 0
-1990 -2307 -2357 0
-1990 2307 2357 0
-1991 2473 638 1992 0
-1991 638 -701 1992 0
1991 -1992 0
1991 -638 0
1991 -2473 701 0
1992 2468 -17 0
-1992 -2468 0
-1992 17 0
-1993 2323 2470 1069 1994 0
-1993 -2323 -2470 1069 1994 0
1993 -1994 0
1993 -2323 2470 0
1993 -1069 0
1993 2323 -2470 0
-1994 -2483 1995 0
-1994 2336 1995 0
1994 -1995 0
1994 -2336 2483 0
-1995 -2309 -2456 0
-1995 2309 2456 0
1995 2309 -2456 0
1995 -2309 2456 0
-1996 2334 2481 1997 2000 0
-1996 -2334 -2481 1997 2000 0
1996 -2000 0
1996 -2334 2481 0
1996 -1997 0
1996 2334 -2481 0
-1997 2314 1998 1999 0
-1997 -2461 1998 1999 0
1997 -1999 0
1997 -1998 0
1997 -2314 2461 0
1998 -2318 -2319 0
-1998 2318 0
-1998 2319 0
1999 -2326 -2327 0
-1999 2326 0
-1999 2327 0
-2000 2001 1080 1082 2002 0
2000 -2001 0
2000 -2002 0
2000 -1082 0
2000 -1080 0
2001 2314 -2461 0
-2001 -2314 0
-2001 2461 0
2002 2336 -2483 0
-2002 -2336 0
-2002 2483 0
2003 -2004 672 689 2005 0
-2003 -2005 0
-2003 -689 0
-2003 2004 0
-2003 -672 0
-2004 2317 642 0
2004 -2317 0
2004 -642 0
-2005 -2405 674 2006 -2009 0
-2005 2405 674 2006 2009 0
2005 -674 0
2005 -2405 2009 0
2005 -2006 0
2005 2405 -2009 0
-2006 2364 657 702 2007 0
-2006 -2364 657 702 -2007 0
2006 -657 0
2006 -2364 2007 0
2006 -702 0
2006 2364 -2007 0
-2007 2217 -2218 0
-2007 2217 2008 0
-2007 -2217 2218 -2008 0
2007 -2217 -2218 0
2007 -2217 2008 0
2007 2217 2218 -2008 0
2008 2219 -2337 0
-2008 -2219 0
-2008 2337 0
-2009 -2010 -2011 0
-2009 2010 2011 0
2009 2010 -2011 0
2009 -2010 2011 0
2010 2259 -2338 0
-2010 -2259 0
-2010 2338 0
2011 2258 -2337 0
2011 -2258 2337 0
-2011 -2258 -2337 0
-2011 2258 2337 0
2012 713 -2013 -2014 -2023 0
-2012 -713 0
-2012 2023 0
-2012 2014 0
-2012 2013 0
2013 -14 698 0
2013 14 -698 0
-2013 14 698 0
-2013 -14 -698 0
2014 2333 -661 2015 2020 0
2014 -2333 661 2015 2020 0
-2014 -2015 0
-2014 2333 661 0
-2014 -2020 0
-2014 -2333 -661 0
2015 -2016 2017 0
2015 2016 -2017 0
-2015 2016 2017 0
-2015 -2016 -2017 0
2016 2259 -2338 2011 0
-2016 -2259 0
-2016 2338 0
-2016 -2011 0
-2017 -2404 -2018 0
-2017 2404 2018 0
2017 2404 -2018 0
2017 -2404 2018 0
2018 2257 -2019 0
2018 -2257 2019 0
-2018 -2257 -2019 0
-2018 2257 2019 0
2019 -2258 -2337 0
-2019 2258 0
-2019 2337 0
-2020 2438 2021 2022 0
-2020 2021 -1948 2022 0
2020 -2022 0
2020 -2021 0
2020 -2438 1948 0
2021 -21 -681 0
-2021 21 0
-2021 681 0
-2022 -2381 693 0
-2022 693 1891 0
2022 -693 0
2022 2381 -1891 0
2023 2024 2053 2058 -2061 0
-2023 2061 0
-2023 -2024 0
-2023 -2058 0
-2023 -2053 0
-2024 695 2025 2032 2037 0
2024 -695 0
2024 -2037 0
2024 -2032 0
2024 -2025 0
-2025 -2420 2026 2027 -2031 0
-2025 2420 2026 2027 2031 0
2025 -2026 0
2025 -2420 2031 0
2025 -2027 0
2025 2420 -2031 0
2026 -2325 -651 0
-2026 2325 0
-2026 651 0
-2027 2464 21 2028 2029 0
-2027 -2464 -21 2028 2029 0
2027 -2028 0
2027 2464 -21 0
2027 -2029 0
2027 -2464 21 0
2028 2275 -2358 2422 0
2028 -2275 2358 2422 0
-2028 -2422 0
-2028 2275 2358 0
-2028 -2275 -2358 0
-2029 2275 -2358 0
-2029 2422 2030 0
-2029 -2275 2358 2030 0
2029 -2275 -2030 0
2029 2275 2358 -2422 0
2029 2358 -2030 0
2029 -2275 -2358 -2422 0
2030 2274 -2421 0
2030 -2274 2421 0
-2030 -2274 -2421 0
-2030 2274 2421 0
-2031 -2273 -1862 0
-2031 2273 1862 0
2031 2273 -1862 0
2031 -2273 1862 0
-2032 2363 2033 2035 0
-2032 -2363 2033 -2035 0
2032 -2033 0
2032 -2363 2035 0
2032 2363 -2035 0
-2033 2219 -2337 0
-2033 2366 2034 0
-2033 -2219 2337 2034 0
2033 -2219 -2034 0
2033 2219 2337 -2366 0
2033 2337 -2034 0
2033 -2219 -2337 -2366 0
2034 2218 -2365 0
2034 -2218 2365 0
-2034 -2218 -2365 0
-2034 2218 2365 0
-2035 1874 -2036 0
-2035 2216 1874 0
2035 -1874 0
2035 -2216 2036 0
2036 2217 2218 -2008 0
-2036 2008 0
-2036 -2218 0
-2036 -2217 0
-2037 2360 2038 2047 0
-2037 -1871 2038 2047 0
2037 -2047 0
2037 -2038 0
2037 -2360 1871 0
-2038 700 2039 2043 2045 0
2038 -2045 0
2038 -700 0
2038 -2043 0
2038 -2039 0
-2039 1070 2040 2041 2042 0
2039 -2042 0
2039 -2041 0
2039 -1070 0
2039 -2040 0
2040 2465 -685 0
-2040 -2465 0
-2040 685 0
2041 -2467 687 0
-2041 2467 0
-2041 -687 0
-2042 636 655 669 686 0
2042 -686 0
2042 -669 0
2042 -636 0
2042 -655 0
-2043 2008 2044 0
-2043 2218 -2365 2044 0
-2043 -2218 2365 2044 0
2043 -2044 0
2043 2218 2365 -2008 0
2043 -2218 -2365 -2008 0
-2044 2374 2466 19 767 0
-2044 2374 -2466 -19 767 0
-2044 -2374 -2466 -19 -767 0
-2044 -2374 2466 19 -767 0
2044 -2374 767 0
2044 2374 -767 0
2044 -2466 19 0
2044 2466 -19 0
-2045 -2382 -2030 0
-2045 2046 1987 0
-2045 1987 -2030 0
-2045 -2382 2046 0
2045 -2046 2030 0
2045 2382 -1987 0
2046 2275 -2358 0
-2046 -2275 0
-2046 2358 0
-2047 691 706 855 2048 0
2047 -691 0
2047 -2048 0
2047 -855 0
2047 -706 0
-2048 2460 24 2049 2050 0
-2048 -2460 -24 2049 2050 0
2048 -2049 0
2048 2460 -24 0
2048 -2050 0
2048 -2460 24 0
2049 -2459 670 0
-2049 2459 0
-2049 -670 0
-2050 -2459 2051 2052 0
-2050 670 2051 2052 0
2050 -2052 0
2050 -2051 0
2050 2459 -670 0
2051 2457 -26 0
-2051 -2457 0
-2051 26 0
2052 -2463 679 0
-2052 2463 0
-2052 -679 0
-2053 2054 640 2055 2056 0
2053 -2056 0
2053 -2055 0
2053 -2054 0
2053 -640 0
2054 -2311 -2312 0
2054 -2310 -2312 0
-2054 2312 0
-2054 2310 2311 0
2055 -2327 -2328 0
2055 -2326 -2328 0
-2055 2328 0
-2055 2326 2327 0
-2056 2057 1860 0
-2056 2305 -2452 2057 0
-2056 -2305 2452 2057 0
2056 -2057 0
2056 2305 2452 -1860 0
2056 -2305 -2452 -1860 0
2057 -2465 685 0
-2057 2465 0
-2057 -685 0
-2058 2474 12 1077 2059 0
-2058 -2474 -12 1077 2059 0
2058 -2059 0
2058 -2474 12 0
2058 -1077 0
2058 2474 -12 0
-2059 2479 2060 1079 0
-2059 -711 2060 1079 0
2059 -1079 0
2059 -2060 0
2059 -2479 711 0
2060 2472 -14 0
-2060 -2472 0
-2060 14 0
2061 2062 2063 2064 -2065 0
-2061 2065 0
-2061 -2064 0
-2061 -2062 0
-2061 -2063 0
2062 -2317 -642 0
-2062 2317 0
-2062 642 0
2063 2219 -2337 2366 0
2063 -2219 2337 2366 0
-2063 -2366 0
-2063 2219 2337 0
-2063 -2219 -2337 0
2064 2463 -679 0
-2064 -2463 0
-2064 679 0
2065 -2485 189 306 0
-2065 2485 0
-2065 -306 0
-2065 -189 0
-2066 -2370 -2377 -2067 0
-2066 -2370 2377 2067 0
-2066 2377 1941 2067 0
-2066 -2377 1941 -2067 0
2066 2377 -2067 0
2066 -2377 2067 0
2066 2370 -1941 0
-2067 -1685 -1816 0
-2067 1685 1816 0
2067 1685 -1816 0
2067 -1685 1816 0
2068 2437 2069 -2080 2085 0
2068 -2437 2069 -2080 -2085 0
-2068 -2069 0
-2068 -2437 2085 0
-2068 2080 0
-2068 2437 -2085 0
-2069 2371 2070 2074 2079 0
-2069 -2371 2070 2074 -2079 0
2069 -2070 0
2069 2371 -2079 0
2069 -2074 0
2069 -2371 2079 0
2070 2309 -2338 0
2070 -2338 2071 0
2070 -2338 2073 0
-2070 2338 0
-2070 -2309 -2071 -2073 0
-2071 2236 62 1184 2072 0
2071 -2236 0
2071 -2072 0
2071 -1184 0
2071 -62 0
-2072 2238 2241 1124 1126 0
2072 -2238 0
2072 -1126 0
2072 -1124 0
2072 -2241 0
-2073 2252 2253 1939 1937 0
-2073 -2252 -2253 -1939 1937 0
2073 -2253 1939 0
2073 2252 -1939 0
2073 -1937 0
2073 -2252 2253 0
-2074 -2372 2075 2076 -2078 0
-2074 -2372 -2075 -2076 -2078 0
-2074 2372 2075 2076 2078 0
-2074 2372 -2075 -2076 2078 0
2074 -2075 2076 0
2074 2075 -2076 0
2074 2372 -2078 0
2074 -2372 2078 0
2075 -1916 1919 0
-2075 1916 0
-2075 -1919 0
-2076 -2402 -2077 0
-2076 2402 2077 0
2076 2402 -2077 0
2076 -2402 2077 0
2077 2255 -1934 0
2077 -2255 1934 0
-2077 -2255 -1934 0
-2077 2255 1934 0
2078 1800 -1803 0
2078 -1800 1803 0
-2078 -1800 -1803 0
-2078 1800 1803 0
2079 1798 -1799 0
2079 -1798 1799 0
-2079 -1798 -1799 0
-2079 1798 1799 0
2080 -2359 2081 -2083 0
2080 1944 2081 -2083 0
-2080 2083 0
-2080 -2081 0
-2080 2359 -1944 0
-2081 2378 2082 0
-2081 -2378 -2082 0
2081 -2378 2082 0
2081 2378 -2082 0
-2082 -1690 -1817 0
-2082 1690 1817 0
2082 1690 -1817 0
2082 -1690 1817 0
2083 -2380 -715 -2084 0
2083 2380 -715 2084 0
-2083 715 0
-2083 -2380 2084 0
-2083 2380 -2084 0
-2084 -1686 -1819 0
-2084 1686 1819 0
2084 1686 -1819 0
2084 -1686 1819 0
-2085 -2358 -1661 0
-2085 2358 1661 0
2085 2358 -1661 0
2085 -2358 1661 0
-2086 -2444 -2087 2088 0
-2086 2444 2087 2088 0
2086 -2088 0
2086 -2444 2087 0
2086 2444 -2087 0
2087 1704 -1709 0
2087 -1704 1709 0
-2087 -1704 -1709 0
-2087 1704 1709 0
-2088 2389 2432 2089 2090 0
-2088 -2389 2432 -2089 2090 0
-2088 -2389 -2432 -2089 -2090 0
-2088 2389 -2432 2089 -2090 0
2088 -2389 2089 0
2088 2389 -2089 0
2088 2432 -2090 0
2088 -2432 2090 0
2089 1157 -1158 0
2089 -1157 1158 0
-2089 -1157 -1158 0
-2089 1157 1158 0
-2090 -1646 -1753 0
-2090 1646 1753 0
2090 1646 -1753 0
2090 -1646 1753 0
-2091 2348 2093 0
-2091 -2092 2093 -2108 0
2091 -2093 0
2091 -2348 2108 0
2091 -2348 2092 0
-2092 2321 2347 0
2092 -2321 0
2092 -2347 0
-2093 -1831 2094 2106 0
-2093 2398 2094 2106 0
2093 -2094 0
2093 -2106 0
2093 -2398 1831 0
-2094 -2407 2095 2103 0
-2094 1828 2095 2103 0
2094 -2103 0
2094 -2095 0
2094 2407 -1828 0
-2095 2344 2096 0
-2095 -2343 2096 0
-2095 -2317 2096 0
2095 -2096 0
2095 2317 2343 -2344 0
-2096 -2097 2101 2102 0
-2096 -2097 -2101 -2102 0
-2096 2345 2101 2102 0
-2096 2345 -2101 -2102 0
2096 2101 -2102 0
2096 -2101 2102 0
2096 -2345 2097 0
2097 -1359 -2099 0
2097 -1326 -2099 0
2097 -2098 -2099 0
-2097 2099 0
-2097 1326 1359 2098 0
-2098 232 1347 1348 0
2098 -232 0
2098 -1347 0
2098 -1348 0
2099 -2318 -2100 0
2099 -2318 -1268 0
2099 -2318 -1298 0
-2099 2318 0
-2099 1268 1298 2100 0
-2100 1256 1276 1278 1284 0
2100 -1256 0
2100 -1284 0
2100 -1278 0
2100 -1276 0
2101 1385 -1391 0
2101 -1385 1391 0
-2101 -1385 -1391 0
-2101 1385 1391 0
-2102 -2429 -1412 0
-2102 2429 1412 0
2102 2429 -1412 0
2102 -2429 1412 0
-2103 2408 2427 2104 2105 0
-2103 2408 -2427 -2104 2105 0
-2103 -2408 -2427 -2104 -2105 0
-2103 -2408 2427 2104 -2105 0
2103 -2408 2105 0
2103 2408 -2105 0
2103 -2427 2104 0
2103 2427 -2104 0
2104 1382 -1414 0
2104 -1382 1414 0
-2104 -1382 -1414 0
-2104 1382 1414 0
-2105 -1255 -1286 0
-2105 1255 1286 0
2105 1255 -1286 0
2105 -1255 1286 0
2106 -1159 2107 0
2106 1159 -2107 0
-2106 1159 2107 0
-2106 -1159 -2107 0
-2107 -2388 -1156 0
-2107 2388 1156 0
2107 2388 -1156 0
2107 -2388 1156 0
-2108 1167 1168 1179 1193 0
2108 -1179 0
2108 -1193 0
2108 -1167 0
2108 -1168 0
2109 -2110 2113 0
2109 2110 -2113 0
-2109 2110 2113 0
-2109 -2110 -2113 0
2110 1303 -2112 0
2110 -1303 2111 2112 0
2110 1303 -2111 0
-2110 -1303 -2111 0
-2110 -1303 -2112 0
-2110 1303 2111 2112 0
2111 1362 -1732 0
-2111 -1362 0
-2111 1732 0
2112 -1730 1731 0
-2112 1730 0
-2112 -1731 0
-2113 -2439 -2114 0
-2113 2439 2114 0
2113 2439 -2114 0
2113 -2439 2114 0
2114 -1728 -1729 0
-2114 1728 0
-2114 1729 0
2115 -1475 -1587 0
2115 -2392 1475 1579 0
2115 1579 -1587 0
2115 -2392 -1475 -1579 0
-2115 2392 1587 0
-2115 1475 -1579 0
-2115 -1475 1579 1587 0
-2116 -2393 2394 -2117 2118 0
-2116 2393 2394 2117 2118 0
-2116 2393 -2394 2117 -2118 0
-2116 -2393 -2394 -2117 -2118 0
2116 -2393 2117 0
2116 2393 -2117 0
2116 2394 -2118 0
2116 -2394 2118 0
-2117 -1580 -1581 0
-2117 1580 1581 0
2117 1580 -1581 0
2117 -1580 1581 0
-2118 1581 -2119 0
-2118 1583 1581 0
2118 -1581 0
2118 -1583 2119 0
2119 1584 -1605 0
-2119 -1584 0
-2119 1605 0
2120 2454 -2485 -2121 2163 0
-2120 -2454 0
-2120 -2163 0
-2120 2121 0
-2120 2485 0
2121 -2445 2446 -2122 -2161 0
-2121 2161 0
-2121 2445 0
-2121 2122 0
-2121 -2446 0
2122 -2437 2438 -2123 -2159 0
-2122 2159 0
-2122 2437 0
-2122 2123 0
-2122 -2438 0
2123 2429 2430 -2124 2157 0
-2123 -2429 0
-2123 -2157 0
-2123 2124 0
-2123 -2430 0
2124 -2421 -2422 -2125 -2155 0
-2124 2155 0
-2124 2421 0
-2124 2125 0
-2124 2422 0
2125 2413 2414 -2126 2153 0
-2125 -2413 0
-2125 -2153 0
-2125 2126 0
-2125 -2414 0
2126 2405 2406 -2127 2151 0
-2126 -2405 0
-2126 -2151 0
-2126 2127 0
-2126 -2406 0
2127 -2397 2398 -2128 2149 0
-2127 -2149 0
-2127 2397 0
-2127 2128 0
-2127 -2398 0
2128 2389 2390 -2129 -2147 0
-2128 -2389 0
-2128 2147 0
-2128 2129 0
-2128 -2390 0
2129 2381 2382 -2130 -2145 0
-2129 -2381 0
-2129 2145 0
-2129 2130 0
-2129 -2382 0
2130 2373 2374 -2131 -2143 0
-2130 -2373 0
-2130 2143 0
-2130 2131 0
-2130 -2374 0
2131 -2366 -2483 -2132 -2141 0
-2131 2141 0
-2131 2366 0
-2131 2132 0
-2131 2483 0
2132 2480 -2481 -2482 -2133 0
-2132 -2480 0
-2132 2133 0
-2132 2482 0
-2132 2481 0
2133 2477 2478 2479 -2134 0
-2133 2134 0
-2133 -2479 0
-2133 -2477 0
-2133 -2478 0
2134 2474 2475 2476 -2135 0
-2134 2135 0
-2134 -2476 0
-2134 -2474 0
-2134 -2475 0
2135 2471 2472 -2473 -2136 0
-2135 -2471 0
-2135 2136 0
-2135 2473 0
-2135 -2472 0
2136 2468 2469 2470 -2137 0
-2136 2137 0
-2136 -2470 0
-2136 -2468 0
-2136 -2469 0
2137 -2465 2466 2467 -2138 0
-2137 2138 0
-2137 -2467 0
-2137 2465 0
-2137 -2466 0
2138 2462 2463 2464 -2139 0
-2138 2139 0
-2138 -2464 0
-2138 -2462 0
-2138 -2463 0
2139 2459 2460 2461 -2140 0
-2139 2140 0
-2139 -2461 0
-2139 -2459 0
-2139 -2460 0
2140 -2455 -2456 -2457 2458 0
-2140 2457 0
-2140 -2458 0
-2140 2455 0
-2140 2456 0
2141 -2363 -2364 -2365 2142 0
-2141 -2142 0
-2141 2363 0
-2141 2365 0
-2141 2364 0
-2142 2359 2360 2361 2362 0
2142 -2362 0
2142 -2361 0
2142 -2359 0
2142 -2360 0
2143 2370 2371 -2372 2144 0
-2143 -2370 0
-2143 -2144 0
-2143 2372 0
-2143 -2371 0
-2144 2367 2368 2369 0
2144 -2367 0
2144 -2369 0
2144 -2368 0
2145 2378 2379 -2380 2146 0
-2145 -2378 0
-2145 -2146 0
-2145 2380 0
-2145 -2379 0
-2146 2375 2376 2377 0
2146 -2375 0
2146 -2377 0
2146 -2376 0
2147 2386 -2387 -2388 2148 0
-2147 -2386 0
-2147 -2148 0
-2147 2388 0
-2147 2387 0
-2148 2383 2384 2385 0
2148 -2383 0
2148 -2385 0
2148 -2384 0
-2149 2394 2395 2396 2150 0
2149 -2150 0
2149 -2396 0
2149 -2394 0
2149 -2395 0
-2150 2391 2392 2393 0
2150 -2391 0
2150 -2393 0
2150 -2392 0
-2151 2402 2403 2404 2152 0
2151 -2152 0
2151 -2404 0
2151 -2402 0
2151 -2403 0
-2152 2399 2400 2401 0
2152 -2399 0
2152 -2401 0
2152 -2400 0
-2153 2410 2411 2412 2154 0
2153 -2154 0
2153 -2412 0
2153 -2410 0
2153 -2411 0
-2154 2407 2408 2409 0
2154 -2407 0
2154 -2409 0
2154 -2408 0
2155 2418 -2419 -2420 2156 0
-2155 -2418 0
-2155 -2156 0
-2155 2420 0
-2155 2419 0
-2156 2415 2416 2417 0
2156 -2415 0
2156 -2417 0
2156 -2416 0
-2157 2426 2427 2428 2158 0
2157 -2158 0
2157 -2428 0
2157 -2426 0
2157 -2427 0
-2158 2423 2424 2425 0
2158 -2423 0
2158 -2425 0
2158 -2424 0
2159 2434 -2435 2436 2160 0
-2159 2435 0
-2159 -2436 0
-2159 -2434 0
-2159 -2160 0
-2160 2431 2432 2433 0
2160 -2431 0
2160 -2433 0
2160 -2432 0
2161 2442 -2443 2444 2162 0
-2161 2443 0
-2161 -2444 0
-2161 -2442 0
-2161 -2162 0
-2162 2439 2440 2441 0
2162 -2439 0
2162 -2441 0
2162 -2440 0
-2163 2451 2452 2453 2164 0
2163 -2164 0
2163 -2453 0
2163 -2451 0
2163 -2452 0
-2164 2447 2448 2449 2450 0
2164 -2450 0
2164 -2449 0
2164 -2447 0
2164 -2448 0
2165 2375 2385 -2166 -2193 0
-2165 -2375 0
-2165 2193 0
-2165 2166 0
-2165 -2385 0
2166 -2167 -2176 -2180 -2185 0
-2166 2185 0
-2166 2167 0
-2166 2180 0
-2166 2176 0
2167 2405 2412 2168 -2169 0
-2167 -2405 0
-2167 2169 0
-2167 -2168 0
-2167 -2412 0
-2168 2408 2414 2415 0
2168 -2408 0
2168 -2415 0
2168 -2414 0
2169 -2482 -2485 -2170 -2174 0
-2169 2174 0
-2169 2482 0
-2169 2170 0
-2169 2485 0
2170 2448 2449 -2171 -2172 0
-2170 -2448 0
-2170 2172 0
-2170 2171 0
-2170 -2449 0
2171 2438 2439 -2445 2450 0
-2171 -2438 0
-2171 -2450 0
-2171 2445 0
-2171 -2439 0
2172 2453 -2456 2474 2173 0
-2172 2456 0
-2172 -2474 0
-2172 -2453 0
-2172 -2173 0
-2173 2472 2475 0
2173 -2472 0
2173 -2475 0
2174 2426 2432 -2483 2175 0
-2174 -2426 0
-2174 -2175 0
-2174 2483 0
-2174 -2432 0
-2175 2429 2433 2434 2436 0
2175 -2436 0
2175 -2434 0
2175 -2429 0
2175 -2433 0
2176 2462 2479 2177 -2178 0
-2176 -2462 0
-2176 2178 0
-2176 -2177 0
-2176 -2479 0
-2177 2463 2477 0
2177 -2463 0
2177 -2477 0
2178 2478 2480 -2481 -2179 0
-2178 -2478 0
-2178 2179 0
-2178 2481 0
-2178 -2480 0
2179 -2421 2424 2431 0
-2179 2421 0
-2179 -2431 0
-2179 -2424 0
2180 2373 2376 2181 -2183 0
-2180 -2373 0
-2180 2183 0
-2180 -2181 0
-2180 -2376 0
-2181 2468 2469 2182 0
2181 -2182 0
2181 -2469 0
2181 -2468 0
-2182 2451 2452 2467 2470 0
2182 -2470 0
2182 -2467 0
2182 -2451 0
2182 -2452 0
2183 2377 -2380 2184 0
-2183 -2184 0
-2183 2380 0
-2183 -2377 0
-2184 2369 2371 2378 2379 0
2184 -2379 0
2184 -2378 0
2184 -2369 0
2184 -2371 0
2185 2361 -2186 -2188 -2189 0
-2185 -2361 0
-2185 2189 0
-2185 2188 0
-2185 2186 0
2186 2416 -2419 -2420 2187 0
-2186 -2416 0
-2186 -2187 0
-2186 2420 0
-2186 2419 0
-2187 2413 2417 2418 0
2187 -2413 0
2187 -2418 0
2187 -2417 0
2188 -2364 -2366 2367 -2372 0
-2188 2372 0
-2188 2364 0
-2188 2366 0
-2188 -2367 0
2189 2454 2459 -2190 -2192 0
-2189 -2454 0
-2189 2192 0
-2189 2190 0
-2189 -2459 0
2190 -2422 2423 2430 -2191 0
-2190 2191 0
-2190 -2430 0
-2190 2422 0
-2190 -2423 0
2191 -2455 -2457 2458 2460 0
-2191 2457 0
-2191 -2460 0
-2191 2455 0
-2191 -2458 0
2192 2425 2427 2428 -2435 0
-2192 2435 0
-2192 -2428 0
-2192 -2425 0
-2192 -2427 0
2193 2194 -2195 2204 -2208 0
-2193 2208 0
-2193 -2194 0
-2193 -2204 0
-2193 2195 0
-2194 2374 2386 2403 2404 0
2194 -2404 0
2194 -2403 0
2194 -2374 0
2194 -2386 0
2195 -2196 2201 -2202 -2203 0
-2195 2203 0
-2195 2196 0
-2195 2202 0
-2195 -2201 0
2196 2362 -2197 -2199 2200 0
-2196 -2362 0
-2196 -2200 0
-2196 2199 0
-2196 2197 0
2197 -2437 -2443 2444 -2198 0
-2197 2198 0
-2197 2437 0
-2197 2443 0
-2197 -2444 0
2198 2471 -2473 2476 0
-2198 -2471 0
-2198 2473 0
-2198 -2476 0
2199 -2365 2382 2383 0
-2199 2365 0
-2199 -2383 0
-2199 -2382 0
-2200 2359 2368 0
2200 -2359 0
2200 -2368 0
-2201 2440 2446 2447 0
2201 -2440 0
2201 -2447 0
2201 -2446 0
2202 2441 2442 2461 -2465 0
-2202 2465 0
-2202 -2461 0
-2202 -2441 0
-2202 -2442 0
2203 2360 -2363 2464 2466 0
-2203 2363 0
-2203 -2466 0
-2203 -2360 0
-2203 -2464 0
-2204 2392 2395 2205 2206 0
2204 -2392 0
2204 -2206 0
2204 -2205 0
2204 -2395 0
-2205 2389 2393 2394 2396 0
2205 -2396 0
2205 -2394 0
2205 -2389 0
2205 -2393 0
-2206 2370 2398 2407 2207 0
2206 -2207 0
2206 -2407 0
2206 -2370 0
2206 -2398 0
-2207 2399 2406 0
2207 -2399 0
2207 -2406 0
2208 -2388 -2209 2210 -2211 0
-2208 2211 0
-2208 2388 0
-2208 -2210 0
-2208 2209 0
2209 -2397 2402 2409 2410 0
-2209 -2410 0
-2209 -2409 0
-2209 2397 0
-2209 -2402 0
-2210 2390 2391 2400 2401 0
2210 -2401 0
2210 -2400 0
2210 -2390 0
2210 -2391 0
2211 2381 2384 -2387 2411 0
-2211 -2381 0
-2211 -2411 0
-2211 2387 0
-2211 -2384 0
-2486 0
2 0
108 0

