c Result of efficient AIG-to-CNF conversion using package CNF
p cnf 4958 19019
-2 3 2122 -4275 -4367 0
-2 -3 -2122 -4275 -4367 0
-2 3 2122 4275 4367 0
-2 -3 -2122 4275 4367 0
2 4275 -4367 0
2 -4275 4367 0
2 -3 2122 0
2 3 -2122 0
3 4956 -4 0
3 -4956 -4957 -7 0
-3 -4956 7 0
-3 4956 4 0
-3 -4956 4957 0
4 4695 4696 4697 -5 0
-4 5 0
-4 -4697 0
-4 -4695 0
-4 -4696 0
5 -4694 6 0
-5 4694 0
-5 -6 0
-6 4690 4691 4692 4693 0
6 -4693 0
6 -4692 0
6 -4690 0
6 -4691 0
7 4702 4954 -8 2121 0
7 -4702 -4954 -8 2121 0
-7 -2121 0
-7 -4702 4954 0
-7 8 0
-7 4702 -4954 0
8 4701 4953 -9 2120 0
8 -4701 -4953 -9 2120 0
-8 -2120 0
-8 -4701 4953 0
-8 9 0
-8 4701 -4953 0
9 4699 4951 -10 2119 0
9 -4699 -4951 -10 2119 0
-9 -2119 0
-9 -4699 4951 0
-9 10 0
-9 4699 -4951 0
10 4949 -11 2099 2118 0
10 -4949 -11 2099 -2118 0
-10 11 0
-10 -4949 2118 0
-10 -2099 0
-10 4949 -2118 0
11 -4941 -12 2084 -2098 0
11 4941 -12 2084 2098 0
-11 12 0
-11 4941 -2098 0
-11 -2084 0
-11 -4941 2098 0
12 -4933 -13 2069 -2083 0
12 4933 -13 2069 2083 0
-12 13 0
-12 4933 -2083 0
-12 -2069 0
-12 -4933 2083 0
13 -4925 -14 2054 -2068 0
13 4925 -14 2054 2068 0
-13 14 0
-13 4925 -2068 0
-13 -2054 0
-13 -4925 2068 0
14 -4917 -15 2039 -2053 0
14 4917 -15 2039 2053 0
-14 15 0
-14 4917 -2053 0
-14 -2039 0
-14 -4917 2053 0
15 -4909 -16 2024 -2038 0
15 4909 -16 2024 2038 0
-15 16 0
-15 4909 -2038 0
-15 -2024 0
-15 -4909 2038 0
16 -4901 -17 2009 -2023 0
16 4901 -17 2009 2023 0
-16 17 0
-16 4901 -2023 0
-16 -2009 0
-16 -4901 2023 0
17 -4893 -18 1994 -2008 0
17 4893 -18 1994 2008 0
-17 18 0
-17 4893 -2008 0
-17 -1994 0
-17 -4893 2008 0
18 -4885 -19 1979 -1993 0
18 4885 -19 1979 1993 0
-18 19 0
-18 4885 -1993 0
-18 -1979 0
-18 -4885 1993 0
19 -4877 -20 1964 -1978 0
19 4877 -20 1964 1978 0
-19 20 0
-19 4877 -1978 0
-19 -1964 0
-19 -4877 1978 0
20 4869 -21 1944 1963 0
20 -4869 -21 1944 -1963 0
-20 21 0
-20 -4869 1963 0
-20 -1944 0
-20 4869 -1963 0
21 4861 -22 1929 1943 0
21 -4861 -22 1929 -1943 0
-21 22 0
-21 -4861 1943 0
-21 -1929 0
-21 4861 -1943 0
22 4853 -23 1914 1928 0
22 -4853 -23 1914 -1928 0
-22 23 0
-22 -4853 1928 0
-22 -1914 0
-22 4853 -1928 0
23 4845 -24 1899 1913 0
23 -4845 -24 1899 -1913 0
-23 24 0
-23 -4845 1913 0
-23 -1899 0
-23 4845 -1913 0
24 4837 -25 1884 1898 0
24 -4837 -25 1884 -1898 0
-24 25 0
-24 -4837 1898 0
-24 -1884 0
-24 4837 -1898 0
25 4829 -26 1869 1883 0
25 -4829 -26 1869 -1883 0
-25 26 0
-25 -4829 1883 0
-25 -1869 0
-25 4829 -1883 0
26 4821 -27 1854 1868 0
26 -4821 -27 1854 -1868 0
-26 27 0
-26 -4821 1868 0
-26 -1854 0
-26 4821 -1868 0
27 4813 -28 1839 1853 0
27 -4813 -28 1839 -1853 0
-27 28 0
-27 -4813 1853 0
-27 -1839 0
-27 4813 -1853 0
28 4805 -29 1824 1838 0
28 -4805 -29 1824 -1838 0
-28 29 0
-28 -4805 1838 0
-28 -1824 0
-28 4805 -1838 0
29 4797 -30 1809 1823 0
29 -4797 -30 1809 -1823 0
-29 30 0
-29 -4797 1823 0
-29 -1809 0
-29 4797 -1823 0
30 4789 -31 1789 1808 0
30 -4789 -31 1789 -1808 0
-30 31 0
-30 -4789 1808 0
-30 -1789 0
-30 4789 -1808 0
31 4781 -32 1774 1788 0
31 -4781 -32 1774 -1788 0
-31 32 0
-31 -4781 1788 0
-31 -1774 0
-31 4781 -1788 0
32 4773 -33 1759 1773 0
32 -4773 -33 1759 -1773 0
-32 33 0
-32 -4773 1773 0
-32 -1759 0
-32 4773 -1773 0
33 4765 -34 1744 1758 0
33 -4765 -34 1744 -1758 0
-33 34 0
-33 -4765 1758 0
-33 -1744 0
-33 4765 -1758 0
34 4757 -35 1729 1743 0
34 -4757 -35 1729 -1743 0
-34 35 0
-34 -4757 1743 0
-34 -1729 0
-34 4757 -1743 0
35 4749 -36 1714 1728 0
35 -4749 -36 1714 -1728 0
-35 36 0
-35 -4749 1728 0
-35 -1714 0
-35 4749 -1728 0
36 4741 -37 1699 1713 0
36 -4741 -37 1699 -1713 0
-36 37 0
-36 -4741 1713 0
-36 -1699 0
-36 4741 -1713 0
37 4733 -38 1684 1698 0
37 -4733 -38 1684 -1698 0
-37 38 0
-37 -4733 1698 0
-37 -1684 0
-37 4733 -1698 0
38 4725 -39 1669 1683 0
38 -4725 -39 1669 -1683 0
-38 39 0
-38 -4725 1683 0
-38 -1669 0
-38 4725 -1683 0
39 4717 -40 1654 1668 0
39 -4717 -40 1654 -1668 0
-39 40 0
-39 -4717 1668 0
-39 -1654 0
-39 4717 -1668 0
40 -4702 -4703 -41 -1653 0
-40 1653 0
-40 4702 0
-40 41 0
-40 4703 0
41 4709 42 -1651 0
41 -4709 42 -1357 0
-41 -42 0
-41 4709 1651 0
-41 -4709 1357 0
-42 4708 43 0
-42 -4702 43 -999 0
42 -43 0
42 -4708 999 0
42 4702 -4708 0
-43 4707 44 0
-43 -4701 44 -705 0
43 -44 0
43 -4707 705 0
43 4701 -4707 0
-44 4706 45 0
-44 -4700 45 -410 0
44 -45 0
44 -4706 410 0
44 4700 -4706 0
-45 4704 4705 0
-45 -46 -214 0
-45 4704 -214 0
-45 4705 -46 0
45 -4704 46 0
45 -4705 214 0
46 -4698 -47 198 0
46 -4698 -47 -206 0
46 -4698 198 -206 0
-46 47 -198 0
-46 -198 206 0
-46 4698 0
-46 47 206 0
-47 48 190 0
-47 48 -182 0
-47 -182 190 0
47 182 -190 0
47 -48 -190 0
47 -48 182 0
-48 49 174 0
-48 49 -166 0
-48 -166 174 0
48 166 -174 0
48 -49 -174 0
48 -49 166 0
-49 50 158 0
-49 50 -150 0
-49 -150 158 0
49 150 -158 0
49 -50 -158 0
49 -50 150 0
-50 51 142 0
-50 51 -134 0
-50 -134 142 0
50 134 -142 0
50 -51 -142 0
50 -51 134 0
-51 52 126 0
-51 52 -118 0
-51 -118 126 0
51 118 -126 0
51 -52 -126 0
51 -52 118 0
-52 -102 110 0
-52 53 -102 0
-52 53 110 0
52 -53 102 0
52 102 -110 0
52 -53 -110 0
53 -4545 54 -78 0
53 54 78 -83 0
-53 -54 0
-53 78 83 0
-53 4545 -78 0
-54 4465 -55 0
-54 55 59 0
54 -4465 -55 0
54 55 -59 0
55 4536 -4537 56 0
-55 -56 0
-55 4537 0
-55 -4536 0
-56 4535 57 0
56 -4535 0
56 -57 0
-57 4534 58 0
57 -4534 0
57 -58 0
-58 4530 4531 4532 4533 0
58 -4533 0
58 -4532 0
58 -4530 0
58 -4531 0
-59 4473 -60 0
-59 60 62 0
59 -4473 -60 0
59 60 -62 0
60 4537 -61 0
-60 -4537 0
-60 61 0
61 -4536 56 0
-61 4536 0
-61 -56 0
-62 4481 -63 0
-62 63 64 0
62 -4481 -63 0
62 63 -64 0
63 -4537 -61 0
-63 4537 0
-63 61 0
-64 4489 -65 0
-64 65 68 0
64 -4489 -65 0
64 65 -68 0
65 4537 -66 0
-65 -4537 0
-65 66 0
66 4536 -67 0
-66 -4536 0
-66 67 0
67 -4535 57 0
-67 4535 0
-67 -57 0
-68 4497 -69 0
-68 69 70 0
68 -4497 -69 0
68 69 -70 0
69 -4537 -66 0
-69 4537 0
-69 66 0
-70 4505 -71 0
-70 71 73 0
70 -4505 -71 0
70 71 -73 0
71 4537 -72 0
-71 -4537 0
-71 72 0
72 -4536 -67 0
-72 4536 0
-72 67 0
-73 4513 -74 0
-73 74 75 0
73 -4513 -74 0
73 74 -75 0
74 -4537 -72 0
-74 4537 0
-74 72 0
-75 4529 76 0
-75 4521 -76 0
75 -4529 76 0
75 -4521 -76 0
76 4537 -77 0
-76 -4537 0
-76 77 0
77 -4534 4535 4536 58 0
-77 -58 0
-77 -4536 0
-77 4534 0
-77 -4535 0
78 -4617 79 0
-78 4617 0
-78 -79 0
-79 4616 80 0
79 -4616 0
79 -80 0
-80 4615 81 0
80 -4615 0
80 -81 0
-81 4614 82 0
81 -4614 0
81 -82 0
-82 4610 4611 4612 4613 0
82 -4613 0
82 -4612 0
82 -4610 0
82 -4611 0
-83 4553 -84 0
-83 84 86 0
83 -4553 -84 0
83 84 -86 0
84 4617 -85 0
-84 -4617 0
-84 85 0
85 -4616 80 0
-85 4616 0
-85 -80 0
-86 4561 -87 0
-86 87 88 0
86 -4561 -87 0
86 87 -88 0
87 -4617 -85 0
-87 4617 0
-87 85 0
-88 4569 -89 0
-88 89 92 0
88 -4569 -89 0
88 89 -92 0
89 4617 -90 0
-89 -4617 0
-89 90 0
90 4616 -91 0
-90 -4616 0
-90 91 0
91 -4615 81 0
-91 4615 0
-91 -81 0
-92 4577 -93 0
-92 93 94 0
92 -4577 -93 0
92 93 -94 0
93 -4617 -90 0
-93 4617 0
-93 90 0
-94 4585 -95 0
-94 95 97 0
94 -4585 -95 0
94 95 -97 0
95 4617 -96 0
-95 -4617 0
-95 96 0
96 -4616 -91 0
-96 4616 0
-96 91 0
-97 4593 -98 0
-97 98 99 0
97 -4593 -98 0
97 98 -99 0
98 -4617 -96 0
-98 4617 0
-98 96 0
-99 4609 100 0
-99 4601 -100 0
99 -4609 100 0
99 -4601 -100 0
100 4615 4616 4617 -101 0
-100 101 0
-100 -4617 0
-100 -4615 0
-100 -4616 0
101 -4614 82 0
-101 4614 0
-101 -82 0
-102 4464 -55 0
-102 55 103 0
102 -4464 -55 0
102 55 -103 0
-103 4472 -60 0
-103 60 104 0
103 -4472 -60 0
103 60 -104 0
-104 4480 -63 0
-104 63 105 0
104 -4480 -63 0
104 63 -105 0
-105 4488 -65 0
-105 65 106 0
105 -4488 -65 0
105 65 -106 0
-106 4496 -69 0
-106 69 107 0
106 -4496 -69 0
106 69 -107 0
-107 4504 -71 0
-107 71 108 0
107 -4504 -71 0
107 71 -108 0
-108 4512 -74 0
-108 74 109 0
108 -4512 -74 0
108 74 -109 0
-109 4528 76 0
-109 4520 -76 0
109 -4528 76 0
109 -4520 -76 0
-110 4544 -78 0
-110 78 111 0
110 -4544 -78 0
110 78 -111 0
-111 4552 -84 0
-111 84 112 0
111 -4552 -84 0
111 84 -112 0
-112 4560 -87 0
-112 87 113 0
112 -4560 -87 0
112 87 -113 0
-113 4568 -89 0
-113 89 114 0
113 -4568 -89 0
113 89 -114 0
-114 4576 -93 0
-114 93 115 0
114 -4576 -93 0
114 93 -115 0
-115 4584 -95 0
-115 95 116 0
115 -4584 -95 0
115 95 -116 0
-116 4592 -98 0
-116 98 117 0
116 -4592 -98 0
116 98 -117 0
-117 4608 100 0
-117 4600 -100 0
117 -4608 100 0
117 -4600 -100 0
-118 4463 -55 0
-118 55 119 0
118 -4463 -55 0
118 55 -119 0
-119 4471 -60 0
-119 60 120 0
119 -4471 -60 0
119 60 -120 0
-120 4479 -63 0
-120 63 121 0
120 -4479 -63 0
120 63 -121 0
-121 4487 -65 0
-121 65 122 0
121 -4487 -65 0
121 65 -122 0
-122 4495 -69 0
-122 69 123 0
122 -4495 -69 0
122 69 -123 0
-123 4503 -71 0
-123 71 124 0
123 -4503 -71 0
123 71 -124 0
-124 4511 -74 0
-124 74 125 0
124 -4511 -74 0
124 74 -125 0
-125 4527 76 0
-125 4519 -76 0
125 -4527 76 0
125 -4519 -76 0
-126 4543 -78 0
-126 78 127 0
126 -4543 -78 0
126 78 -127 0
-127 4551 -84 0
-127 84 128 0
127 -4551 -84 0
127 84 -128 0
-128 4559 -87 0
-128 87 129 0
128 -4559 -87 0
128 87 -129 0
-129 4567 -89 0
-129 89 130 0
129 -4567 -89 0
129 89 -130 0
-130 4575 -93 0
-130 93 131 0
130 -4575 -93 0
130 93 -131 0
-131 4583 -95 0
-131 95 132 0
131 -4583 -95 0
131 95 -132 0
-132 4591 -98 0
-132 98 133 0
132 -4591 -98 0
132 98 -133 0
-133 4607 100 0
-133 4599 -100 0
133 -4607 100 0
133 -4599 -100 0
-134 4462 -55 0
-134 55 135 0
134 -4462 -55 0
134 55 -135 0
-135 4470 -60 0
-135 60 136 0
135 -4470 -60 0
135 60 -136 0
-136 4478 -63 0
-136 63 137 0
136 -4478 -63 0
136 63 -137 0
-137 4486 -65 0
-137 65 138 0
137 -4486 -65 0
137 65 -138 0
-138 4494 -69 0
-138 69 139 0
138 -4494 -69 0
138 69 -139 0
-139 4502 -71 0
-139 71 140 0
139 -4502 -71 0
139 71 -140 0
-140 4510 -74 0
-140 74 141 0
140 -4510 -74 0
140 74 -141 0
-141 4526 76 0
-141 4518 -76 0
141 -4526 76 0
141 -4518 -76 0
-142 4542 -78 0
-142 78 143 0
142 -4542 -78 0
142 78 -143 0
-143 4550 -84 0
-143 84 144 0
143 -4550 -84 0
143 84 -144 0
-144 4558 -87 0
-144 87 145 0
144 -4558 -87 0
144 87 -145 0
-145 4566 -89 0
-145 89 146 0
145 -4566 -89 0
145 89 -146 0
-146 4574 -93 0
-146 93 147 0
146 -4574 -93 0
146 93 -147 0
-147 4582 -95 0
-147 95 148 0
147 -4582 -95 0
147 95 -148 0
-148 4590 -98 0
-148 98 149 0
148 -4590 -98 0
148 98 -149 0
-149 4606 100 0
-149 4598 -100 0
149 -4606 100 0
149 -4598 -100 0
-150 4461 -55 0
-150 55 151 0
150 -4461 -55 0
150 55 -151 0
-151 4469 -60 0
-151 60 152 0
151 -4469 -60 0
151 60 -152 0
-152 4477 -63 0
-152 63 153 0
152 -4477 -63 0
152 63 -153 0
-153 4485 -65 0
-153 65 154 0
153 -4485 -65 0
153 65 -154 0
-154 4493 -69 0
-154 69 155 0
154 -4493 -69 0
154 69 -155 0
-155 4501 -71 0
-155 71 156 0
155 -4501 -71 0
155 71 -156 0
-156 4509 -74 0
-156 74 157 0
156 -4509 -74 0
156 74 -157 0
-157 4525 76 0
-157 4517 -76 0
157 -4525 76 0
157 -4517 -76 0
-158 4541 -78 0
-158 78 159 0
158 -4541 -78 0
158 78 -159 0
-159 4549 -84 0
-159 84 160 0
159 -4549 -84 0
159 84 -160 0
-160 4557 -87 0
-160 87 161 0
160 -4557 -87 0
160 87 -161 0
-161 4565 -89 0
-161 89 162 0
161 -4565 -89 0
161 89 -162 0
-162 4573 -93 0
-162 93 163 0
162 -4573 -93 0
162 93 -163 0
-163 4581 -95 0
-163 95 164 0
163 -4581 -95 0
163 95 -164 0
-164 4589 -98 0
-164 98 165 0
164 -4589 -98 0
164 98 -165 0
-165 4605 100 0
-165 4597 -100 0
165 -4605 100 0
165 -4597 -100 0
-166 4460 -55 0
-166 55 167 0
166 -4460 -55 0
166 55 -167 0
-167 4468 -60 0
-167 60 168 0
167 -4468 -60 0
167 60 -168 0
-168 4476 -63 0
-168 63 169 0
168 -4476 -63 0
168 63 -169 0
-169 4484 -65 0
-169 65 170 0
169 -4484 -65 0
169 65 -170 0
-170 4492 -69 0
-170 69 171 0
170 -4492 -69 0
170 69 -171 0
-171 4500 -71 0
-171 71 172 0
171 -4500 -71 0
171 71 -172 0
-172 4508 -74 0
-172 74 173 0
172 -4508 -74 0
172 74 -173 0
-173 4524 76 0
-173 4516 -76 0
173 -4524 76 0
173 -4516 -76 0
-174 4540 -78 0
-174 78 175 0
174 -4540 -78 0
174 78 -175 0
-175 4548 -84 0
-175 84 176 0
175 -4548 -84 0
175 84 -176 0
-176 4556 -87 0
-176 87 177 0
176 -4556 -87 0
176 87 -177 0
-177 4564 -89 0
-177 89 178 0
177 -4564 -89 0
177 89 -178 0
-178 4572 -93 0
-178 93 179 0
178 -4572 -93 0
178 93 -179 0
-179 4580 -95 0
-179 95 180 0
179 -4580 -95 0
179 95 -180 0
-180 4588 -98 0
-180 98 181 0
180 -4588 -98 0
180 98 -181 0
-181 4604 100 0
-181 4596 -100 0
181 -4604 100 0
181 -4596 -100 0
-182 4459 -55 0
-182 55 183 0
182 -4459 -55 0
182 55 -183 0
-183 4467 -60 0
-183 60 184 0
183 -4467 -60 0
183 60 -184 0
-184 4475 -63 0
-184 63 185 0
184 -4475 -63 0
184 63 -185 0
-185 4483 -65 0
-185 65 186 0
185 -4483 -65 0
185 65 -186 0
-186 4491 -69 0
-186 69 187 0
186 -4491 -69 0
186 69 -187 0
-187 4499 -71 0
-187 71 188 0
187 -4499 -71 0
187 71 -188 0
-188 4507 -74 0
-188 74 189 0
188 -4507 -74 0
188 74 -189 0
-189 4523 76 0
-189 4515 -76 0
189 -4523 76 0
189 -4515 -76 0
-190 4539 -78 0
-190 78 191 0
190 -4539 -78 0
190 78 -191 0
-191 4547 -84 0
-191 84 192 0
191 -4547 -84 0
191 84 -192 0
-192 4555 -87 0
-192 87 193 0
192 -4555 -87 0
192 87 -193 0
-193 4563 -89 0
-193 89 194 0
193 -4563 -89 0
193 89 -194 0
-194 4571 -93 0
-194 93 195 0
194 -4571 -93 0
194 93 -195 0
-195 4579 -95 0
-195 95 196 0
195 -4579 -95 0
195 95 -196 0
-196 4587 -98 0
-196 98 197 0
196 -4587 -98 0
196 98 -197 0
-197 4603 100 0
-197 4595 -100 0
197 -4603 100 0
197 -4595 -100 0
-198 4458 -55 0
-198 55 199 0
198 -4458 -55 0
198 55 -199 0
-199 4466 -60 0
-199 60 200 0
199 -4466 -60 0
199 60 -200 0
-200 4474 -63 0
-200 63 201 0
200 -4474 -63 0
200 63 -201 0
-201 4482 -65 0
-201 65 202 0
201 -4482 -65 0
201 65 -202 0
-202 4490 -69 0
-202 69 203 0
202 -4490 -69 0
202 69 -203 0
-203 4498 -71 0
-203 71 204 0
203 -4498 -71 0
203 71 -204 0
-204 4506 -74 0
-204 74 205 0
204 -4506 -74 0
204 74 -205 0
-205 4522 76 0
-205 4514 -76 0
205 -4522 76 0
205 -4514 -76 0
-206 4538 -78 0
-206 78 207 0
206 -4538 -78 0
206 78 -207 0
-207 4546 -84 0
-207 84 208 0
207 -4546 -84 0
207 84 -208 0
-208 4554 -87 0
-208 87 209 0
208 -4554 -87 0
208 87 -209 0
-209 4562 -89 0
-209 89 210 0
209 -4562 -89 0
209 89 -210 0
-210 4570 -93 0
-210 93 211 0
210 -4570 -93 0
210 93 -211 0
-211 4578 -95 0
-211 95 212 0
211 -4578 -95 0
211 95 -212 0
-212 4586 -98 0
-212 98 213 0
212 -4586 -98 0
212 98 -213 0
-213 4602 100 0
-213 4594 -100 0
213 -4602 100 0
213 -4594 -100 0
214 -4699 -215 393 0
214 -4699 -215 -402 0
214 -4699 393 -402 0
-214 215 -393 0
-214 -393 402 0
-214 4699 0
-214 215 402 0
-215 216 385 0
-215 216 -376 0
-215 -376 385 0
215 376 -385 0
215 -216 -385 0
215 -216 376 0
-216 217 368 0
-216 217 -359 0
-216 -359 368 0
216 359 -368 0
216 -217 -368 0
216 -217 359 0
-217 218 351 0
-217 218 -342 0
-217 -342 351 0
217 342 -351 0
217 -218 -351 0
217 -218 342 0
-218 219 334 0
-218 219 -325 0
-218 -325 334 0
218 325 -334 0
218 -219 -334 0
218 -219 325 0
-219 220 317 0
-219 220 -308 0
-219 -308 317 0
219 308 -317 0
219 -220 -317 0
219 -220 308 0
-220 -291 300 0
-220 221 -291 0
-220 221 300 0
220 -221 291 0
220 291 -300 0
220 -221 -300 0
221 -4625 222 -270 0
221 222 270 -274 0
-221 -222 0
-221 270 274 0
-221 4625 -270 0
-222 4465 -223 0
-222 223 242 0
-222 -223 -241 0
222 223 -242 0
222 -4465 -223 241 0
223 -224 225 226 0
-223 -226 0
-223 -225 0
-223 224 0
-224 -4537 -4704 0
-224 4537 4704 0
224 4537 -4704 0
224 -4537 4704 0
-225 4536 -4537 0
-225 4536 4704 0
-225 -4536 4537 -4704 0
225 -4536 -4537 0
225 -4536 4704 0
225 4536 4537 -4704 0
-226 227 229 0
226 -227 0
226 -229 0
-227 4535 -228 0
-227 4535 4704 0
-227 -4535 -4704 228 0
227 -4535 4704 0
227 4535 -4704 228 0
227 -4535 -228 0
-228 4536 4537 0
228 -4536 0
228 -4537 0
-229 230 232 0
229 -230 0
229 -232 0
-230 4534 -231 0
-230 4534 4704 0
-230 -4534 -4704 231 0
230 -4534 4704 0
230 4534 -4704 231 0
230 -4534 -231 0
-231 4535 4536 4537 0
231 -4535 0
231 -4537 0
231 -4536 0
-232 233 235 237 240 0
232 -240 0
232 -233 0
232 -237 0
232 -235 0
-233 4533 -234 0
-233 4533 4704 0
-233 -4533 -4704 234 0
233 -4533 4704 0
233 4533 -4704 234 0
233 -4533 -234 0
-234 4534 231 0
234 -4534 0
234 -231 0
-235 4532 -236 0
-235 4532 4704 0
-235 -4532 -4704 236 0
235 -4532 4704 0
235 4532 -4704 236 0
235 -4532 -236 0
-236 4533 234 0
236 -4533 0
236 -234 0
-237 4530 -238 0
-237 4530 4704 0
-237 -4530 -4704 238 0
237 -4530 4704 0
237 4530 -4704 238 0
237 -4530 -238 0
-238 4531 239 0
238 -4531 0
238 -239 0
-239 4532 236 0
239 -4532 0
239 -236 0
-240 4531 -239 0
-240 4531 4704 0
-240 -4531 -4704 239 0
240 -4531 4704 0
240 4531 -4704 239 0
240 -4531 -239 0
241 -4704 -55 0
-241 4704 0
-241 55 0
-242 4473 -243 0
-242 243 246 0
-242 -243 -245 0
242 243 -246 0
242 -4473 -243 245 0
243 224 -244 0
-243 -224 0
-243 244 0
244 -225 226 0
-244 225 0
-244 -226 0
245 -4704 -60 0
-245 4704 0
-245 60 0
-246 4481 -247 0
-246 247 249 0
-246 -247 -248 0
246 247 -249 0
246 -4481 -247 248 0
247 -224 -244 0
-247 224 0
-247 244 0
248 -4704 -63 0
-248 4704 0
-248 63 0
-249 4489 -250 0
-249 250 254 0
-249 -250 -253 0
249 250 -254 0
249 -4489 -250 253 0
250 224 -251 0
-250 -224 0
-250 251 0
251 225 -252 0
-251 -225 0
-251 252 0
252 -227 229 0
-252 227 0
-252 -229 0
253 -4704 -65 0
-253 4704 0
-253 65 0
-254 4497 -255 0
-254 255 257 0
-254 -255 -256 0
254 255 -257 0
254 -4497 -255 256 0
255 -224 -251 0
-255 224 0
-255 251 0
256 -4704 -69 0
-256 4704 0
-256 69 0
-257 4505 -258 0
-257 258 261 0
-257 -258 -260 0
257 258 -261 0
257 -4505 -258 260 0
258 224 -259 0
-258 -224 0
-258 259 0
259 -225 -252 0
-259 225 0
-259 252 0
260 -4704 -71 0
-260 4704 0
-260 71 0
-261 4513 -262 0
-261 262 264 0
-261 -262 -263 0
261 262 -264 0
261 -4513 -262 263 0
262 -224 -259 0
-262 224 0
-262 259 0
263 -4704 -74 0
-263 4704 0
-263 74 0
-264 -265 267 0
-264 4529 265 0
-264 265 -269 0
264 -265 -267 0
264 -4529 265 269 0
265 224 -266 0
-265 -224 0
-265 266 0
266 225 227 -230 232 0
-266 -232 0
-266 -225 0
-266 -227 0
-266 230 0
267 -4521 268 0
-267 4521 0
-267 -268 0
268 -4704 -76 0
-268 4704 0
-268 76 0
269 -4537 -4704 -77 0
-269 4537 0
-269 4704 0
-269 77 0
270 -4697 271 0
-270 4697 0
-270 -271 0
-271 4696 272 0
271 -4696 0
271 -272 0
-272 4695 273 0
272 -4695 0
272 -273 0
-273 4694 6 0
273 -4694 0
273 -6 0
-274 4633 -275 0
-274 275 277 0
274 -4633 -275 0
274 275 -277 0
275 4697 -276 0
-275 -4697 0
-275 276 0
276 -4696 272 0
-276 4696 0
-276 -272 0
-277 4641 -278 0
-277 278 279 0
277 -4641 -278 0
277 278 -279 0
278 -4697 -276 0
-278 4697 0
-278 276 0
-279 4649 -280 0
-279 280 283 0
279 -4649 -280 0
279 280 -283 0
280 4697 -281 0
-280 -4697 0
-280 281 0
281 4696 -282 0
-281 -4696 0
-281 282 0
282 -4695 273 0
-282 4695 0
-282 -273 0
-283 4657 -284 0
-283 284 285 0
283 -4657 -284 0
283 284 -285 0
284 -4697 -281 0
-284 4697 0
-284 281 0
-285 4665 -286 0
-285 286 288 0
285 -4665 -286 0
285 286 -288 0
286 4697 -287 0
-286 -4697 0
-286 287 0
287 -4696 -282 0
-287 4696 0
-287 282 0
-288 4673 -289 0
-288 289 290 0
288 -4673 -289 0
288 289 -290 0
289 -4697 -287 0
-289 4697 0
-289 287 0
-290 4689 4 0
-290 4681 -4 0
290 -4689 4 0
290 -4681 -4 0
-291 4464 -223 0
-291 223 292 0
-291 -223 -241 0
291 223 -292 0
291 -4464 -223 241 0
-292 4472 -243 0
-292 243 293 0
-292 -243 -245 0
292 243 -293 0
292 -4472 -243 245 0
-293 4480 -247 0
-293 247 294 0
-293 -247 -248 0
293 247 -294 0
293 -4480 -247 248 0
-294 4488 -250 0
-294 250 295 0
-294 -250 -253 0
294 250 -295 0
294 -4488 -250 253 0
-295 4496 -255 0
-295 255 296 0
-295 -255 -256 0
295 255 -296 0
295 -4496 -255 256 0
-296 4504 -258 0
-296 258 297 0
-296 -258 -260 0
296 258 -297 0
296 -4504 -258 260 0
-297 4512 -262 0
-297 262 298 0
-297 -262 -263 0
297 262 -298 0
297 -4512 -262 263 0
-298 265 -269 0
-298 -265 299 0
-298 4528 265 0
298 -265 -299 0
298 -4528 265 269 0
299 -4520 268 0
-299 4520 0
-299 -268 0
-300 4624 -270 0
-300 270 301 0
300 -4624 -270 0
300 270 -301 0
-301 4632 -275 0
-301 275 302 0
301 -4632 -275 0
301 275 -302 0
-302 4640 -278 0
-302 278 303 0
302 -4640 -278 0
302 278 -303 0
-303 4648 -280 0
-303 280 304 0
303 -4648 -280 0
303 280 -304 0
-304 4656 -284 0
-304 284 305 0
304 -4656 -284 0
304 284 -305 0
-305 4664 -286 0
-305 286 306 0
305 -4664 -286 0
305 286 -306 0
-306 4672 -289 0
-306 289 307 0
306 -4672 -289 0
306 289 -307 0
-307 4688 4 0
-307 4680 -4 0
307 -4688 4 0
307 -4680 -4 0
-308 4463 -223 0
-308 223 309 0
-308 -223 -241 0
308 223 -309 0
308 -4463 -223 241 0
-309 4471 -243 0
-309 243 310 0
-309 -243 -245 0
309 243 -310 0
309 -4471 -243 245 0
-310 4479 -247 0
-310 247 311 0
-310 -247 -248 0
310 247 -311 0
310 -4479 -247 248 0
-311 4487 -250 0
-311 250 312 0
-311 -250 -253 0
311 250 -312 0
311 -4487 -250 253 0
-312 4495 -255 0
-312 255 313 0
-312 -255 -256 0
312 255 -313 0
312 -4495 -255 256 0
-313 4503 -258 0
-313 258 314 0
-313 -258 -260 0
313 258 -314 0
313 -4503 -258 260 0
-314 4511 -262 0
-314 262 315 0
-314 -262 -263 0
314 262 -315 0
314 -4511 -262 263 0
-315 265 -269 0
-315 -265 316 0
-315 4527 265 0
315 -265 -316 0
315 -4527 265 269 0
316 -4519 268 0
-316 4519 0
-316 -268 0
-317 4623 -270 0
-317 270 318 0
317 -4623 -270 0
317 270 -318 0
-318 4631 -275 0
-318 275 319 0
318 -4631 -275 0
318 275 -319 0
-319 4639 -278 0
-319 278 320 0
319 -4639 -278 0
319 278 -320 0
-320 4647 -280 0
-320 280 321 0
320 -4647 -280 0
320 280 -321 0
-321 4655 -284 0
-321 284 322 0
321 -4655 -284 0
321 284 -322 0
-322 4663 -286 0
-322 286 323 0
322 -4663 -286 0
322 286 -323 0
-323 4671 -289 0
-323 289 324 0
323 -4671 -289 0
323 289 -324 0
-324 4687 4 0
-324 4679 -4 0
324 -4687 4 0
324 -4679 -4 0
-325 4462 -223 0
-325 223 326 0
-325 -223 -241 0
325 223 -326 0
325 -4462 -223 241 0
-326 4470 -243 0
-326 243 327 0
-326 -243 -245 0
326 243 -327 0
326 -4470 -243 245 0
-327 4478 -247 0
-327 247 328 0
-327 -247 -248 0
327 247 -328 0
327 -4478 -247 248 0
-328 4486 -250 0
-328 250 329 0
-328 -250 -253 0
328 250 -329 0
328 -4486 -250 253 0
-329 4494 -255 0
-329 255 330 0
-329 -255 -256 0
329 255 -330 0
329 -4494 -255 256 0
-330 4502 -258 0
-330 258 331 0
-330 -258 -260 0
330 258 -331 0
330 -4502 -258 260 0
-331 4510 -262 0
-331 262 332 0
-331 -262 -263 0
331 262 -332 0
331 -4510 -262 263 0
-332 265 -269 0
-332 -265 333 0
-332 4526 265 0
332 -265 -333 0
332 -4526 265 269 0
333 -4518 268 0
-333 4518 0
-333 -268 0
-334 4622 -270 0
-334 270 335 0
334 -4622 -270 0
334 270 -335 0
-335 4630 -275 0
-335 275 336 0
335 -4630 -275 0
335 275 -336 0
-336 4638 -278 0
-336 278 337 0
336 -4638 -278 0
336 278 -337 0
-337 4646 -280 0
-337 280 338 0
337 -4646 -280 0
337 280 -338 0
-338 4654 -284 0
-338 284 339 0
338 -4654 -284 0
338 284 -339 0
-339 4662 -286 0
-339 286 340 0
339 -4662 -286 0
339 286 -340 0
-340 4670 -289 0
-340 289 341 0
340 -4670 -289 0
340 289 -341 0
-341 4686 4 0
-341 4678 -4 0
341 -4686 4 0
341 -4678 -4 0
-342 4461 -223 0
-342 223 343 0
-342 -223 -241 0
342 223 -343 0
342 -4461 -223 241 0
-343 4469 -243 0
-343 243 344 0
-343 -243 -245 0
343 243 -344 0
343 -4469 -243 245 0
-344 4477 -247 0
-344 247 345 0
-344 -247 -248 0
344 247 -345 0
344 -4477 -247 248 0
-345 4485 -250 0
-345 250 346 0
-345 -250 -253 0
345 250 -346 0
345 -4485 -250 253 0
-346 4493 -255 0
-346 255 347 0
-346 -255 -256 0
346 255 -347 0
346 -4493 -255 256 0
-347 4501 -258 0
-347 258 348 0
-347 -258 -260 0
347 258 -348 0
347 -4501 -258 260 0
-348 4509 -262 0
-348 262 349 0
-348 -262 -263 0
348 262 -349 0
348 -4509 -262 263 0
-349 265 -269 0
-349 -265 350 0
-349 4525 265 0
349 -265 -350 0
349 -4525 265 269 0
350 -4517 268 0
-350 4517 0
-350 -268 0
-351 4621 -270 0
-351 270 352 0
351 -4621 -270 0
351 270 -352 0
-352 4629 -275 0
-352 275 353 0
352 -4629 -275 0
352 275 -353 0
-353 4637 -278 0
-353 278 354 0
353 -4637 -278 0
353 278 -354 0
-354 4645 -280 0
-354 280 355 0
354 -4645 -280 0
354 280 -355 0
-355 4653 -284 0
-355 284 356 0
355 -4653 -284 0
355 284 -356 0
-356 4661 -286 0
-356 286 357 0
356 -4661 -286 0
356 286 -357 0
-357 4669 -289 0
-357 289 358 0
357 -4669 -289 0
357 289 -358 0
-358 4685 4 0
-358 4677 -4 0
358 -4685 4 0
358 -4677 -4 0
-359 4460 -223 0
-359 223 360 0
-359 -223 -241 0
359 223 -360 0
359 -4460 -223 241 0
-360 4468 -243 0
-360 243 361 0
-360 -243 -245 0
360 243 -361 0
360 -4468 -243 245 0
-361 4476 -247 0
-361 247 362 0
-361 -247 -248 0
361 247 -362 0
361 -4476 -247 248 0
-362 4484 -250 0
-362 250 363 0
-362 -250 -253 0
362 250 -363 0
362 -4484 -250 253 0
-363 4492 -255 0
-363 255 364 0
-363 -255 -256 0
363 255 -364 0
363 -4492 -255 256 0
-364 4500 -258 0
-364 258 365 0
-364 -258 -260 0
364 258 -365 0
364 -4500 -258 260 0
-365 4508 -262 0
-365 262 366 0
-365 -262 -263 0
365 262 -366 0
365 -4508 -262 263 0
-366 265 -269 0
-366 -265 367 0
-366 4524 265 0
366 -265 -367 0
366 -4524 265 269 0
367 -4516 268 0
-367 4516 0
-367 -268 0
-368 4620 -270 0
-368 270 369 0
368 -4620 -270 0
368 270 -369 0
-369 4628 -275 0
-369 275 370 0
369 -4628 -275 0
369 275 -370 0
-370 4636 -278 0
-370 278 371 0
370 -4636 -278 0
370 278 -371 0
-371 4644 -280 0
-371 280 372 0
371 -4644 -280 0
371 280 -372 0
-372 4652 -284 0
-372 284 373 0
372 -4652 -284 0
372 284 -373 0
-373 4660 -286 0
-373 286 374 0
373 -4660 -286 0
373 286 -374 0
-374 4668 -289 0
-374 289 375 0
374 -4668 -289 0
374 289 -375 0
-375 4684 4 0
-375 4676 -4 0
375 -4684 4 0
375 -4676 -4 0
-376 4459 -223 0
-376 223 377 0
-376 -223 -241 0
376 223 -377 0
376 -4459 -223 241 0
-377 4467 -243 0
-377 243 378 0
-377 -243 -245 0
377 243 -378 0
377 -4467 -243 245 0
-378 4475 -247 0
-378 247 379 0
-378 -247 -248 0
378 247 -379 0
378 -4475 -247 248 0
-379 4483 -250 0
-379 250 380 0
-379 -250 -253 0
379 250 -380 0
379 -4483 -250 253 0
-380 4491 -255 0
-380 255 381 0
-380 -255 -256 0
380 255 -381 0
380 -4491 -255 256 0
-381 4499 -258 0
-381 258 382 0
-381 -258 -260 0
381 258 -382 0
381 -4499 -258 260 0
-382 4507 -262 0
-382 262 383 0
-382 -262 -263 0
382 262 -383 0
382 -4507 -262 263 0
-383 265 -269 0
-383 -265 384 0
-383 4523 265 0
383 -265 -384 0
383 -4523 265 269 0
384 -4515 268 0
-384 4515 0
-384 -268 0
-385 4619 -270 0
-385 270 386 0
385 -4619 -270 0
385 270 -386 0
-386 4627 -275 0
-386 275 387 0
386 -4627 -275 0
386 275 -387 0
-387 4635 -278 0
-387 278 388 0
387 -4635 -278 0
387 278 -388 0
-388 4643 -280 0
-388 280 389 0
388 -4643 -280 0
388 280 -389 0
-389 4651 -284 0
-389 284 390 0
389 -4651 -284 0
389 284 -390 0
-390 4659 -286 0
-390 286 391 0
390 -4659 -286 0
390 286 -391 0
-391 4667 -289 0
-391 289 392 0
391 -4667 -289 0
391 289 -392 0
-392 4683 4 0
-392 4675 -4 0
392 -4683 4 0
392 -4675 -4 0
-393 4458 -223 0
-393 223 394 0
-393 -223 -241 0
393 223 -394 0
393 -4458 -223 241 0
-394 4466 -243 0
-394 243 395 0
-394 -243 -245 0
394 243 -395 0
394 -4466 -243 245 0
-395 4474 -247 0
-395 247 396 0
-395 -247 -248 0
395 247 -396 0
395 -4474 -247 248 0
-396 4482 -250 0
-396 250 397 0
-396 -250 -253 0
396 250 -397 0
396 -4482 -250 253 0
-397 4490 -255 0
-397 255 398 0
-397 -255 -256 0
397 255 -398 0
397 -4490 -255 256 0
-398 4498 -258 0
-398 258 399 0
-398 -258 -260 0
398 258 -399 0
398 -4498 -258 260 0
-399 4506 -262 0
-399 262 400 0
-399 -262 -263 0
399 262 -400 0
399 -4506 -262 263 0
-400 265 -269 0
-400 -265 401 0
-400 4522 265 0
400 -265 -401 0
400 -4522 265 269 0
401 -4514 268 0
-401 4514 0
-401 -268 0
-402 4618 -270 0
-402 270 403 0
402 -4618 -270 0
402 270 -403 0
-403 4626 -275 0
-403 275 404 0
403 -4626 -275 0
403 275 -404 0
-404 4634 -278 0
-404 278 405 0
404 -4634 -278 0
404 278 -405 0
-405 4642 -280 0
-405 280 406 0
405 -4642 -280 0
405 280 -406 0
-406 4650 -284 0
-406 284 407 0
406 -4650 -284 0
406 284 -407 0
-407 4658 -286 0
-407 286 408 0
407 -4658 -286 0
407 286 -408 0
-408 4666 -289 0
-408 289 409 0
408 -4666 -289 0
408 289 -409 0
-409 4682 4 0
-409 4674 -4 0
409 -4682 4 0
409 -4674 -4 0
-410 411 696 0
-410 411 -679 0
-410 -679 696 0
410 679 -696 0
410 -411 -696 0
410 -411 679 0
-411 412 670 0
-411 412 -653 0
-411 -653 670 0
411 653 -670 0
411 -412 -670 0
411 -412 653 0
-412 413 644 0
-412 413 -627 0
-412 -627 644 0
412 627 -644 0
412 -413 -644 0
412 -413 627 0
-413 414 618 0
-413 414 -601 0
-413 -601 618 0
413 601 -618 0
413 -414 -618 0
413 -414 601 0
-414 415 592 0
-414 415 -575 0
-414 -575 592 0
414 575 -592 0
414 -415 -592 0
414 -415 575 0
-415 416 566 0
-415 416 -549 0
-415 -549 566 0
415 549 -566 0
415 -416 -566 0
415 -416 549 0
-416 -523 540 0
-416 417 -523 0
-416 417 540 0
416 -417 523 0
416 523 -540 0
416 -417 -540 0
417 418 474 -495 0
417 418 -474 -493 0
-417 -418 0
-417 -474 493 0
-417 474 495 0
-418 -419 437 0
-418 419 439 0
418 419 -439 0
418 -419 -437 0
419 -420 421 422 0
-419 -422 0
-419 -421 0
-419 420 0
-420 -4617 -4704 0
-420 4617 4704 0
420 4617 -4704 0
420 -4617 4704 0
-421 4616 4704 0
-421 4616 4617 0
-421 -4616 -4617 -4704 0
421 -4616 4617 0
421 4616 -4617 -4704 0
421 -4616 4704 0
-422 423 425 0
422 -423 0
422 -425 0
-423 4615 424 0
-423 4615 4704 0
-423 -4615 -4704 -424 0
423 -4615 4704 0
423 4615 -4704 -424 0
423 -4615 424 0
424 -4616 -4617 0
-424 4616 0
-424 4617 0
-425 426 428 0
425 -426 0
425 -428 0
-426 4614 427 0
-426 4614 4704 0
-426 -4614 -4704 -427 0
426 -4614 4704 0
426 4614 -4704 -427 0
426 -4614 427 0
427 -4615 -424 0
-427 4615 0
-427 424 0
-428 429 431 433 436 0
428 -436 0
428 -429 0
428 -433 0
428 -431 0
-429 4613 430 0
-429 4613 4704 0
-429 -4613 -4704 -430 0
429 -4613 4704 0
429 4613 -4704 -430 0
429 -4613 430 0
430 -4614 -427 0
-430 4614 0
-430 427 0
-431 4612 432 0
-431 4612 4704 0
-431 -4612 -4704 -432 0
431 -4612 4704 0
431 4612 -4704 -432 0
431 -4612 432 0
432 -4613 -430 0
-432 4613 0
-432 430 0
-433 4610 434 0
-433 4610 4704 0
-433 -4610 -4704 -434 0
433 -4610 4704 0
433 4610 -4704 -434 0
433 -4610 434 0
434 -4611 -435 0
-434 4611 0
-434 435 0
435 -4612 -432 0
-435 4612 0
-435 432 0
-436 4611 435 0
-436 4611 4704 0
-436 -4611 -4704 -435 0
436 -4611 4704 0
436 4611 -4704 -435 0
436 -4611 435 0
-437 54 -438 0
-437 4545 438 0
437 -4545 438 0
437 -54 -438 0
438 4617 -4704 79 0
-438 -79 0
-438 4704 0
-438 -4617 0
-439 -440 442 0
-439 440 444 0
439 440 -444 0
439 -440 -442 0
440 420 -441 0
-440 -420 0
-440 441 0
441 -421 422 0
-441 421 0
-441 -422 0
-442 54 -443 0
-442 4553 443 0
442 -4553 443 0
442 -54 -443 0
443 -4704 -78 0
-443 4704 0
-443 78 0
-444 -445 446 0
-444 445 448 0
444 445 -448 0
444 -445 -446 0
445 -420 -441 0
-445 420 0
-445 441 0
-446 54 -447 0
-446 4561 447 0
446 -4561 447 0
446 -54 -447 0
447 -4704 -84 0
-447 4704 0
-447 84 0
-448 -449 452 0
-448 449 454 0
448 449 -454 0
448 -449 -452 0
449 420 -450 0
-449 -420 0
-449 450 0
450 421 -451 0
-450 -421 0
-450 451 0
451 -423 425 0
-451 423 0
-451 -425 0
-452 54 -453 0
-452 4569 453 0
452 -4569 453 0
452 -54 -453 0
453 -4704 -87 0
-453 4704 0
-453 87 0
-454 -455 456 0
-454 455 458 0
454 455 -458 0
454 -455 -456 0
455 -420 -450 0
-455 420 0
-455 450 0
-456 54 -457 0
-456 4577 457 0
456 -4577 457 0
456 -54 -457 0
457 -4704 -89 0
-457 4704 0
-457 89 0
-458 -459 461 0
-458 459 463 0
458 459 -463 0
458 -459 -461 0
459 420 -460 0
-459 -420 0
-459 460 0
460 -421 -451 0
-460 421 0
-460 451 0
-461 54 -462 0
-461 4585 462 0
461 -4585 462 0
461 -54 -462 0
462 -4704 -93 0
-462 4704 0
-462 93 0
-463 -464 465 0
-463 464 467 0
463 464 -467 0
463 -464 -465 0
464 -420 -460 0
-464 420 0
-464 460 0
-465 54 -466 0
-465 4593 466 0
465 -4593 466 0
465 -54 -466 0
466 -4704 -95 0
-466 4704 0
-466 95 0
-467 -468 470 0
-467 468 472 0
467 468 -472 0
467 -468 -470 0
468 420 -469 0
-468 -420 0
-468 469 0
469 421 423 -426 428 0
-469 -428 0
-469 -421 0
-469 -423 0
-469 426 0
-470 54 -471 0
-470 4601 471 0
470 -4601 471 0
470 -54 -471 0
471 -4704 -98 0
-471 4704 0
-471 98 0
-472 54 -473 0
-472 4609 473 0
472 -4609 473 0
472 -54 -473 0
473 -4704 -100 0
-473 4704 0
-473 100 0
474 -475 476 0
-474 475 0
-474 -476 0
-475 4705 224 0
-475 -4705 -224 0
475 -4705 224 0
475 4705 -224 0
-476 477 478 0
476 -477 0
476 -478 0
-477 4705 225 0
-477 -4705 224 -225 0
-477 -224 225 0
477 4705 -225 0
477 -224 -225 0
477 -4705 224 225 0
-478 479 481 0
478 -479 0
478 -481 0
-479 227 -480 0
-479 -4705 -227 480 0
-479 4705 227 0
479 -227 -480 0
479 4705 -227 0
479 -4705 227 480 0
-480 224 225 0
480 -224 0
480 -225 0
-481 482 484 0
481 -482 0
481 -484 0
-482 230 -483 0
-482 -4705 -230 483 0
-482 4705 230 0
482 -230 -483 0
482 4705 -230 0
482 -4705 230 483 0
-483 227 480 0
483 -227 0
483 -480 0
-484 485 487 489 492 0
484 -492 0
484 -485 0
484 -489 0
484 -487 0
-485 233 -486 0
-485 -4705 -233 486 0
-485 4705 233 0
485 -233 -486 0
485 4705 -233 0
485 -4705 233 486 0
-486 230 483 0
486 -230 0
486 -483 0
-487 235 -488 0
-487 -4705 -235 488 0
-487 4705 235 0
487 -235 -488 0
487 4705 -235 0
487 -4705 235 488 0
-488 233 486 0
488 -233 0
488 -486 0
-489 237 -490 0
-489 -4705 -237 490 0
-489 4705 237 0
489 -237 -490 0
489 4705 -237 0
489 -4705 237 490 0
-490 240 491 0
490 -240 0
490 -491 0
-491 235 488 0
491 -235 0
491 -488 0
-492 240 -491 0
-492 -4705 -240 491 0
-492 4705 240 0
492 -240 -491 0
492 4705 -240 0
492 -4705 240 491 0
493 -4465 494 0
-493 4465 0
-493 -494 0
-494 4705 241 0
-494 223 241 0
494 -241 0
494 -4705 -223 0
-495 4473 -496 0
-495 496 499 0
-495 -496 -498 0
495 496 -499 0
495 -4473 -496 498 0
496 475 -497 0
-496 -475 0
-496 497 0
497 -477 478 0
-497 477 0
-497 -478 0
-498 4705 245 0
-498 243 245 0
498 -245 0
498 -4705 -243 0
-499 4481 -500 0
-499 500 502 0
-499 -500 -501 0
499 500 -502 0
499 -4481 -500 501 0
500 -475 -497 0
-500 475 0
-500 497 0
-501 4705 248 0
-501 247 248 0
501 -248 0
501 -4705 -247 0
-502 4489 -503 0
-502 503 507 0
-502 -503 -506 0
502 503 -507 0
502 -4489 -503 506 0
503 475 -504 0
-503 -475 0
-503 504 0
504 477 -505 0
-504 -477 0
-504 505 0
505 -479 481 0
-505 479 0
-505 -481 0
-506 4705 253 0
-506 250 253 0
506 -253 0
506 -4705 -250 0
-507 4497 -508 0
-507 508 510 0
-507 -508 -509 0
507 508 -510 0
507 -4497 -508 509 0
508 -475 -504 0
-508 475 0
-508 504 0
-509 4705 256 0
-509 255 256 0
509 -256 0
509 -4705 -255 0
-510 4505 -511 0
-510 511 514 0
-510 -511 -513 0
510 511 -514 0
510 -4505 -511 513 0
511 475 -512 0
-511 -475 0
-511 512 0
512 -477 -505 0
-512 477 0
-512 505 0
-513 4705 260 0
-513 258 260 0
513 -260 0
513 -4705 -258 0
-514 4513 -515 0
-514 515 517 0
-514 -515 -516 0
514 515 -517 0
514 -4513 -515 516 0
515 -475 -512 0
-515 475 0
-515 512 0
-516 4705 263 0
-516 262 263 0
516 -263 0
516 -4705 -262 0
-517 518 521 0
-517 -518 -520 0
-517 4521 -518 0
517 518 -521 0
517 -4521 -518 520 0
518 475 477 479 -519 0
-518 519 0
-518 -475 0
-518 -479 0
-518 -477 0
519 -482 484 0
-519 482 0
-519 -484 0
-520 4705 268 0
-520 265 268 0
520 -268 0
520 -4705 -265 0
521 -4529 522 0
-521 4529 0
-521 -522 0
-522 266 269 0
-522 224 269 0
-522 4705 269 0
522 -269 0
522 -4705 -224 -266 0
-523 -419 524 0
-523 419 525 0
523 419 -525 0
523 -419 -524 0
-524 102 -438 0
-524 4544 438 0
524 -4544 438 0
524 -102 -438 0
-525 -440 526 0
-525 440 527 0
525 440 -527 0
525 -440 -526 0
-526 102 -443 0
-526 4552 443 0
526 -4552 443 0
526 -102 -443 0
-527 -445 528 0
-527 445 529 0
527 445 -529 0
527 -445 -528 0
-528 102 -447 0
-528 4560 447 0
528 -4560 447 0
528 -102 -447 0
-529 -449 530 0
-529 449 531 0
529 449 -531 0
529 -449 -530 0
-530 102 -453 0
-530 4568 453 0
530 -4568 453 0
530 -102 -453 0
-531 -455 532 0
-531 455 533 0
531 455 -533 0
531 -455 -532 0
-532 102 -457 0
-532 4576 457 0
532 -4576 457 0
532 -102 -457 0
-533 -459 534 0
-533 459 535 0
533 459 -535 0
533 -459 -534 0
-534 102 -462 0
-534 4584 462 0
534 -4584 462 0
534 -102 -462 0
-535 -464 536 0
-535 464 537 0
535 464 -537 0
535 -464 -536 0
-536 102 -466 0
-536 4592 466 0
536 -4592 466 0
536 -102 -466 0
-537 -468 538 0
-537 468 539 0
537 468 -539 0
537 -468 -538 0
-538 102 -471 0
-538 4600 471 0
538 -4600 471 0
538 -102 -471 0
-539 102 -473 0
-539 4608 473 0
539 -4608 473 0
539 -102 -473 0
-540 4464 -474 0
-540 474 541 0
-540 -474 -494 0
540 474 -541 0
540 -4464 -474 494 0
-541 4472 -496 0
-541 496 542 0
-541 -496 -498 0
541 496 -542 0
541 -4472 -496 498 0
-542 4480 -500 0
-542 500 543 0
-542 -500 -501 0
542 500 -543 0
542 -4480 -500 501 0
-543 4488 -503 0
-543 503 544 0
-543 -503 -506 0
543 503 -544 0
543 -4488 -503 506 0
-544 4496 -508 0
-544 508 545 0
-544 -508 -509 0
544 508 -545 0
544 -4496 -508 509 0
-545 4504 -511 0
-545 511 546 0
-545 -511 -513 0
545 511 -546 0
545 -4504 -511 513 0
-546 4512 -515 0
-546 515 547 0
-546 -515 -516 0
546 515 -547 0
546 -4512 -515 516 0
-547 518 548 0
-547 -518 -520 0
-547 4520 -518 0
547 518 -548 0
547 -4520 -518 520 0
548 -4528 522 0
-548 4528 0
-548 -522 0
-549 -419 550 0
-549 419 551 0
549 419 -551 0
549 -419 -550 0
-550 118 -438 0
-550 4543 438 0
550 -4543 438 0
550 -118 -438 0
-551 -440 552 0
-551 440 553 0
551 440 -553 0
551 -440 -552 0
-552 118 -443 0
-552 4551 443 0
552 -4551 443 0
552 -118 -443 0
-553 -445 554 0
-553 445 555 0
553 445 -555 0
553 -445 -554 0
-554 118 -447 0
-554 4559 447 0
554 -4559 447 0
554 -118 -447 0
-555 -449 556 0
-555 449 557 0
555 449 -557 0
555 -449 -556 0
-556 118 -453 0
-556 4567 453 0
556 -4567 453 0
556 -118 -453 0
-557 -455 558 0
-557 455 559 0
557 455 -559 0
557 -455 -558 0
-558 118 -457 0
-558 4575 457 0
558 -4575 457 0
558 -118 -457 0
-559 -459 560 0
-559 459 561 0
559 459 -561 0
559 -459 -560 0
-560 118 -462 0
-560 4583 462 0
560 -4583 462 0
560 -118 -462 0
-561 -464 562 0
-561 464 563 0
561 464 -563 0
561 -464 -562 0
-562 118 -466 0
-562 4591 466 0
562 -4591 466 0
562 -118 -466 0
-563 -468 564 0
-563 468 565 0
563 468 -565 0
563 -468 -564 0
-564 118 -471 0
-564 4599 471 0
564 -4599 471 0
564 -118 -471 0
-565 118 -473 0
-565 4607 473 0
565 -4607 473 0
565 -118 -473 0
-566 4463 -474 0
-566 474 567 0
-566 -474 -494 0
566 474 -567 0
566 -4463 -474 494 0
-567 4471 -496 0
-567 496 568 0
-567 -496 -498 0
567 496 -568 0
567 -4471 -496 498 0
-568 4479 -500 0
-568 500 569 0
-568 -500 -501 0
568 500 -569 0
568 -4479 -500 501 0
-569 4487 -503 0
-569 503 570 0
-569 -503 -506 0
569 503 -570 0
569 -4487 -503 506 0
-570 4495 -508 0
-570 508 571 0
-570 -508 -509 0
570 508 -571 0
570 -4495 -508 509 0
-571 4503 -511 0
-571 511 572 0
-571 -511 -513 0
571 511 -572 0
571 -4503 -511 513 0
-572 4511 -515 0
-572 515 573 0
-572 -515 -516 0
572 515 -573 0
572 -4511 -515 516 0
-573 518 574 0
-573 -518 -520 0
-573 4519 -518 0
573 518 -574 0
573 -4519 -518 520 0
574 -4527 522 0
-574 4527 0
-574 -522 0
-575 -419 576 0
-575 419 577 0
575 419 -577 0
575 -419 -576 0
-576 134 -438 0
-576 4542 438 0
576 -4542 438 0
576 -134 -438 0
-577 -440 578 0
-577 440 579 0
577 440 -579 0
577 -440 -578 0
-578 134 -443 0
-578 4550 443 0
578 -4550 443 0
578 -134 -443 0
-579 -445 580 0
-579 445 581 0
579 445 -581 0
579 -445 -580 0
-580 134 -447 0
-580 4558 447 0
580 -4558 447 0
580 -134 -447 0
-581 -449 582 0
-581 449 583 0
581 449 -583 0
581 -449 -582 0
-582 134 -453 0
-582 4566 453 0
582 -4566 453 0
582 -134 -453 0
-583 -455 584 0
-583 455 585 0
583 455 -585 0
583 -455 -584 0
-584 134 -457 0
-584 4574 457 0
584 -4574 457 0
584 -134 -457 0
-585 -459 586 0
-585 459 587 0
585 459 -587 0
585 -459 -586 0
-586 134 -462 0
-586 4582 462 0
586 -4582 462 0
586 -134 -462 0
-587 -464 588 0
-587 464 589 0
587 464 -589 0
587 -464 -588 0
-588 134 -466 0
-588 4590 466 0
588 -4590 466 0
588 -134 -466 0
-589 -468 590 0
-589 468 591 0
589 468 -591 0
589 -468 -590 0
-590 134 -471 0
-590 4598 471 0
590 -4598 471 0
590 -134 -471 0
-591 134 -473 0
-591 4606 473 0
591 -4606 473 0
591 -134 -473 0
-592 4462 -474 0
-592 474 593 0
-592 -474 -494 0
592 474 -593 0
592 -4462 -474 494 0
-593 4470 -496 0
-593 496 594 0
-593 -496 -498 0
593 496 -594 0
593 -4470 -496 498 0
-594 4478 -500 0
-594 500 595 0
-594 -500 -501 0
594 500 -595 0
594 -4478 -500 501 0
-595 4486 -503 0
-595 503 596 0
-595 -503 -506 0
595 503 -596 0
595 -4486 -503 506 0
-596 4494 -508 0
-596 508 597 0
-596 -508 -509 0
596 508 -597 0
596 -4494 -508 509 0
-597 4502 -511 0
-597 511 598 0
-597 -511 -513 0
597 511 -598 0
597 -4502 -511 513 0
-598 4510 -515 0
-598 515 599 0
-598 -515 -516 0
598 515 -599 0
598 -4510 -515 516 0
-599 518 600 0
-599 -518 -520 0
-599 4518 -518 0
599 518 -600 0
599 -4518 -518 520 0
600 -4526 522 0
-600 4526 0
-600 -522 0
-601 -419 602 0
-601 419 603 0
601 419 -603 0
601 -419 -602 0
-602 150 -438 0
-602 4541 438 0
602 -4541 438 0
602 -150 -438 0
-603 -440 604 0
-603 440 605 0
603 440 -605 0
603 -440 -604 0
-604 150 -443 0
-604 4549 443 0
604 -4549 443 0
604 -150 -443 0
-605 -445 606 0
-605 445 607 0
605 445 -607 0
605 -445 -606 0
-606 150 -447 0
-606 4557 447 0
606 -4557 447 0
606 -150 -447 0
-607 -449 608 0
-607 449 609 0
607 449 -609 0
607 -449 -608 0
-608 150 -453 0
-608 4565 453 0
608 -4565 453 0
608 -150 -453 0
-609 -455 610 0
-609 455 611 0
609 455 -611 0
609 -455 -610 0
-610 150 -457 0
-610 4573 457 0
610 -4573 457 0
610 -150 -457 0
-611 -459 612 0
-611 459 613 0
611 459 -613 0
611 -459 -612 0
-612 150 -462 0
-612 4581 462 0
612 -4581 462 0
612 -150 -462 0
-613 -464 614 0
-613 464 615 0
613 464 -615 0
613 -464 -614 0
-614 150 -466 0
-614 4589 466 0
614 -4589 466 0
614 -150 -466 0
-615 -468 616 0
-615 468 617 0
615 468 -617 0
615 -468 -616 0
-616 150 -471 0
-616 4597 471 0
616 -4597 471 0
616 -150 -471 0
-617 150 -473 0
-617 4605 473 0
617 -4605 473 0
617 -150 -473 0
-618 4461 -474 0
-618 474 619 0
-618 -474 -494 0
618 474 -619 0
618 -4461 -474 494 0
-619 4469 -496 0
-619 496 620 0
-619 -496 -498 0
619 496 -620 0
619 -4469 -496 498 0
-620 4477 -500 0
-620 500 621 0
-620 -500 -501 0
620 500 -621 0
620 -4477 -500 501 0
-621 4485 -503 0
-621 503 622 0
-621 -503 -506 0
621 503 -622 0
621 -4485 -503 506 0
-622 4493 -508 0
-622 508 623 0
-622 -508 -509 0
622 508 -623 0
622 -4493 -508 509 0
-623 4501 -511 0
-623 511 624 0
-623 -511 -513 0
623 511 -624 0
623 -4501 -511 513 0
-624 4509 -515 0
-624 515 625 0
-624 -515 -516 0
624 515 -625 0
624 -4509 -515 516 0
-625 518 626 0
-625 -518 -520 0
-625 4517 -518 0
625 518 -626 0
625 -4517 -518 520 0
626 -4525 522 0
-626 4525 0
-626 -522 0
-627 -419 628 0
-627 419 629 0
627 419 -629 0
627 -419 -628 0
-628 166 -438 0
-628 4540 438 0
628 -4540 438 0
628 -166 -438 0
-629 -440 630 0
-629 440 631 0
629 440 -631 0
629 -440 -630 0
-630 166 -443 0
-630 4548 443 0
630 -4548 443 0
630 -166 -443 0
-631 -445 632 0
-631 445 633 0
631 445 -633 0
631 -445 -632 0
-632 166 -447 0
-632 4556 447 0
632 -4556 447 0
632 -166 -447 0
-633 -449 634 0
-633 449 635 0
633 449 -635 0
633 -449 -634 0
-634 166 -453 0
-634 4564 453 0
634 -4564 453 0
634 -166 -453 0
-635 -455 636 0
-635 455 637 0
635 455 -637 0
635 -455 -636 0
-636 166 -457 0
-636 4572 457 0
636 -4572 457 0
636 -166 -457 0
-637 -459 638 0
-637 459 639 0
637 459 -639 0
637 -459 -638 0
-638 166 -462 0
-638 4580 462 0
638 -4580 462 0
638 -166 -462 0
-639 -464 640 0
-639 464 641 0
639 464 -641 0
639 -464 -640 0
-640 166 -466 0
-640 4588 466 0
640 -4588 466 0
640 -166 -466 0
-641 -468 642 0
-641 468 643 0
641 468 -643 0
641 -468 -642 0
-642 166 -471 0
-642 4596 471 0
642 -4596 471 0
642 -166 -471 0
-643 166 -473 0
-643 4604 473 0
643 -4604 473 0
643 -166 -473 0
-644 4460 -474 0
-644 474 645 0
-644 -474 -494 0
644 474 -645 0
644 -4460 -474 494 0
-645 4468 -496 0
-645 496 646 0
-645 -496 -498 0
645 496 -646 0
645 -4468 -496 498 0
-646 4476 -500 0
-646 500 647 0
-646 -500 -501 0
646 500 -647 0
646 -4476 -500 501 0
-647 4484 -503 0
-647 503 648 0
-647 -503 -506 0
647 503 -648 0
647 -4484 -503 506 0
-648 4492 -508 0
-648 508 649 0
-648 -508 -509 0
648 508 -649 0
648 -4492 -508 509 0
-649 4500 -511 0
-649 511 650 0
-649 -511 -513 0
649 511 -650 0
649 -4500 -511 513 0
-650 4508 -515 0
-650 515 651 0
-650 -515 -516 0
650 515 -651 0
650 -4508 -515 516 0
-651 518 652 0
-651 -518 -520 0
-651 4516 -518 0
651 518 -652 0
651 -4516 -518 520 0
652 -4524 522 0
-652 4524 0
-652 -522 0
-653 -419 654 0
-653 419 655 0
653 419 -655 0
653 -419 -654 0
-654 182 -438 0
-654 4539 438 0
654 -4539 438 0
654 -182 -438 0
-655 -440 656 0
-655 440 657 0
655 440 -657 0
655 -440 -656 0
-656 182 -443 0
-656 4547 443 0
656 -4547 443 0
656 -182 -443 0
-657 -445 658 0
-657 445 659 0
657 445 -659 0
657 -445 -658 0
-658 182 -447 0
-658 4555 447 0
658 -4555 447 0
658 -182 -447 0
-659 -449 660 0
-659 449 661 0
659 449 -661 0
659 -449 -660 0
-660 182 -453 0
-660 4563 453 0
660 -4563 453 0
660 -182 -453 0
-661 -455 662 0
-661 455 663 0
661 455 -663 0
661 -455 -662 0
-662 182 -457 0
-662 4571 457 0
662 -4571 457 0
662 -182 -457 0
-663 -459 664 0
-663 459 665 0
663 459 -665 0
663 -459 -664 0
-664 182 -462 0
-664 4579 462 0
664 -4579 462 0
664 -182 -462 0
-665 -464 666 0
-665 464 667 0
665 464 -667 0
665 -464 -666 0
-666 182 -466 0
-666 4587 466 0
666 -4587 466 0
666 -182 -466 0
-667 -468 668 0
-667 468 669 0
667 468 -669 0
667 -468 -668 0
-668 182 -471 0
-668 4595 471 0
668 -4595 471 0
668 -182 -471 0
-669 182 -473 0
-669 4603 473 0
669 -4603 473 0
669 -182 -473 0
-670 4459 -474 0
-670 474 671 0
-670 -474 -494 0
670 474 -671 0
670 -4459 -474 494 0
-671 4467 -496 0
-671 496 672 0
-671 -496 -498 0
671 496 -672 0
671 -4467 -496 498 0
-672 4475 -500 0
-672 500 673 0
-672 -500 -501 0
672 500 -673 0
672 -4475 -500 501 0
-673 4483 -503 0
-673 503 674 0
-673 -503 -506 0
673 503 -674 0
673 -4483 -503 506 0
-674 4491 -508 0
-674 508 675 0
-674 -508 -509 0
674 508 -675 0
674 -4491 -508 509 0
-675 4499 -511 0
-675 511 676 0
-675 -511 -513 0
675 511 -676 0
675 -4499 -511 513 0
-676 4507 -515 0
-676 515 677 0
-676 -515 -516 0
676 515 -677 0
676 -4507 -515 516 0
-677 518 678 0
-677 -518 -520 0
-677 4515 -518 0
677 518 -678 0
677 -4515 -518 520 0
678 -4523 522 0
-678 4523 0
-678 -522 0
-679 -419 680 0
-679 419 681 0
679 419 -681 0
679 -419 -680 0
-680 198 -438 0
-680 4538 438 0
680 -4538 438 0
680 -198 -438 0
-681 -440 682 0
-681 440 683 0
681 440 -683 0
681 -440 -682 0
-682 198 -443 0
-682 4546 443 0
682 -4546 443 0
682 -198 -443 0
-683 -445 684 0
-683 445 685 0
683 445 -685 0
683 -445 -684 0
-684 198 -447 0
-684 4554 447 0
684 -4554 447 0
684 -198 -447 0
-685 -449 686 0
-685 449 687 0
685 449 -687 0
685 -449 -686 0
-686 198 -453 0
-686 4562 453 0
686 -4562 453 0
686 -198 -453 0
-687 -455 688 0
-687 455 689 0
687 455 -689 0
687 -455 -688 0
-688 198 -457 0
-688 4570 457 0
688 -4570 457 0
688 -198 -457 0
-689 -459 690 0
-689 459 691 0
689 459 -691 0
689 -459 -690 0
-690 198 -462 0
-690 4578 462 0
690 -4578 462 0
690 -198 -462 0
-691 -464 692 0
-691 464 693 0
691 464 -693 0
691 -464 -692 0
-692 198 -466 0
-692 4586 466 0
692 -4586 466 0
692 -198 -466 0
-693 -468 694 0
-693 468 695 0
693 468 -695 0
693 -468 -694 0
-694 198 -471 0
-694 4594 471 0
694 -4594 471 0
694 -198 -471 0
-695 198 -473 0
-695 4602 473 0
695 -4602 473 0
695 -198 -473 0
-696 4458 -474 0
-696 474 697 0
-696 -474 -494 0
696 474 -697 0
696 -4458 -474 494 0
-697 4466 -496 0
-697 496 698 0
-697 -496 -498 0
697 496 -698 0
697 -4466 -496 498 0
-698 4474 -500 0
-698 500 699 0
-698 -500 -501 0
698 500 -699 0
698 -4474 -500 501 0
-699 4482 -503 0
-699 503 700 0
-699 -503 -506 0
699 503 -700 0
699 -4482 -503 506 0
-700 4490 -508 0
-700 508 701 0
-700 -508 -509 0
700 508 -701 0
700 -4490 -508 509 0
-701 4498 -511 0
-701 511 702 0
-701 -511 -513 0
701 511 -702 0
701 -4498 -511 513 0
-702 4506 -515 0
-702 515 703 0
-702 -515 -516 0
702 515 -703 0
702 -4506 -515 516 0
-703 518 704 0
-703 -518 -520 0
-703 4514 -518 0
703 518 -704 0
703 -4514 -518 520 0
704 -4522 522 0
-704 4522 0
-704 -522 0
-705 706 982 0
-705 706 -973 0
-705 -973 982 0
705 973 -982 0
705 -706 -982 0
705 -706 973 0
-706 707 956 0
-706 707 -947 0
-706 -947 956 0
706 947 -956 0
706 -707 -956 0
706 -707 947 0
-707 708 930 0
-707 708 -921 0
-707 -921 930 0
707 921 -930 0
707 -708 -930 0
707 -708 921 0
-708 709 904 0
-708 709 -895 0
-708 -895 904 0
708 895 -904 0
708 -709 -904 0
708 -709 895 0
-709 710 878 0
-709 710 -869 0
-709 -869 878 0
709 869 -878 0
709 -710 -878 0
709 -710 869 0
-710 711 852 0
-710 711 -843 0
-710 -843 852 0
710 843 -852 0
710 -711 -852 0
710 -711 843 0
-711 -817 826 0
-711 712 -817 0
-711 712 826 0
711 -712 817 0
711 817 -826 0
711 -712 -826 0
712 713 761 -782 0
712 713 -761 -780 0
-712 -713 0
-712 -761 780 0
-712 761 782 0
-713 437 -714 0
-713 714 733 0
-713 -714 -732 0
713 714 -733 0
713 -437 -714 732 0
714 -715 716 717 0
-714 -717 0
-714 -716 0
-714 715 0
-715 4706 420 0
-715 -4706 -420 0
715 -4706 420 0
715 4706 -420 0
-716 4706 421 0
-716 -4706 420 -421 0
-716 -420 421 0
716 4706 -421 0
716 -420 -421 0
716 -4706 420 421 0
-717 718 720 0
717 -718 0
717 -720 0
-718 423 -719 0
-718 -4706 -423 719 0
-718 4706 423 0
718 -423 -719 0
718 4706 -423 0
718 -4706 423 719 0
-719 420 421 0
719 -420 0
719 -421 0
-720 721 723 0
720 -721 0
720 -723 0
-721 426 -722 0
-721 -4706 -426 722 0
-721 4706 426 0
721 -426 -722 0
721 4706 -426 0
721 -4706 426 722 0
-722 423 719 0
722 -423 0
722 -719 0
-723 724 726 728 731 0
723 -731 0
723 -724 0
723 -728 0
723 -726 0
-724 429 -725 0
-724 -4706 -429 725 0
-724 4706 429 0
724 -429 -725 0
724 4706 -429 0
724 -4706 429 725 0
-725 426 722 0
725 -426 0
725 -722 0
-726 431 -727 0
-726 -4706 -431 727 0
-726 4706 431 0
726 -431 -727 0
726 4706 -431 0
726 -4706 431 727 0
-727 429 725 0
727 -429 0
727 -725 0
-728 433 -729 0
-728 -4706 -433 729 0
-728 4706 433 0
728 -433 -729 0
728 4706 -433 0
728 -4706 433 729 0
-729 436 730 0
729 -436 0
729 -730 0
-730 431 727 0
730 -431 0
730 -727 0
-731 436 -730 0
-731 -4706 -436 730 0
-731 4706 436 0
731 -436 -730 0
731 4706 -436 0
731 -4706 436 730 0
732 -4706 -419 0
-732 4706 0
-732 419 0
-733 442 -734 0
-733 734 737 0
-733 -734 -736 0
733 734 -737 0
733 -442 -734 736 0
734 715 -735 0
-734 -715 0
-734 735 0
735 -716 717 0
-735 716 0
-735 -717 0
736 -4706 -440 0
-736 4706 0
-736 440 0
-737 446 -738 0
-737 738 740 0
-737 -738 -739 0
737 738 -740 0
737 -446 -738 739 0
738 -715 -735 0
-738 715 0
-738 735 0
739 -4706 -445 0
-739 4706 0
-739 445 0
-740 452 -741 0
-740 741 745 0
-740 -741 -744 0
740 741 -745 0
740 -452 -741 744 0
741 715 -742 0
-741 -715 0
-741 742 0
742 716 -743 0
-742 -716 0
-742 743 0
743 -718 720 0
-743 718 0
-743 -720 0
744 -4706 -449 0
-744 4706 0
-744 449 0
-745 456 -746 0
-745 746 748 0
-745 -746 -747 0
745 746 -748 0
745 -456 -746 747 0
746 -715 -742 0
-746 715 0
-746 742 0
747 -4706 -455 0
-747 4706 0
-747 455 0
-748 461 -749 0
-748 749 752 0
-748 -749 -751 0
748 749 -752 0
748 -461 -749 751 0
749 715 -750 0
-749 -715 0
-749 750 0
750 -716 -743 0
-750 716 0
-750 743 0
751 -4706 -459 0
-751 4706 0
-751 459 0
-752 465 -753 0
-752 753 755 0
-752 -753 -754 0
752 753 -755 0
752 -465 -753 754 0
753 -715 -750 0
-753 715 0
-753 750 0
754 -4706 -464 0
-754 4706 0
-754 464 0
-755 -756 758 0
-755 472 756 0
-755 756 -760 0
755 -756 -758 0
755 -472 756 760 0
756 715 -757 0
-756 -715 0
-756 757 0
757 716 718 -721 723 0
-757 -723 0
-757 -716 0
-757 -718 0
-757 721 0
758 -470 759 0
-758 470 0
-758 -759 0
759 -4706 -468 0
-759 4706 0
-759 468 0
760 -4706 -420 -469 0
-760 4706 0
-760 420 0
-760 469 0
761 -762 763 0
-761 762 0
-761 -763 0
-762 -4697 -4705 0
-762 4697 4705 0
762 4697 -4705 0
762 -4697 4705 0
-763 764 765 0
763 -764 0
763 -765 0
-764 4696 4705 0
-764 4696 4697 0
-764 -4696 -4697 -4705 0
764 -4696 4697 0
764 4696 -4697 -4705 0
764 -4696 4705 0
-765 766 768 0
765 -766 0
765 -768 0
-766 4695 767 0
-766 4695 4705 0
-766 -4695 -4705 -767 0
766 -4695 4705 0
766 4695 -4705 -767 0
766 -4695 767 0
767 -4696 -4697 0
-767 4696 0
-767 4697 0
-768 769 771 0
768 -769 0
768 -771 0
-769 4694 770 0
-769 4694 4705 0
-769 -4694 -4705 -770 0
769 -4694 4705 0
769 4694 -4705 -770 0
769 -4694 770 0
770 -4695 -767 0
-770 4695 0
-770 767 0
-771 772 774 776 779 0
771 -779 0
771 -772 0
771 -776 0
771 -774 0
-772 4693 773 0
-772 4693 4705 0
-772 -4693 -4705 -773 0
772 -4693 4705 0
772 4693 -4705 -773 0
772 -4693 773 0
773 -4694 -770 0
-773 4694 0
-773 770 0
-774 4692 775 0
-774 4692 4705 0
-774 -4692 -4705 -775 0
774 -4692 4705 0
774 4692 -4705 -775 0
774 -4692 775 0
775 -4693 -773 0
-775 4693 0
-775 773 0
-776 4690 777 0
-776 4690 4705 0
-776 -4690 -4705 -777 0
776 -4690 4705 0
776 4690 -4705 -777 0
776 -4690 777 0
777 -4691 -778 0
-777 4691 0
-777 778 0
778 -4692 -775 0
-778 4692 0
-778 775 0
-779 4691 778 0
-779 4691 4705 0
-779 -4691 -4705 -778 0
779 -4691 4705 0
779 4691 -4705 -778 0
779 -4691 778 0
-780 222 -781 0
-780 4625 781 0
780 -4625 781 0
780 -222 -781 0
781 4697 -4705 271 0
-781 -271 0
-781 4705 0
-781 -4697 0
-782 -783 785 0
-782 783 787 0
782 783 -787 0
782 -783 -785 0
783 762 -784 0
-783 -762 0
-783 784 0
784 -764 765 0
-784 764 0
-784 -765 0
-785 222 -786 0
-785 4633 786 0
785 -4633 786 0
785 -222 -786 0
786 -4705 -270 0
-786 4705 0
-786 270 0
-787 -788 789 0
-787 788 791 0
787 788 -791 0
787 -788 -789 0
788 -762 -784 0
-788 762 0
-788 784 0
-789 222 -790 0
-789 4641 790 0
789 -4641 790 0
789 -222 -790 0
790 -4705 -275 0
-790 4705 0
-790 275 0
-791 -792 795 0
-791 792 797 0
791 792 -797 0
791 -792 -795 0
792 762 -793 0
-792 -762 0
-792 793 0
793 764 -794 0
-793 -764 0
-793 794 0
794 -766 768 0
-794 766 0
-794 -768 0
-795 222 -796 0
-795 4649 796 0
795 -4649 796 0
795 -222 -796 0
796 -4705 -278 0
-796 4705 0
-796 278 0
-797 -798 799 0
-797 798 801 0
797 798 -801 0
797 -798 -799 0
798 -762 -793 0
-798 762 0
-798 793 0
-799 222 -800 0
-799 4657 800 0
799 -4657 800 0
799 -222 -800 0
800 -4705 -280 0
-800 4705 0
-800 280 0
-801 -802 804 0
-801 802 806 0
801 802 -806 0
801 -802 -804 0
802 762 -803 0
-802 -762 0
-802 803 0
803 -764 -794 0
-803 764 0
-803 794 0
-804 222 -805 0
-804 4665 805 0
804 -4665 805 0
804 -222 -805 0
805 -4705 -284 0
-805 4705 0
-805 284 0
-806 -807 808 0
-806 807 810 0
806 807 -810 0
806 -807 -808 0
807 -762 -803 0
-807 762 0
-807 803 0
-808 222 -809 0
-808 4673 809 0
808 -4673 809 0
808 -222 -809 0
809 -4705 -286 0
-809 4705 0
-809 286 0
-810 -811 813 0
-810 811 815 0
810 811 -815 0
810 -811 -813 0
811 762 764 766 -812 0
-811 812 0
-811 -762 0
-811 -766 0
-811 -764 0
812 -769 771 0
-812 769 0
-812 -771 0
-813 222 -814 0
-813 4681 814 0
813 -4681 814 0
813 -222 -814 0
814 -4705 -289 0
-814 4705 0
-814 289 0
-815 222 -816 0
-815 4689 816 0
815 -4689 816 0
815 -222 -816 0
816 -4705 -4 0
-816 4705 0
-816 4 0
-817 524 -714 0
-817 714 818 0
-817 -714 -732 0
817 714 -818 0
817 -524 -714 732 0
-818 526 -734 0
-818 734 819 0
-818 -734 -736 0
818 734 -819 0
818 -526 -734 736 0
-819 528 -738 0
-819 738 820 0
-819 -738 -739 0
819 738 -820 0
819 -528 -738 739 0
-820 530 -741 0
-820 741 821 0
-820 -741 -744 0
820 741 -821 0
820 -530 -741 744 0
-821 532 -746 0
-821 746 822 0
-821 -746 -747 0
821 746 -822 0
821 -532 -746 747 0
-822 534 -749 0
-822 749 823 0
-822 -749 -751 0
822 749 -823 0
822 -534 -749 751 0
-823 536 -753 0
-823 753 824 0
-823 -753 -754 0
823 753 -824 0
823 -536 -753 754 0
-824 539 756 0
-824 -756 825 0
-824 756 -760 0
824 -756 -825 0
824 -539 756 760 0
825 -538 759 0
-825 538 0
-825 -759 0
-826 -761 827 0
-826 761 828 0
826 761 -828 0
826 -761 -827 0
-827 291 -781 0
-827 4624 781 0
827 -4624 781 0
827 -291 -781 0
-828 -783 829 0
-828 783 830 0
828 783 -830 0
828 -783 -829 0
-829 291 -786 0
-829 4632 786 0
829 -4632 786 0
829 -291 -786 0
-830 -788 831 0
-830 788 832 0
830 788 -832 0
830 -788 -831 0
-831 291 -790 0
-831 4640 790 0
831 -4640 790 0
831 -291 -790 0
-832 -792 833 0
-832 792 834 0
832 792 -834 0
832 -792 -833 0
-833 291 -796 0
-833 4648 796 0
833 -4648 796 0
833 -291 -796 0
-834 -798 835 0
-834 798 836 0
834 798 -836 0
834 -798 -835 0
-835 291 -800 0
-835 4656 800 0
835 -4656 800 0
835 -291 -800 0
-836 -802 837 0
-836 802 838 0
836 802 -838 0
836 -802 -837 0
-837 291 -805 0
-837 4664 805 0
837 -4664 805 0
837 -291 -805 0
-838 -807 839 0
-838 807 840 0
838 807 -840 0
838 -807 -839 0
-839 291 -809 0
-839 4672 809 0
839 -4672 809 0
839 -291 -809 0
-840 -811 841 0
-840 811 842 0
840 811 -842 0
840 -811 -841 0
-841 291 -814 0
-841 4680 814 0
841 -4680 814 0
841 -291 -814 0
-842 291 -816 0
-842 4688 816 0
842 -4688 816 0
842 -291 -816 0
-843 550 -714 0
-843 714 844 0
-843 -714 -732 0
843 714 -844 0
843 -550 -714 732 0
-844 552 -734 0
-844 734 845 0
-844 -734 -736 0
844 734 -845 0
844 -552 -734 736 0
-845 554 -738 0
-845 738 846 0
-845 -738 -739 0
845 738 -846 0
845 -554 -738 739 0
-846 556 -741 0
-846 741 847 0
-846 -741 -744 0
846 741 -847 0
846 -556 -741 744 0
-847 558 -746 0
-847 746 848 0
-847 -746 -747 0
847 746 -848 0
847 -558 -746 747 0
-848 560 -749 0
-848 749 849 0
-848 -749 -751 0
848 749 -849 0
848 -560 -749 751 0
-849 562 -753 0
-849 753 850 0
-849 -753 -754 0
849 753 -850 0
849 -562 -753 754 0
-850 565 756 0
-850 -756 851 0
-850 756 -760 0
850 -756 -851 0
850 -565 756 760 0
851 -564 759 0
-851 564 0
-851 -759 0
-852 -761 853 0
-852 761 854 0
852 761 -854 0
852 -761 -853 0
-853 308 -781 0
-853 4623 781 0
853 -4623 781 0
853 -308 -781 0
-854 -783 855 0
-854 783 856 0
854 783 -856 0
854 -783 -855 0
-855 308 -786 0
-855 4631 786 0
855 -4631 786 0
855 -308 -786 0
-856 -788 857 0
-856 788 858 0
856 788 -858 0
856 -788 -857 0
-857 308 -790 0
-857 4639 790 0
857 -4639 790 0
857 -308 -790 0
-858 -792 859 0
-858 792 860 0
858 792 -860 0
858 -792 -859 0
-859 308 -796 0
-859 4647 796 0
859 -4647 796 0
859 -308 -796 0
-860 -798 861 0
-860 798 862 0
860 798 -862 0
860 -798 -861 0
-861 308 -800 0
-861 4655 800 0
861 -4655 800 0
861 -308 -800 0
-862 -802 863 0
-862 802 864 0
862 802 -864 0
862 -802 -863 0
-863 308 -805 0
-863 4663 805 0
863 -4663 805 0
863 -308 -805 0
-864 -807 865 0
-864 807 866 0
864 807 -866 0
864 -807 -865 0
-865 308 -809 0
-865 4671 809 0
865 -4671 809 0
865 -308 -809 0
-866 -811 867 0
-866 811 868 0
866 811 -868 0
866 -811 -867 0
-867 308 -814 0
-867 4679 814 0
867 -4679 814 0
867 -308 -814 0
-868 308 -816 0
-868 4687 816 0
868 -4687 816 0
868 -308 -816 0
-869 576 -714 0
-869 714 870 0
-869 -714 -732 0
869 714 -870 0
869 -576 -714 732 0
-870 578 -734 0
-870 734 871 0
-870 -734 -736 0
870 734 -871 0
870 -578 -734 736 0
-871 580 -738 0
-871 738 872 0
-871 -738 -739 0
871 738 -872 0
871 -580 -738 739 0
-872 582 -741 0
-872 741 873 0
-872 -741 -744 0
872 741 -873 0
872 -582 -741 744 0
-873 584 -746 0
-873 746 874 0
-873 -746 -747 0
873 746 -874 0
873 -584 -746 747 0
-874 586 -749 0
-874 749 875 0
-874 -749 -751 0
874 749 -875 0
874 -586 -749 751 0
-875 588 -753 0
-875 753 876 0
-875 -753 -754 0
875 753 -876 0
875 -588 -753 754 0
-876 591 756 0
-876 -756 877 0
-876 756 -760 0
876 -756 -877 0
876 -591 756 760 0
877 -590 759 0
-877 590 0
-877 -759 0
-878 -761 879 0
-878 761 880 0
878 761 -880 0
878 -761 -879 0
-879 325 -781 0
-879 4622 781 0
879 -4622 781 0
879 -325 -781 0
-880 -783 881 0
-880 783 882 0
880 783 -882 0
880 -783 -881 0
-881 325 -786 0
-881 4630 786 0
881 -4630 786 0
881 -325 -786 0
-882 -788 883 0
-882 788 884 0
882 788 -884 0
882 -788 -883 0
-883 325 -790 0
-883 4638 790 0
883 -4638 790 0
883 -325 -790 0
-884 -792 885 0
-884 792 886 0
884 792 -886 0
884 -792 -885 0
-885 325 -796 0
-885 4646 796 0
885 -4646 796 0
885 -325 -796 0
-886 -798 887 0
-886 798 888 0
886 798 -888 0
886 -798 -887 0
-887 325 -800 0
-887 4654 800 0
887 -4654 800 0
887 -325 -800 0
-888 -802 889 0
-888 802 890 0
888 802 -890 0
888 -802 -889 0
-889 325 -805 0
-889 4662 805 0
889 -4662 805 0
889 -325 -805 0
-890 -807 891 0
-890 807 892 0
890 807 -892 0
890 -807 -891 0
-891 325 -809 0
-891 4670 809 0
891 -4670 809 0
891 -325 -809 0
-892 -811 893 0
-892 811 894 0
892 811 -894 0
892 -811 -893 0
-893 325 -814 0
-893 4678 814 0
893 -4678 814 0
893 -325 -814 0
-894 325 -816 0
-894 4686 816 0
894 -4686 816 0
894 -325 -816 0
-895 602 -714 0
-895 714 896 0
-895 -714 -732 0
895 714 -896 0
895 -602 -714 732 0
-896 604 -734 0
-896 734 897 0
-896 -734 -736 0
896 734 -897 0
896 -604 -734 736 0
-897 606 -738 0
-897 738 898 0
-897 -738 -739 0
897 738 -898 0
897 -606 -738 739 0
-898 608 -741 0
-898 741 899 0
-898 -741 -744 0
898 741 -899 0
898 -608 -741 744 0
-899 610 -746 0
-899 746 900 0
-899 -746 -747 0
899 746 -900 0
899 -610 -746 747 0
-900 612 -749 0
-900 749 901 0
-900 -749 -751 0
900 749 -901 0
900 -612 -749 751 0
-901 614 -753 0
-901 753 902 0
-901 -753 -754 0
901 753 -902 0
901 -614 -753 754 0
-902 617 756 0
-902 -756 903 0
-902 756 -760 0
902 -756 -903 0
902 -617 756 760 0
903 -616 759 0
-903 616 0
-903 -759 0
-904 -761 905 0
-904 761 906 0
904 761 -906 0
904 -761 -905 0
-905 342 -781 0
-905 4621 781 0
905 -4621 781 0
905 -342 -781 0
-906 -783 907 0
-906 783 908 0
906 783 -908 0
906 -783 -907 0
-907 342 -786 0
-907 4629 786 0
907 -4629 786 0
907 -342 -786 0
-908 -788 909 0
-908 788 910 0
908 788 -910 0
908 -788 -909 0
-909 342 -790 0
-909 4637 790 0
909 -4637 790 0
909 -342 -790 0
-910 -792 911 0
-910 792 912 0
910 792 -912 0
910 -792 -911 0
-911 342 -796 0
-911 4645 796 0
911 -4645 796 0
911 -342 -796 0
-912 -798 913 0
-912 798 914 0
912 798 -914 0
912 -798 -913 0
-913 342 -800 0
-913 4653 800 0
913 -4653 800 0
913 -342 -800 0
-914 -802 915 0
-914 802 916 0
914 802 -916 0
914 -802 -915 0
-915 342 -805 0
-915 4661 805 0
915 -4661 805 0
915 -342 -805 0
-916 -807 917 0
-916 807 918 0
916 807 -918 0
916 -807 -917 0
-917 342 -809 0
-917 4669 809 0
917 -4669 809 0
917 -342 -809 0
-918 -811 919 0
-918 811 920 0
918 811 -920 0
918 -811 -919 0
-919 342 -814 0
-919 4677 814 0
919 -4677 814 0
919 -342 -814 0
-920 342 -816 0
-920 4685 816 0
920 -4685 816 0
920 -342 -816 0
-921 628 -714 0
-921 714 922 0
-921 -714 -732 0
921 714 -922 0
921 -628 -714 732 0
-922 630 -734 0
-922 734 923 0
-922 -734 -736 0
922 734 -923 0
922 -630 -734 736 0
-923 632 -738 0
-923 738 924 0
-923 -738 -739 0
923 738 -924 0
923 -632 -738 739 0
-924 634 -741 0
-924 741 925 0
-924 -741 -744 0
924 741 -925 0
924 -634 -741 744 0
-925 636 -746 0
-925 746 926 0
-925 -746 -747 0
925 746 -926 0
925 -636 -746 747 0
-926 638 -749 0
-926 749 927 0
-926 -749 -751 0
926 749 -927 0
926 -638 -749 751 0
-927 640 -753 0
-927 753 928 0
-927 -753 -754 0
927 753 -928 0
927 -640 -753 754 0
-928 643 756 0
-928 -756 929 0
-928 756 -760 0
928 -756 -929 0
928 -643 756 760 0
929 -642 759 0
-929 642 0
-929 -759 0
-930 -761 931 0
-930 761 932 0
930 761 -932 0
930 -761 -931 0
-931 359 -781 0
-931 4620 781 0
931 -4620 781 0
931 -359 -781 0
-932 -783 933 0
-932 783 934 0
932 783 -934 0
932 -783 -933 0
-933 359 -786 0
-933 4628 786 0
933 -4628 786 0
933 -359 -786 0
-934 -788 935 0
-934 788 936 0
934 788 -936 0
934 -788 -935 0
-935 359 -790 0
-935 4636 790 0
935 -4636 790 0
935 -359 -790 0
-936 -792 937 0
-936 792 938 0
936 792 -938 0
936 -792 -937 0
-937 359 -796 0
-937 4644 796 0
937 -4644 796 0
937 -359 -796 0
-938 -798 939 0
-938 798 940 0
938 798 -940 0
938 -798 -939 0
-939 359 -800 0
-939 4652 800 0
939 -4652 800 0
939 -359 -800 0
-940 -802 941 0
-940 802 942 0
940 802 -942 0
940 -802 -941 0
-941 359 -805 0
-941 4660 805 0
941 -4660 805 0
941 -359 -805 0
-942 -807 943 0
-942 807 944 0
942 807 -944 0
942 -807 -943 0
-943 359 -809 0
-943 4668 809 0
943 -4668 809 0
943 -359 -809 0
-944 -811 945 0
-944 811 946 0
944 811 -946 0
944 -811 -945 0
-945 359 -814 0
-945 4676 814 0
945 -4676 814 0
945 -359 -814 0
-946 359 -816 0
-946 4684 816 0
946 -4684 816 0
946 -359 -816 0
-947 654 -714 0
-947 714 948 0
-947 -714 -732 0
947 714 -948 0
947 -654 -714 732 0
-948 656 -734 0
-948 734 949 0
-948 -734 -736 0
948 734 -949 0
948 -656 -734 736 0
-949 658 -738 0
-949 738 950 0
-949 -738 -739 0
949 738 -950 0
949 -658 -738 739 0
-950 660 -741 0
-950 741 951 0
-950 -741 -744 0
950 741 -951 0
950 -660 -741 744 0
-951 662 -746 0
-951 746 952 0
-951 -746 -747 0
951 746 -952 0
951 -662 -746 747 0
-952 664 -749 0
-952 749 953 0
-952 -749 -751 0
952 749 -953 0
952 -664 -749 751 0
-953 666 -753 0
-953 753 954 0
-953 -753 -754 0
953 753 -954 0
953 -666 -753 754 0
-954 669 756 0
-954 -756 955 0
-954 756 -760 0
954 -756 -955 0
954 -669 756 760 0
955 -668 759 0
-955 668 0
-955 -759 0
-956 -761 957 0
-956 761 958 0
956 761 -958 0
956 -761 -957 0
-957 376 -781 0
-957 4619 781 0
957 -4619 781 0
957 -376 -781 0
-958 -783 959 0
-958 783 960 0
958 783 -960 0
958 -783 -959 0
-959 376 -786 0
-959 4627 786 0
959 -4627 786 0
959 -376 -786 0
-960 -788 961 0
-960 788 962 0
960 788 -962 0
960 -788 -961 0
-961 376 -790 0
-961 4635 790 0
961 -4635 790 0
961 -376 -790 0
-962 -792 963 0
-962 792 964 0
962 792 -964 0
962 -792 -963 0
-963 376 -796 0
-963 4643 796 0
963 -4643 796 0
963 -376 -796 0
-964 -798 965 0
-964 798 966 0
964 798 -966 0
964 -798 -965 0
-965 376 -800 0
-965 4651 800 0
965 -4651 800 0
965 -376 -800 0
-966 -802 967 0
-966 802 968 0
966 802 -968 0
966 -802 -967 0
-967 376 -805 0
-967 4659 805 0
967 -4659 805 0
967 -376 -805 0
-968 -807 969 0
-968 807 970 0
968 807 -970 0
968 -807 -969 0
-969 376 -809 0
-969 4667 809 0
969 -4667 809 0
969 -376 -809 0
-970 -811 971 0
-970 811 972 0
970 811 -972 0
970 -811 -971 0
-971 376 -814 0
-971 4675 814 0
971 -4675 814 0
971 -376 -814 0
-972 376 -816 0
-972 4683 816 0
972 -4683 816 0
972 -376 -816 0
-973 680 -714 0
-973 714 974 0
-973 -714 -732 0
973 714 -974 0
973 -680 -714 732 0
-974 682 -734 0
-974 734 975 0
-974 -734 -736 0
974 734 -975 0
974 -682 -734 736 0
-975 684 -738 0
-975 738 976 0
-975 -738 -739 0
975 738 -976 0
975 -684 -738 739 0
-976 686 -741 0
-976 741 977 0
-976 -741 -744 0
976 741 -977 0
976 -686 -741 744 0
-977 688 -746 0
-977 746 978 0
-977 -746 -747 0
977 746 -978 0
977 -688 -746 747 0
-978 690 -749 0
-978 749 979 0
-978 -749 -751 0
978 749 -979 0
978 -690 -749 751 0
-979 692 -753 0
-979 753 980 0
-979 -753 -754 0
979 753 -980 0
979 -692 -753 754 0
-980 695 756 0
-980 -756 981 0
-980 756 -760 0
980 -756 -981 0
980 -695 756 760 0
981 -694 759 0
-981 694 0
-981 -759 0
-982 -761 983 0
-982 761 984 0
982 761 -984 0
982 -761 -983 0
-983 393 -781 0
-983 4618 781 0
983 -4618 781 0
983 -393 -781 0
-984 -783 985 0
-984 783 986 0
984 783 -986 0
984 -783 -985 0
-985 393 -786 0
-985 4626 786 0
985 -4626 786 0
985 -393 -786 0
-986 -788 987 0
-986 788 988 0
986 788 -988 0
986 -788 -987 0
-987 393 -790 0
-987 4634 790 0
987 -4634 790 0
987 -393 -790 0
-988 -792 989 0
-988 792 990 0
988 792 -990 0
988 -792 -989 0
-989 393 -796 0
-989 4642 796 0
989 -4642 796 0
989 -393 -796 0
-990 -798 991 0
-990 798 992 0
990 798 -992 0
990 -798 -991 0
-991 393 -800 0
-991 4650 800 0
991 -4650 800 0
991 -393 -800 0
-992 -802 993 0
-992 802 994 0
992 802 -994 0
992 -802 -993 0
-993 393 -805 0
-993 4658 805 0
993 -4658 805 0
993 -393 -805 0
-994 -807 995 0
-994 807 996 0
994 807 -996 0
994 -807 -995 0
-995 393 -809 0
-995 4666 809 0
995 -4666 809 0
995 -393 -809 0
-996 -811 997 0
-996 811 998 0
996 811 -998 0
996 -811 -997 0
-997 393 -814 0
-997 4674 814 0
997 -4674 814 0
997 -393 -814 0
-998 393 -816 0
-998 4682 816 0
998 -4682 816 0
998 -393 -816 0
-999 1000 1340 0
-999 1000 -1323 0
-999 -1323 1340 0
999 1323 -1340 0
999 -1000 -1340 0
999 -1000 1323 0
-1000 1001 1306 0
-1000 1001 -1289 0
-1000 -1289 1306 0
1000 1289 -1306 0
1000 -1001 -1306 0
1000 -1001 1289 0
-1001 1002 1272 0
-1001 1002 -1255 0
-1001 -1255 1272 0
1001 1255 -1272 0
1001 -1002 -1272 0
1001 -1002 1255 0
-1002 1003 1238 0
-1002 1003 -1221 0
-1002 -1221 1238 0
1002 1221 -1238 0
1002 -1003 -1238 0
1002 -1003 1221 0
-1003 1004 1204 0
-1003 1004 -1187 0
-1003 -1187 1204 0
1003 1187 -1204 0
1003 -1004 -1204 0
1003 -1004 1187 0
-1004 1005 1170 0
-1004 1005 -1153 0
-1004 -1153 1170 0
1004 1153 -1170 0
1004 -1005 -1170 0
1004 -1005 1153 0
-1005 -1119 1136 0
-1005 1006 -1119 0
-1005 1006 1136 0
1005 -1006 1119 0
1005 1119 -1136 0
1005 -1006 -1136 0
1006 1007 1063 -1084 0
1006 1007 -1063 -1082 0
-1006 -1007 0
-1006 -1063 1082 0
-1006 1063 1084 0
-1007 -1008 1026 0
-1007 1008 1028 0
1007 1008 -1028 0
1007 -1008 -1026 0
1008 -1009 1010 1011 0
-1008 -1011 0
-1008 -1010 0
-1008 1009 0
-1009 4707 762 0
-1009 -4707 -762 0
1009 -4707 762 0
1009 4707 -762 0
-1010 4707 764 0
-1010 -4707 -762 -764 0
-1010 762 764 0
1010 762 -764 0
1010 4707 -764 0
1010 -4707 -762 764 0
-1011 1012 1014 0
1011 -1012 0
1011 -1014 0
-1012 766 1013 0
-1012 -4707 -766 -1013 0
-1012 4707 766 0
1012 -766 1013 0
1012 4707 -766 0
1012 -4707 766 -1013 0
1013 -762 -764 0
-1013 762 0
-1013 764 0
-1014 1015 1017 0
1014 -1015 0
1014 -1017 0
-1015 769 1016 0
-1015 -4707 -769 -1016 0
-1015 4707 769 0
1015 -769 1016 0
1015 4707 -769 0
1015 -4707 769 -1016 0
1016 -766 -1013 0
-1016 766 0
-1016 1013 0
-1017 1018 1020 1022 1025 0
1017 -1025 0
1017 -1018 0
1017 -1022 0
1017 -1020 0
-1018 772 1019 0
-1018 -4707 -772 -1019 0
-1018 4707 772 0
1018 -772 1019 0
1018 4707 -772 0
1018 -4707 772 -1019 0
1019 -769 -1016 0
-1019 769 0
-1019 1016 0
-1020 774 1021 0
-1020 -4707 -774 -1021 0
-1020 4707 774 0
1020 -774 1021 0
1020 4707 -774 0
1020 -4707 774 -1021 0
1021 -772 -1019 0
-1021 772 0
-1021 1019 0
-1022 776 1023 0
-1022 -4707 -776 -1023 0
-1022 4707 776 0
1022 -776 1023 0
1022 4707 -776 0
1022 -4707 776 -1023 0
1023 -779 -1024 0
-1023 779 0
-1023 1024 0
1024 -774 -1021 0
-1024 774 0
-1024 1021 0
-1025 779 1024 0
-1025 -4707 -779 -1024 0
-1025 4707 779 0
1025 -779 1024 0
1025 4707 -779 0
1025 -4707 779 -1024 0
-1026 780 1027 0
-1026 713 -1027 0
1026 -780 1027 0
1026 -713 -1027 0
1027 -4707 762 763 0
-1027 4707 0
-1027 -762 0
-1027 -763 0
-1028 -1029 1031 0
-1028 1029 1033 0
1028 1029 -1033 0
1028 -1029 -1031 0
1029 1009 -1030 0
-1029 -1009 0
-1029 1030 0
1030 -1010 1011 0
-1030 1010 0
-1030 -1011 0
-1031 785 1032 0
-1031 713 -1032 0
1031 -785 1032 0
1031 -713 -1032 0
1032 -4707 -761 0
-1032 4707 0
-1032 761 0
-1033 -1034 1035 0
-1033 1034 1037 0
1033 1034 -1037 0
1033 -1034 -1035 0
1034 -1009 -1030 0
-1034 1009 0
-1034 1030 0
-1035 789 1036 0
-1035 713 -1036 0
1035 -789 1036 0
1035 -713 -1036 0
1036 -4707 -783 0
-1036 4707 0
-1036 783 0
-1037 -1038 1041 0
-1037 1038 1043 0
1037 1038 -1043 0
1037 -1038 -1041 0
1038 1009 -1039 0
-1038 -1009 0
-1038 1039 0
1039 1010 -1040 0
-1039 -1010 0
-1039 1040 0
1040 -1012 1014 0
-1040 1012 0
-1040 -1014 0
-1041 795 1042 0
-1041 713 -1042 0
1041 -795 1042 0
1041 -713 -1042 0
1042 -4707 -788 0
-1042 4707 0
-1042 788 0
-1043 -1044 1045 0
-1043 1044 1047 0
1043 1044 -1047 0
1043 -1044 -1045 0
1044 -1009 -1039 0
-1044 1009 0
-1044 1039 0
-1045 799 1046 0
-1045 713 -1046 0
1045 -799 1046 0
1045 -713 -1046 0
1046 -4707 -792 0
-1046 4707 0
-1046 792 0
-1047 -1048 1050 0
-1047 1048 1052 0
1047 1048 -1052 0
1047 -1048 -1050 0
1048 1009 -1049 0
-1048 -1009 0
-1048 1049 0
1049 -1010 -1040 0
-1049 1010 0
-1049 1040 0
-1050 804 1051 0
-1050 713 -1051 0
1050 -804 1051 0
1050 -713 -1051 0
1051 -4707 -798 0
-1051 4707 0
-1051 798 0
-1052 -1053 1054 0
-1052 1053 1056 0
1052 1053 -1056 0
1052 -1053 -1054 0
1053 -1009 -1049 0
-1053 1009 0
-1053 1049 0
-1054 808 1055 0
-1054 713 -1055 0
1054 -808 1055 0
1054 -713 -1055 0
1055 -4707 -802 0
-1055 4707 0
-1055 802 0
-1056 -1057 1059 0
-1056 1057 1061 0
1056 1057 -1061 0
1056 -1057 -1059 0
1057 1009 -1058 0
-1057 -1009 0
-1057 1058 0
1058 1010 1012 -1015 1017 0
-1058 -1017 0
-1058 -1010 0
-1058 -1012 0
-1058 1015 0
-1059 813 1060 0
-1059 713 -1060 0
1059 -813 1060 0
1059 -713 -1060 0
1060 -4707 -807 0
-1060 4707 0
-1060 807 0
-1061 815 1062 0
-1061 713 -1062 0
1061 -815 1062 0
1061 -713 -1062 0
1062 -4707 -811 0
-1062 4707 0
-1062 811 0
1063 -1064 1065 0
-1063 1064 0
-1063 -1065 0
-1064 4706 475 0
-1064 -4706 -475 0
1064 -4706 475 0
1064 4706 -475 0
-1065 1066 1067 0
1065 -1066 0
1065 -1067 0
-1066 4706 477 0
-1066 -4706 -475 -477 0
-1066 475 477 0
1066 475 -477 0
1066 4706 -477 0
1066 -4706 -475 477 0
-1067 1068 1070 0
1067 -1068 0
1067 -1070 0
-1068 479 1069 0
-1068 -4706 -479 -1069 0
-1068 4706 479 0
1068 -479 1069 0
1068 4706 -479 0
1068 -4706 479 -1069 0
1069 -475 -477 0
-1069 475 0
-1069 477 0
-1070 1071 1073 0
1070 -1071 0
1070 -1073 0
-1071 482 1072 0
-1071 -4706 -482 -1072 0
-1071 4706 482 0
1071 -482 1072 0
1071 4706 -482 0
1071 -4706 482 -1072 0
1072 -479 -1069 0
-1072 479 0
-1072 1069 0
-1073 1074 1076 1078 1081 0
1073 -1081 0
1073 -1074 0
1073 -1078 0
1073 -1076 0
-1074 485 1075 0
-1074 -4706 -485 -1075 0
-1074 4706 485 0
1074 -485 1075 0
1074 4706 -485 0
1074 -4706 485 -1075 0
1075 -482 -1072 0
-1075 482 0
-1075 1072 0
-1076 487 1077 0
-1076 -4706 -487 -1077 0
-1076 4706 487 0
1076 -487 1077 0
1076 4706 -487 0
1076 -4706 487 -1077 0
1077 -485 -1075 0
-1077 485 0
-1077 1075 0
-1078 489 1079 0
-1078 -4706 -489 -1079 0
-1078 4706 489 0
1078 -489 1079 0
1078 4706 -489 0
1078 -4706 489 -1079 0
1079 -492 -1080 0
-1079 492 0
-1079 1080 0
1080 -487 -1077 0
-1080 487 0
-1080 1077 0
-1081 492 1080 0
-1081 -4706 -492 -1080 0
-1081 4706 492 0
1081 -492 1080 0
1081 4706 -492 0
1081 -4706 492 -1080 0
-1082 -494 1083 0
-1082 418 -1083 0
-1082 4465 1083 0
1082 -418 -1083 0
1082 -4465 494 1083 0
1083 -4706 475 476 0
-1083 4706 0
-1083 -475 0
-1083 -476 0
-1084 -1085 1087 0
-1084 1085 1089 0
1084 1085 -1089 0
1084 -1085 -1087 0
1085 1064 -1086 0
-1085 -1064 0
-1085 1086 0
1086 -1066 1067 0
-1086 1066 0
-1086 -1067 0
-1087 -498 1088 0
-1087 418 -1088 0
-1087 4473 1088 0
1087 -418 -1088 0
1087 -4473 498 1088 0
1088 -4706 -474 0
-1088 4706 0
-1088 474 0
-1089 -1090 1091 0
-1089 1090 1093 0
1089 1090 -1093 0
1089 -1090 -1091 0
1090 -1064 -1086 0
-1090 1064 0
-1090 1086 0
-1091 -501 1092 0
-1091 418 -1092 0
-1091 4481 1092 0
1091 -418 -1092 0
1091 -4481 501 1092 0
1092 -4706 -496 0
-1092 4706 0
-1092 496 0
-1093 -1094 1097 0
-1093 1094 1099 0
1093 1094 -1099 0
1093 -1094 -1097 0
1094 1064 -1095 0
-1094 -1064 0
-1094 1095 0
1095 1066 -1096 0
-1095 -1066 0
-1095 1096 0
1096 -1068 1070 0
-1096 1068 0
-1096 -1070 0
-1097 -506 1098 0
-1097 418 -1098 0
-1097 4489 1098 0
1097 -418 -1098 0
1097 -4489 506 1098 0
1098 -4706 -500 0
-1098 4706 0
-1098 500 0
-1099 -1100 1101 0
-1099 1100 1103 0
1099 1100 -1103 0
1099 -1100 -1101 0
1100 -1064 -1095 0
-1100 1064 0
-1100 1095 0
-1101 -509 1102 0
-1101 418 -1102 0
-1101 4497 1102 0
1101 -418 -1102 0
1101 -4497 509 1102 0
1102 -4706 -503 0
-1102 4706 0
-1102 503 0
-1103 -1104 1106 0
-1103 1104 1108 0
1103 1104 -1108 0
1103 -1104 -1106 0
1104 1064 -1105 0
-1104 -1064 0
-1104 1105 0
1105 -1066 -1096 0
-1105 1066 0
-1105 1096 0
-1106 -513 1107 0
-1106 418 -1107 0
-1106 4505 1107 0
1106 -418 -1107 0
1106 -4505 513 1107 0
1107 -4706 -508 0
-1107 4706 0
-1107 508 0
-1108 -1109 1110 0
-1108 1109 1112 0
1108 1109 -1112 0
1108 -1109 -1110 0
1109 -1064 -1105 0
-1109 1064 0
-1109 1105 0
-1110 -516 1111 0
-1110 418 -1111 0
-1110 4513 1111 0
1110 -418 -1111 0
1110 -4513 516 1111 0
1111 -4706 -511 0
-1111 4706 0
-1111 511 0
-1112 -1113 1115 0
-1112 1113 1117 0
1112 1113 -1117 0
1112 -1113 -1115 0
1113 1064 1066 1068 -1114 0
-1113 1114 0
-1113 -1064 0
-1113 -1068 0
-1113 -1066 0
1114 -1071 1073 0
-1114 1071 0
-1114 -1073 0
-1115 -520 1116 0
-1115 418 -1116 0
-1115 4521 1116 0
1115 -418 -1116 0
1115 -4521 520 1116 0
1116 -4706 -515 0
-1116 4706 0
-1116 515 0
-1117 418 -1118 0
-1117 521 1118 0
1117 -521 1118 0
1117 -418 -1118 0
1118 -4706 -518 0
-1118 4706 0
-1118 518 0
-1119 -1008 1120 0
-1119 1008 1121 0
1119 1008 -1121 0
1119 -1008 -1120 0
-1120 827 1027 0
-1120 817 -1027 0
1120 -827 1027 0
1120 -817 -1027 0
-1121 -1029 1122 0
-1121 1029 1123 0
1121 1029 -1123 0
1121 -1029 -1122 0
-1122 829 1032 0
-1122 817 -1032 0
1122 -829 1032 0
1122 -817 -1032 0
-1123 -1034 1124 0
-1123 1034 1125 0
1123 1034 -1125 0
1123 -1034 -1124 0
-1124 831 1036 0
-1124 817 -1036 0
1124 -831 1036 0
1124 -817 -1036 0
-1125 -1038 1126 0
-1125 1038 1127 0
1125 1038 -1127 0
1125 -1038 -1126 0
-1126 833 1042 0
-1126 817 -1042 0
1126 -833 1042 0
1126 -817 -1042 0
-1127 -1044 1128 0
-1127 1044 1129 0
1127 1044 -1129 0
1127 -1044 -1128 0
-1128 835 1046 0
-1128 817 -1046 0
1128 -835 1046 0
1128 -817 -1046 0
-1129 -1048 1130 0
-1129 1048 1131 0
1129 1048 -1131 0
1129 -1048 -1130 0
-1130 837 1051 0
-1130 817 -1051 0
1130 -837 1051 0
1130 -817 -1051 0
-1131 -1053 1132 0
-1131 1053 1133 0
1131 1053 -1133 0
1131 -1053 -1132 0
-1132 839 1055 0
-1132 817 -1055 0
1132 -839 1055 0
1132 -817 -1055 0
-1133 -1057 1134 0
-1133 1057 1135 0
1133 1057 -1135 0
1133 -1057 -1134 0
-1134 841 1060 0
-1134 817 -1060 0
1134 -841 1060 0
1134 -817 -1060 0
-1135 842 1062 0
-1135 817 -1062 0
1135 -842 1062 0
1135 -817 -1062 0
-1136 -1063 1137 0
-1136 1063 1138 0
1136 1063 -1138 0
1136 -1063 -1137 0
-1137 -494 1083 0
-1137 523 -1083 0
-1137 4464 1083 0
1137 -523 -1083 0
1137 -4464 494 1083 0
-1138 -1085 1139 0
-1138 1085 1140 0
1138 1085 -1140 0
1138 -1085 -1139 0
-1139 -498 1088 0
-1139 523 -1088 0
-1139 4472 1088 0
1139 -523 -1088 0
1139 -4472 498 1088 0
-1140 -1090 1141 0
-1140 1090 1142 0
1140 1090 -1142 0
1140 -1090 -1141 0
-1141 -501 1092 0
-1141 523 -1092 0
-1141 4480 1092 0
1141 -523 -1092 0
1141 -4480 501 1092 0
-1142 -1094 1143 0
-1142 1094 1144 0
1142 1094 -1144 0
1142 -1094 -1143 0
-1143 -506 1098 0
-1143 523 -1098 0
-1143 4488 1098 0
1143 -523 -1098 0
1143 -4488 506 1098 0
-1144 -1100 1145 0
-1144 1100 1146 0
1144 1100 -1146 0
1144 -1100 -1145 0
-1145 -509 1102 0
-1145 523 -1102 0
-1145 4496 1102 0
1145 -523 -1102 0
1145 -4496 509 1102 0
-1146 -1104 1147 0
-1146 1104 1148 0
1146 1104 -1148 0
1146 -1104 -1147 0
-1147 -513 1107 0
-1147 523 -1107 0
-1147 4504 1107 0
1147 -523 -1107 0
1147 -4504 513 1107 0
-1148 -1109 1149 0
-1148 1109 1150 0
1148 1109 -1150 0
1148 -1109 -1149 0
-1149 -516 1111 0
-1149 523 -1111 0
-1149 4512 1111 0
1149 -523 -1111 0
1149 -4512 516 1111 0
-1150 -1113 1151 0
-1150 1113 1152 0
1150 1113 -1152 0
1150 -1113 -1151 0
-1151 -520 1116 0
-1151 523 -1116 0
-1151 4520 1116 0
1151 -523 -1116 0
1151 -4520 520 1116 0
-1152 523 -1118 0
-1152 548 1118 0
1152 -548 1118 0
1152 -523 -1118 0
-1153 -1008 1154 0
-1153 1008 1155 0
1153 1008 -1155 0
1153 -1008 -1154 0
-1154 853 1027 0
-1154 843 -1027 0
1154 -853 1027 0
1154 -843 -1027 0
-1155 -1029 1156 0
-1155 1029 1157 0
1155 1029 -1157 0
1155 -1029 -1156 0
-1156 855 1032 0
-1156 843 -1032 0
1156 -855 1032 0
1156 -843 -1032 0
-1157 -1034 1158 0
-1157 1034 1159 0
1157 1034 -1159 0
1157 -1034 -1158 0
-1158 857 1036 0
-1158 843 -1036 0
1158 -857 1036 0
1158 -843 -1036 0
-1159 -1038 1160 0
-1159 1038 1161 0
1159 1038 -1161 0
1159 -1038 -1160 0
-1160 859 1042 0
-1160 843 -1042 0
1160 -859 1042 0
1160 -843 -1042 0
-1161 -1044 1162 0
-1161 1044 1163 0
1161 1044 -1163 0
1161 -1044 -1162 0
-1162 861 1046 0
-1162 843 -1046 0
1162 -861 1046 0
1162 -843 -1046 0
-1163 -1048 1164 0
-1163 1048 1165 0
1163 1048 -1165 0
1163 -1048 -1164 0
-1164 863 1051 0
-1164 843 -1051 0
1164 -863 1051 0
1164 -843 -1051 0
-1165 -1053 1166 0
-1165 1053 1167 0
1165 1053 -1167 0
1165 -1053 -1166 0
-1166 865 1055 0
-1166 843 -1055 0
1166 -865 1055 0
1166 -843 -1055 0
-1167 -1057 1168 0
-1167 1057 1169 0
1167 1057 -1169 0
1167 -1057 -1168 0
-1168 867 1060 0
-1168 843 -1060 0
1168 -867 1060 0
1168 -843 -1060 0
-1169 868 1062 0
-1169 843 -1062 0
1169 -868 1062 0
1169 -843 -1062 0
-1170 -1063 1171 0
-1170 1063 1172 0
1170 1063 -1172 0
1170 -1063 -1171 0
-1171 -494 1083 0
-1171 549 -1083 0
-1171 4463 1083 0
1171 -549 -1083 0
1171 -4463 494 1083 0
-1172 -1085 1173 0
-1172 1085 1174 0
1172 1085 -1174 0
1172 -1085 -1173 0
-1173 -498 1088 0
-1173 549 -1088 0
-1173 4471 1088 0
1173 -549 -1088 0
1173 -4471 498 1088 0
-1174 -1090 1175 0
-1174 1090 1176 0
1174 1090 -1176 0
1174 -1090 -1175 0
-1175 -501 1092 0
-1175 549 -1092 0
-1175 4479 1092 0
1175 -549 -1092 0
1175 -4479 501 1092 0
-1176 -1094 1177 0
-1176 1094 1178 0
1176 1094 -1178 0
1176 -1094 -1177 0
-1177 -506 1098 0
-1177 549 -1098 0
-1177 4487 1098 0
1177 -549 -1098 0
1177 -4487 506 1098 0
-1178 -1100 1179 0
-1178 1100 1180 0
1178 1100 -1180 0
1178 -1100 -1179 0
-1179 -509 1102 0
-1179 549 -1102 0
-1179 4495 1102 0
1179 -549 -1102 0
1179 -4495 509 1102 0
-1180 -1104 1181 0
-1180 1104 1182 0
1180 1104 -1182 0
1180 -1104 -1181 0
-1181 -513 1107 0
-1181 549 -1107 0
-1181 4503 1107 0
1181 -549 -1107 0
1181 -4503 513 1107 0
-1182 -1109 1183 0
-1182 1109 1184 0
1182 1109 -1184 0
1182 -1109 -1183 0
-1183 -516 1111 0
-1183 549 -1111 0
-1183 4511 1111 0
1183 -549 -1111 0
1183 -4511 516 1111 0
-1184 -1113 1185 0
-1184 1113 1186 0
1184 1113 -1186 0
1184 -1113 -1185 0
-1185 -520 1116 0
-1185 549 -1116 0
-1185 4519 1116 0
1185 -549 -1116 0
1185 -4519 520 1116 0
-1186 549 -1118 0
-1186 574 1118 0
1186 -574 1118 0
1186 -549 -1118 0
-1187 -1008 1188 0
-1187 1008 1189 0
1187 1008 -1189 0
1187 -1008 -1188 0
-1188 879 1027 0
-1188 869 -1027 0
1188 -879 1027 0
1188 -869 -1027 0
-1189 -1029 1190 0
-1189 1029 1191 0
1189 1029 -1191 0
1189 -1029 -1190 0
-1190 881 1032 0
-1190 869 -1032 0
1190 -881 1032 0
1190 -869 -1032 0
-1191 -1034 1192 0
-1191 1034 1193 0
1191 1034 -1193 0
1191 -1034 -1192 0
-1192 883 1036 0
-1192 869 -1036 0
1192 -883 1036 0
1192 -869 -1036 0
-1193 -1038 1194 0
-1193 1038 1195 0
1193 1038 -1195 0
1193 -1038 -1194 0
-1194 885 1042 0
-1194 869 -1042 0
1194 -885 1042 0
1194 -869 -1042 0
-1195 -1044 1196 0
-1195 1044 1197 0
1195 1044 -1197 0
1195 -1044 -1196 0
-1196 887 1046 0
-1196 869 -1046 0
1196 -887 1046 0
1196 -869 -1046 0
-1197 -1048 1198 0
-1197 1048 1199 0
1197 1048 -1199 0
1197 -1048 -1198 0
-1198 889 1051 0
-1198 869 -1051 0
1198 -889 1051 0
1198 -869 -1051 0
-1199 -1053 1200 0
-1199 1053 1201 0
1199 1053 -1201 0
1199 -1053 -1200 0
-1200 891 1055 0
-1200 869 -1055 0
1200 -891 1055 0
1200 -869 -1055 0
-1201 -1057 1202 0
-1201 1057 1203 0
1201 1057 -1203 0
1201 -1057 -1202 0
-1202 893 1060 0
-1202 869 -1060 0
1202 -893 1060 0
1202 -869 -1060 0
-1203 894 1062 0
-1203 869 -1062 0
1203 -894 1062 0
1203 -869 -1062 0
-1204 -1063 1205 0
-1204 1063 1206 0
1204 1063 -1206 0
1204 -1063 -1205 0
-1205 -494 1083 0
-1205 575 -1083 0
-1205 4462 1083 0
1205 -575 -1083 0
1205 -4462 494 1083 0
-1206 -1085 1207 0
-1206 1085 1208 0
1206 1085 -1208 0
1206 -1085 -1207 0
-1207 -498 1088 0
-1207 575 -1088 0
-1207 4470 1088 0
1207 -575 -1088 0
1207 -4470 498 1088 0
-1208 -1090 1209 0
-1208 1090 1210 0
1208 1090 -1210 0
1208 -1090 -1209 0
-1209 -501 1092 0
-1209 575 -1092 0
-1209 4478 1092 0
1209 -575 -1092 0
1209 -4478 501 1092 0
-1210 -1094 1211 0
-1210 1094 1212 0
1210 1094 -1212 0
1210 -1094 -1211 0
-1211 -506 1098 0
-1211 575 -1098 0
-1211 4486 1098 0
1211 -575 -1098 0
1211 -4486 506 1098 0
-1212 -1100 1213 0
-1212 1100 1214 0
1212 1100 -1214 0
1212 -1100 -1213 0
-1213 -509 1102 0
-1213 575 -1102 0
-1213 4494 1102 0
1213 -575 -1102 0
1213 -4494 509 1102 0
-1214 -1104 1215 0
-1214 1104 1216 0
1214 1104 -1216 0
1214 -1104 -1215 0
-1215 -513 1107 0
-1215 575 -1107 0
-1215 4502 1107 0
1215 -575 -1107 0
1215 -4502 513 1107 0
-1216 -1109 1217 0
-1216 1109 1218 0
1216 1109 -1218 0
1216 -1109 -1217 0
-1217 -516 1111 0
-1217 575 -1111 0
-1217 4510 1111 0
1217 -575 -1111 0
1217 -4510 516 1111 0
-1218 -1113 1219 0
-1218 1113 1220 0
1218 1113 -1220 0
1218 -1113 -1219 0
-1219 -520 1116 0
-1219 575 -1116 0
-1219 4518 1116 0
1219 -575 -1116 0
1219 -4518 520 1116 0
-1220 575 -1118 0
-1220 600 1118 0
1220 -600 1118 0
1220 -575 -1118 0
-1221 -1008 1222 0
-1221 1008 1223 0
1221 1008 -1223 0
1221 -1008 -1222 0
-1222 905 1027 0
-1222 895 -1027 0
1222 -905 1027 0
1222 -895 -1027 0
-1223 -1029 1224 0
-1223 1029 1225 0
1223 1029 -1225 0
1223 -1029 -1224 0
-1224 907 1032 0
-1224 895 -1032 0
1224 -907 1032 0
1224 -895 -1032 0
-1225 -1034 1226 0
-1225 1034 1227 0
1225 1034 -1227 0
1225 -1034 -1226 0
-1226 909 1036 0
-1226 895 -1036 0
1226 -909 1036 0
1226 -895 -1036 0
-1227 -1038 1228 0
-1227 1038 1229 0
1227 1038 -1229 0
1227 -1038 -1228 0
-1228 911 1042 0
-1228 895 -1042 0
1228 -911 1042 0
1228 -895 -1042 0
-1229 -1044 1230 0
-1229 1044 1231 0
1229 1044 -1231 0
1229 -1044 -1230 0
-1230 913 1046 0
-1230 895 -1046 0
1230 -913 1046 0
1230 -895 -1046 0
-1231 -1048 1232 0
-1231 1048 1233 0
1231 1048 -1233 0
1231 -1048 -1232 0
-1232 915 1051 0
-1232 895 -1051 0
1232 -915 1051 0
1232 -895 -1051 0
-1233 -1053 1234 0
-1233 1053 1235 0
1233 1053 -1235 0
1233 -1053 -1234 0
-1234 917 1055 0
-1234 895 -1055 0
1234 -917 1055 0
1234 -895 -1055 0
-1235 -1057 1236 0
-1235 1057 1237 0
1235 1057 -1237 0
1235 -1057 -1236 0
-1236 919 1060 0
-1236 895 -1060 0
1236 -919 1060 0
1236 -895 -1060 0
-1237 920 1062 0
-1237 895 -1062 0
1237 -920 1062 0
1237 -895 -1062 0
-1238 -1063 1239 0
-1238 1063 1240 0
1238 1063 -1240 0
1238 -1063 -1239 0
-1239 -494 1083 0
-1239 601 -1083 0
-1239 4461 1083 0
1239 -601 -1083 0
1239 -4461 494 1083 0
-1240 -1085 1241 0
-1240 1085 1242 0
1240 1085 -1242 0
1240 -1085 -1241 0
-1241 -498 1088 0
-1241 601 -1088 0
-1241 4469 1088 0
1241 -601 -1088 0
1241 -4469 498 1088 0
-1242 -1090 1243 0
-1242 1090 1244 0
1242 1090 -1244 0
1242 -1090 -1243 0
-1243 -501 1092 0
-1243 601 -1092 0
-1243 4477 1092 0
1243 -601 -1092 0
1243 -4477 501 1092 0
-1244 -1094 1245 0
-1244 1094 1246 0
1244 1094 -1246 0
1244 -1094 -1245 0
-1245 -506 1098 0
-1245 601 -1098 0
-1245 4485 1098 0
1245 -601 -1098 0
1245 -4485 506 1098 0
-1246 -1100 1247 0
-1246 1100 1248 0
1246 1100 -1248 0
1246 -1100 -1247 0
-1247 -509 1102 0
-1247 601 -1102 0
-1247 4493 1102 0
1247 -601 -1102 0
1247 -4493 509 1102 0
-1248 -1104 1249 0
-1248 1104 1250 0
1248 1104 -1250 0
1248 -1104 -1249 0
-1249 -513 1107 0
-1249 601 -1107 0
-1249 4501 1107 0
1249 -601 -1107 0
1249 -4501 513 1107 0
-1250 -1109 1251 0
-1250 1109 1252 0
1250 1109 -1252 0
1250 -1109 -1251 0
-1251 -516 1111 0
-1251 601 -1111 0
-1251 4509 1111 0
1251 -601 -1111 0
1251 -4509 516 1111 0
-1252 -1113 1253 0
-1252 1113 1254 0
1252 1113 -1254 0
1252 -1113 -1253 0
-1253 -520 1116 0
-1253 601 -1116 0
-1253 4517 1116 0
1253 -601 -1116 0
1253 -4517 520 1116 0
-1254 601 -1118 0
-1254 626 1118 0
1254 -626 1118 0
1254 -601 -1118 0
-1255 -1008 1256 0
-1255 1008 1257 0
1255 1008 -1257 0
1255 -1008 -1256 0
-1256 931 1027 0
-1256 921 -1027 0
1256 -931 1027 0
1256 -921 -1027 0
-1257 -1029 1258 0
-1257 1029 1259 0
1257 1029 -1259 0
1257 -1029 -1258 0
-1258 933 1032 0
-1258 921 -1032 0
1258 -933 1032 0
1258 -921 -1032 0
-1259 -1034 1260 0
-1259 1034 1261 0
1259 1034 -1261 0
1259 -1034 -1260 0
-1260 935 1036 0
-1260 921 -1036 0
1260 -935 1036 0
1260 -921 -1036 0
-1261 -1038 1262 0
-1261 1038 1263 0
1261 1038 -1263 0
1261 -1038 -1262 0
-1262 937 1042 0
-1262 921 -1042 0
1262 -937 1042 0
1262 -921 -1042 0
-1263 -1044 1264 0
-1263 1044 1265 0
1263 1044 -1265 0
1263 -1044 -1264 0
-1264 939 1046 0
-1264 921 -1046 0
1264 -939 1046 0
1264 -921 -1046 0
-1265 -1048 1266 0
-1265 1048 1267 0
1265 1048 -1267 0
1265 -1048 -1266 0
-1266 941 1051 0
-1266 921 -1051 0
1266 -941 1051 0
1266 -921 -1051 0
-1267 -1053 1268 0
-1267 1053 1269 0
1267 1053 -1269 0
1267 -1053 -1268 0
-1268 943 1055 0
-1268 921 -1055 0
1268 -943 1055 0
1268 -921 -1055 0
-1269 -1057 1270 0
-1269 1057 1271 0
1269 1057 -1271 0
1269 -1057 -1270 0
-1270 945 1060 0
-1270 921 -1060 0
1270 -945 1060 0
1270 -921 -1060 0
-1271 946 1062 0
-1271 921 -1062 0
1271 -946 1062 0
1271 -921 -1062 0
-1272 -1063 1273 0
-1272 1063 1274 0
1272 1063 -1274 0
1272 -1063 -1273 0
-1273 -494 1083 0
-1273 627 -1083 0
-1273 4460 1083 0
1273 -627 -1083 0
1273 -4460 494 1083 0
-1274 -1085 1275 0
-1274 1085 1276 0
1274 1085 -1276 0
1274 -1085 -1275 0
-1275 -498 1088 0
-1275 627 -1088 0
-1275 4468 1088 0
1275 -627 -1088 0
1275 -4468 498 1088 0
-1276 -1090 1277 0
-1276 1090 1278 0
1276 1090 -1278 0
1276 -1090 -1277 0
-1277 -501 1092 0
-1277 627 -1092 0
-1277 4476 1092 0
1277 -627 -1092 0
1277 -4476 501 1092 0
-1278 -1094 1279 0
-1278 1094 1280 0
1278 1094 -1280 0
1278 -1094 -1279 0
-1279 -506 1098 0
-1279 627 -1098 0
-1279 4484 1098 0
1279 -627 -1098 0
1279 -4484 506 1098 0
-1280 -1100 1281 0
-1280 1100 1282 0
1280 1100 -1282 0
1280 -1100 -1281 0
-1281 -509 1102 0
-1281 627 -1102 0
-1281 4492 1102 0
1281 -627 -1102 0
1281 -4492 509 1102 0
-1282 -1104 1283 0
-1282 1104 1284 0
1282 1104 -1284 0
1282 -1104 -1283 0
-1283 -513 1107 0
-1283 627 -1107 0
-1283 4500 1107 0
1283 -627 -1107 0
1283 -4500 513 1107 0
-1284 -1109 1285 0
-1284 1109 1286 0
1284 1109 -1286 0
1284 -1109 -1285 0
-1285 -516 1111 0
-1285 627 -1111 0
-1285 4508 1111 0
1285 -627 -1111 0
1285 -4508 516 1111 0
-1286 -1113 1287 0
-1286 1113 1288 0
1286 1113 -1288 0
1286 -1113 -1287 0
-1287 -520 1116 0
-1287 627 -1116 0
-1287 4516 1116 0
1287 -627 -1116 0
1287 -4516 520 1116 0
-1288 627 -1118 0
-1288 652 1118 0
1288 -652 1118 0
1288 -627 -1118 0
-1289 -1008 1290 0
-1289 1008 1291 0
1289 1008 -1291 0
1289 -1008 -1290 0
-1290 957 1027 0
-1290 947 -1027 0
1290 -957 1027 0
1290 -947 -1027 0
-1291 -1029 1292 0
-1291 1029 1293 0
1291 1029 -1293 0
1291 -1029 -1292 0
-1292 959 1032 0
-1292 947 -1032 0
1292 -959 1032 0
1292 -947 -1032 0
-1293 -1034 1294 0
-1293 1034 1295 0
1293 1034 -1295 0
1293 -1034 -1294 0
-1294 961 1036 0
-1294 947 -1036 0
1294 -961 1036 0
1294 -947 -1036 0
-1295 -1038 1296 0
-1295 1038 1297 0
1295 1038 -1297 0
1295 -1038 -1296 0
-1296 963 1042 0
-1296 947 -1042 0
1296 -963 1042 0
1296 -947 -1042 0
-1297 -1044 1298 0
-1297 1044 1299 0
1297 1044 -1299 0
1297 -1044 -1298 0
-1298 965 1046 0
-1298 947 -1046 0
1298 -965 1046 0
1298 -947 -1046 0
-1299 -1048 1300 0
-1299 1048 1301 0
1299 1048 -1301 0
1299 -1048 -1300 0
-1300 967 1051 0
-1300 947 -1051 0
1300 -967 1051 0
1300 -947 -1051 0
-1301 -1053 1302 0
-1301 1053 1303 0
1301 1053 -1303 0
1301 -1053 -1302 0
-1302 969 1055 0
-1302 947 -1055 0
1302 -969 1055 0
1302 -947 -1055 0
-1303 -1057 1304 0
-1303 1057 1305 0
1303 1057 -1305 0
1303 -1057 -1304 0
-1304 971 1060 0
-1304 947 -1060 0
1304 -971 1060 0
1304 -947 -1060 0
-1305 972 1062 0
-1305 947 -1062 0
1305 -972 1062 0
1305 -947 -1062 0
-1306 -1063 1307 0
-1306 1063 1308 0
1306 1063 -1308 0
1306 -1063 -1307 0
-1307 -494 1083 0
-1307 653 -1083 0
-1307 4459 1083 0
1307 -653 -1083 0
1307 -4459 494 1083 0
-1308 -1085 1309 0
-1308 1085 1310 0
1308 1085 -1310 0
1308 -1085 -1309 0
-1309 -498 1088 0
-1309 653 -1088 0
-1309 4467 1088 0
1309 -653 -1088 0
1309 -4467 498 1088 0
-1310 -1090 1311 0
-1310 1090 1312 0
1310 1090 -1312 0
1310 -1090 -1311 0
-1311 -501 1092 0
-1311 653 -1092 0
-1311 4475 1092 0
1311 -653 -1092 0
1311 -4475 501 1092 0
-1312 -1094 1313 0
-1312 1094 1314 0
1312 1094 -1314 0
1312 -1094 -1313 0
-1313 -506 1098 0
-1313 653 -1098 0
-1313 4483 1098 0
1313 -653 -1098 0
1313 -4483 506 1098 0
-1314 -1100 1315 0
-1314 1100 1316 0
1314 1100 -1316 0
1314 -1100 -1315 0
-1315 -509 1102 0
-1315 653 -1102 0
-1315 4491 1102 0
1315 -653 -1102 0
1315 -4491 509 1102 0
-1316 -1104 1317 0
-1316 1104 1318 0
1316 1104 -1318 0
1316 -1104 -1317 0
-1317 -513 1107 0
-1317 653 -1107 0
-1317 4499 1107 0
1317 -653 -1107 0
1317 -4499 513 1107 0
-1318 -1109 1319 0
-1318 1109 1320 0
1318 1109 -1320 0
1318 -1109 -1319 0
-1319 -516 1111 0
-1319 653 -1111 0
-1319 4507 1111 0
1319 -653 -1111 0
1319 -4507 516 1111 0
-1320 -1113 1321 0
-1320 1113 1322 0
1320 1113 -1322 0
1320 -1113 -1321 0
-1321 -520 1116 0
-1321 653 -1116 0
-1321 4515 1116 0
1321 -653 -1116 0
1321 -4515 520 1116 0
-1322 653 -1118 0
-1322 678 1118 0
1322 -678 1118 0
1322 -653 -1118 0
-1323 -1008 1324 0
-1323 1008 1325 0
1323 1008 -1325 0
1323 -1008 -1324 0
-1324 983 1027 0
-1324 973 -1027 0
1324 -983 1027 0
1324 -973 -1027 0
-1325 -1029 1326 0
-1325 1029 1327 0
1325 1029 -1327 0
1325 -1029 -1326 0
-1326 985 1032 0
-1326 973 -1032 0
1326 -985 1032 0
1326 -973 -1032 0
-1327 -1034 1328 0
-1327 1034 1329 0
1327 1034 -1329 0
1327 -1034 -1328 0
-1328 987 1036 0
-1328 973 -1036 0
1328 -987 1036 0
1328 -973 -1036 0
-1329 -1038 1330 0
-1329 1038 1331 0
1329 1038 -1331 0
1329 -1038 -1330 0
-1330 989 1042 0
-1330 973 -1042 0
1330 -989 1042 0
1330 -973 -1042 0
-1331 -1044 1332 0
-1331 1044 1333 0
1331 1044 -1333 0
1331 -1044 -1332 0
-1332 991 1046 0
-1332 973 -1046 0
1332 -991 1046 0
1332 -973 -1046 0
-1333 -1048 1334 0
-1333 1048 1335 0
1333 1048 -1335 0
1333 -1048 -1334 0
-1334 993 1051 0
-1334 973 -1051 0
1334 -993 1051 0
1334 -973 -1051 0
-1335 -1053 1336 0
-1335 1053 1337 0
1335 1053 -1337 0
1335 -1053 -1336 0
-1336 995 1055 0
-1336 973 -1055 0
1336 -995 1055 0
1336 -973 -1055 0
-1337 -1057 1338 0
-1337 1057 1339 0
1337 1057 -1339 0
1337 -1057 -1338 0
-1338 997 1060 0
-1338 973 -1060 0
1338 -997 1060 0
1338 -973 -1060 0
-1339 998 1062 0
-1339 973 -1062 0
1339 -998 1062 0
1339 -973 -1062 0
-1340 -1063 1341 0
-1340 1063 1342 0
1340 1063 -1342 0
1340 -1063 -1341 0
-1341 -494 1083 0
-1341 679 -1083 0
-1341 4458 1083 0
1341 -679 -1083 0
1341 -4458 494 1083 0
-1342 -1085 1343 0
-1342 1085 1344 0
1342 1085 -1344 0
1342 -1085 -1343 0
-1343 -498 1088 0
-1343 679 -1088 0
-1343 4466 1088 0
1343 -679 -1088 0
1343 -4466 498 1088 0
-1344 -1090 1345 0
-1344 1090 1346 0
1344 1090 -1346 0
1344 -1090 -1345 0
-1345 -501 1092 0
-1345 679 -1092 0
-1345 4474 1092 0
1345 -679 -1092 0
1345 -4474 501 1092 0
-1346 -1094 1347 0
-1346 1094 1348 0
1346 1094 -1348 0
1346 -1094 -1347 0
-1347 -506 1098 0
-1347 679 -1098 0
-1347 4482 1098 0
1347 -679 -1098 0
1347 -4482 506 1098 0
-1348 -1100 1349 0
-1348 1100 1350 0
1348 1100 -1350 0
1348 -1100 -1349 0
-1349 -509 1102 0
-1349 679 -1102 0
-1349 4490 1102 0
1349 -679 -1102 0
1349 -4490 509 1102 0
-1350 -1104 1351 0
-1350 1104 1352 0
1350 1104 -1352 0
1350 -1104 -1351 0
-1351 -513 1107 0
-1351 679 -1107 0
-1351 4498 1107 0
1351 -679 -1107 0
1351 -4498 513 1107 0
-1352 -1109 1353 0
-1352 1109 1354 0
1352 1109 -1354 0
1352 -1109 -1353 0
-1353 -516 1111 0
-1353 679 -1111 0
-1353 4506 1111 0
1353 -679 -1111 0
1353 -4506 516 1111 0
-1354 -1113 1355 0
-1354 1113 1356 0
1354 1113 -1356 0
1354 -1113 -1355 0
-1355 -520 1116 0
-1355 679 -1116 0
-1355 4514 1116 0
1355 -679 -1116 0
1355 -4514 520 1116 0
-1356 679 -1118 0
-1356 704 1118 0
1356 -704 1118 0
1356 -679 -1118 0
1357 -4703 -1358 1625 0
1357 -4703 -1358 -1634 0
1357 -4703 1625 -1634 0
-1357 1358 -1625 0
-1357 -1625 1634 0
-1357 4703 0
-1357 1358 1634 0
-1358 1359 1608 0
-1358 1359 -1599 0
-1358 -1599 1608 0
1358 1599 -1608 0
1358 -1359 -1608 0
1358 -1359 1599 0
-1359 1360 1582 0
-1359 1360 -1573 0
-1359 -1573 1582 0
1359 1573 -1582 0
1359 -1360 -1582 0
1359 -1360 1573 0
-1360 1361 1556 0
-1360 1361 -1547 0
-1360 -1547 1556 0
1360 1547 -1556 0
1360 -1361 -1556 0
1360 -1361 1547 0
-1361 1362 1530 0
-1361 1362 -1521 0
-1361 -1521 1530 0
1361 1521 -1530 0
1361 -1362 -1530 0
1361 -1362 1521 0
-1362 1363 1504 0
-1362 1363 -1495 0
-1362 -1495 1504 0
1362 1495 -1504 0
1362 -1363 -1504 0
1362 -1363 1495 0
-1363 -1469 1478 0
-1363 1364 -1469 0
-1363 1364 1478 0
1363 -1364 1469 0
1363 1469 -1478 0
1363 -1364 -1478 0
1364 1365 1413 -1434 0
1364 1365 -1413 -1432 0
-1364 -1365 0
-1364 -1413 1432 0
-1364 1413 1434 0
-1365 1026 -1366 0
-1365 1366 1385 0
-1365 -1366 -1384 0
1365 1366 -1385 0
1365 -1026 -1366 1384 0
1366 -1367 1368 1369 0
-1366 -1369 0
-1366 -1368 0
-1366 1367 0
-1367 4708 1009 0
-1367 -4708 -1009 0
1367 -4708 1009 0
1367 4708 -1009 0
-1368 4708 1010 0
-1368 -4708 1009 -1010 0
-1368 -1009 1010 0
1368 4708 -1010 0
1368 -1009 -1010 0
1368 -4708 1009 1010 0
-1369 1370 1372 0
1369 -1370 0
1369 -1372 0
-1370 1012 -1371 0
-1370 -4708 -1012 1371 0
-1370 4708 1012 0
1370 -1012 -1371 0
1370 4708 -1012 0
1370 -4708 1012 1371 0
-1371 1009 1010 0
1371 -1009 0
1371 -1010 0
-1372 1373 1375 0
1372 -1373 0
1372 -1375 0
-1373 1015 -1374 0
-1373 -4708 -1015 1374 0
-1373 4708 1015 0
1373 -1015 -1374 0
1373 4708 -1015 0
1373 -4708 1015 1374 0
-1374 1012 1371 0
1374 -1012 0
1374 -1371 0
-1375 1376 1378 1380 1383 0
1375 -1383 0
1375 -1376 0
1375 -1380 0
1375 -1378 0
-1376 1018 -1377 0
-1376 -4708 -1018 1377 0
-1376 4708 1018 0
1376 -1018 -1377 0
1376 4708 -1018 0
1376 -4708 1018 1377 0
-1377 1015 1374 0
1377 -1015 0
1377 -1374 0
-1378 1020 -1379 0
-1378 -4708 -1020 1379 0
-1378 4708 1020 0
1378 -1020 -1379 0
1378 4708 -1020 0
1378 -4708 1020 1379 0
-1379 1018 1377 0
1379 -1018 0
1379 -1377 0
-1380 1022 -1381 0
-1380 -4708 -1022 1381 0
-1380 4708 1022 0
1380 -1022 -1381 0
1380 4708 -1022 0
1380 -4708 1022 1381 0
-1381 1025 1382 0
1381 -1025 0
1381 -1382 0
-1382 1020 1379 0
1382 -1020 0
1382 -1379 0
-1383 1025 -1382 0
-1383 -4708 -1025 1382 0
-1383 4708 1025 0
1383 -1025 -1382 0
1383 4708 -1025 0
1383 -4708 1025 1382 0
1384 -4708 -1008 0
-1384 4708 0
-1384 1008 0
-1385 1031 -1386 0
-1385 1386 1389 0
-1385 -1386 -1388 0
1385 1386 -1389 0
1385 -1031 -1386 1388 0
1386 1367 -1387 0
-1386 -1367 0
-1386 1387 0
1387 -1368 1369 0
-1387 1368 0
-1387 -1369 0
1388 -4708 -1029 0
-1388 4708 0
-1388 1029 0
-1389 1035 -1390 0
-1389 1390 1392 0
-1389 -1390 -1391 0
1389 1390 -1392 0
1389 -1035 -1390 1391 0
1390 -1367 -1387 0
-1390 1367 0
-1390 1387 0
1391 -4708 -1034 0
-1391 4708 0
-1391 1034 0
-1392 1041 -1393 0
-1392 1393 1397 0
-1392 -1393 -1396 0
1392 1393 -1397 0
1392 -1041 -1393 1396 0
1393 1367 -1394 0
-1393 -1367 0
-1393 1394 0
1394 1368 -1395 0
-1394 -1368 0
-1394 1395 0
1395 -1370 1372 0
-1395 1370 0
-1395 -1372 0
1396 -4708 -1038 0
-1396 4708 0
-1396 1038 0
-1397 1045 -1398 0
-1397 1398 1400 0
-1397 -1398 -1399 0
1397 1398 -1400 0
1397 -1045 -1398 1399 0
1398 -1367 -1394 0
-1398 1367 0
-1398 1394 0
1399 -4708 -1044 0
-1399 4708 0
-1399 1044 0
-1400 1050 -1401 0
-1400 1401 1404 0
-1400 -1401 -1403 0
1400 1401 -1404 0
1400 -1050 -1401 1403 0
1401 1367 -1402 0
-1401 -1367 0
-1401 1402 0
1402 -1368 -1395 0
-1402 1368 0
-1402 1395 0
1403 -4708 -1048 0
-1403 4708 0
-1403 1048 0
-1404 1054 -1405 0
-1404 1405 1407 0
-1404 -1405 -1406 0
1404 1405 -1407 0
1404 -1054 -1405 1406 0
1405 -1367 -1402 0
-1405 1367 0
-1405 1402 0
1406 -4708 -1053 0
-1406 4708 0
-1406 1053 0
-1407 -1408 1410 0
-1407 1061 1408 0
-1407 1408 -1412 0
1407 -1408 -1410 0
1407 -1061 1408 1412 0
1408 1367 -1409 0
-1408 -1367 0
-1408 1409 0
1409 1368 1370 -1373 1375 0
-1409 -1375 0
-1409 -1368 0
-1409 -1370 0
-1409 1373 0
1410 -1059 1411 0
-1410 1059 0
-1410 -1411 0
1411 -4708 -1057 0
-1411 4708 0
-1411 1057 0
1412 -4708 -1009 -1058 0
-1412 4708 0
-1412 1009 0
-1412 1058 0
1413 -1414 1415 0
-1413 1414 0
-1413 -1415 0
-1414 4707 715 0
-1414 -4707 -715 0
1414 -4707 715 0
1414 4707 -715 0
-1415 1416 1417 0
1415 -1416 0
1415 -1417 0
-1416 4707 716 0
-1416 -4707 715 -716 0
-1416 -715 716 0
1416 4707 -716 0
1416 -715 -716 0
1416 -4707 715 716 0
-1417 1418 1420 0
1417 -1418 0
1417 -1420 0
-1418 718 -1419 0
-1418 -4707 -718 1419 0
-1418 4707 718 0
1418 -718 -1419 0
1418 4707 -718 0
1418 -4707 718 1419 0
-1419 715 716 0
1419 -715 0
1419 -716 0
-1420 1421 1423 0
1420 -1421 0
1420 -1423 0
-1421 721 -1422 0
-1421 -4707 -721 1422 0
-1421 4707 721 0
1421 -721 -1422 0
1421 4707 -721 0
1421 -4707 721 1422 0
-1422 718 1419 0
1422 -718 0
1422 -1419 0
-1423 1424 1426 1428 1431 0
1423 -1431 0
1423 -1424 0
1423 -1428 0
1423 -1426 0
-1424 724 -1425 0
-1424 -4707 -724 1425 0
-1424 4707 724 0
1424 -724 -1425 0
1424 4707 -724 0
1424 -4707 724 1425 0
-1425 721 1422 0
1425 -721 0
1425 -1422 0
-1426 726 -1427 0
-1426 -4707 -726 1427 0
-1426 4707 726 0
1426 -726 -1427 0
1426 4707 -726 0
1426 -4707 726 1427 0
-1427 724 1425 0
1427 -724 0
1427 -1425 0
-1428 728 -1429 0
-1428 -4707 -728 1429 0
-1428 4707 728 0
1428 -728 -1429 0
1428 4707 -728 0
1428 -4707 728 1429 0
-1429 731 1430 0
1429 -731 0
1429 -1430 0
-1430 726 1427 0
1430 -726 0
1430 -1427 0
-1431 731 -1430 0
-1431 -4707 -731 1430 0
-1431 4707 731 0
1431 -731 -1430 0
1431 4707 -731 0
1431 -4707 731 1430 0
1432 -437 1433 0
-1432 437 0
-1432 -1433 0
-1433 4707 732 0
-1433 714 732 0
1433 -732 0
1433 -4707 -714 0
-1434 -1435 1437 0
-1434 1435 1439 0
1434 -1435 -1437 0
1434 1435 -1439 0
1435 1414 -1436 0
-1435 -1414 0
-1435 1436 0
1436 -1416 1417 0
-1436 1416 0
-1436 -1417 0
1437 -442 1438 0
-1437 442 0
-1437 -1438 0
-1438 4707 736 0
-1438 734 736 0
1438 -736 0
1438 -4707 -734 0
-1439 -1440 1441 0
-1439 1440 1443 0
1439 -1440 -1441 0
1439 1440 -1443 0
1440 -1414 -1436 0
-1440 1414 0
-1440 1436 0
1441 -446 1442 0
-1441 446 0
-1441 -1442 0
-1442 4707 739 0
-1442 738 739 0
1442 -739 0
1442 -4707 -738 0
-1443 -1444 1447 0
-1443 1444 1449 0
1443 -1444 -1447 0
1443 1444 -1449 0
1444 1414 -1445 0
-1444 -1414 0
-1444 1445 0
1445 1416 -1446 0
-1445 -1416 0
-1445 1446 0
1446 -1418 1420 0
-1446 1418 0
-1446 -1420 0
1447 -452 1448 0
-1447 452 0
-1447 -1448 0
-1448 4707 744 0
-1448 741 744 0
1448 -744 0
1448 -4707 -741 0
-1449 -1450 1451 0
-1449 1450 1453 0
1449 -1450 -1451 0
1449 1450 -1453 0
1450 -1414 -1445 0
-1450 1414 0
-1450 1445 0
1451 -456 1452 0
-1451 456 0
-1451 -1452 0
-1452 4707 747 0
-1452 746 747 0
1452 -747 0
1452 -4707 -746 0
-1453 -1454 1456 0
-1453 1454 1458 0
1453 -1454 -1456 0
1453 1454 -1458 0
1454 1414 -1455 0
-1454 -1414 0
-1454 1455 0
1455 -1416 -1446 0
-1455 1416 0
-1455 1446 0
1456 -461 1457 0
-1456 461 0
-1456 -1457 0
-1457 4707 751 0
-1457 749 751 0
1457 -751 0
1457 -4707 -749 0
-1458 -1459 1460 0
-1458 1459 1462 0
1458 -1459 -1460 0
1458 1459 -1462 0
1459 -1414 -1455 0
-1459 1414 0
-1459 1455 0
1460 -465 1461 0
-1460 465 0
-1460 -1461 0
-1461 4707 754 0
-1461 753 754 0
1461 -754 0
1461 -4707 -753 0
-1462 1463 1467 0
-1462 -1463 1465 0
1462 -1463 -1465 0
1462 1463 -1467 0
1463 1414 1416 1418 -1464 0
-1463 1464 0
-1463 -1414 0
-1463 -1418 0
-1463 -1416 0
1464 -1421 1423 0
-1464 1421 0
-1464 -1423 0
1465 -470 1466 0
-1465 470 0
-1465 -1466 0
-1466 4707 759 0
-1466 756 759 0
1466 -759 0
1466 -4707 -756 0
1467 -472 1468 0
-1467 472 0
-1467 -1468 0
-1468 757 760 0
-1468 715 760 0
-1468 4707 760 0
1468 -760 0
1468 -4707 -715 -757 0
-1469 1120 -1366 0
-1469 1366 1470 0
-1469 -1366 -1384 0
1469 1366 -1470 0
1469 -1120 -1366 1384 0
-1470 1122 -1386 0
-1470 1386 1471 0
-1470 -1386 -1388 0
1470 1386 -1471 0
1470 -1122 -1386 1388 0
-1471 1124 -1390 0
-1471 1390 1472 0
-1471 -1390 -1391 0
1471 1390 -1472 0
1471 -1124 -1390 1391 0
-1472 1126 -1393 0
-1472 1393 1473 0
-1472 -1393 -1396 0
1472 1393 -1473 0
1472 -1126 -1393 1396 0
-1473 1128 -1398 0
-1473 1398 1474 0
-1473 -1398 -1399 0
1473 1398 -1474 0
1473 -1128 -1398 1399 0
-1474 1130 -1401 0
-1474 1401 1475 0
-1474 -1401 -1403 0
1474 1401 -1475 0
1474 -1130 -1401 1403 0
-1475 1132 -1405 0
-1475 1405 1476 0
-1475 -1405 -1406 0
1475 1405 -1476 0
1475 -1132 -1405 1406 0
-1476 1135 1408 0
-1476 -1408 1477 0
-1476 1408 -1412 0
1476 -1408 -1477 0
1476 -1135 1408 1412 0
1477 -1134 1411 0
-1477 1134 0
-1477 -1411 0
-1478 -1413 1479 0
-1478 1413 1480 0
1478 -1413 -1479 0
1478 1413 -1480 0
1479 -524 1433 0
-1479 524 0
-1479 -1433 0
-1480 -1435 1481 0
-1480 1435 1482 0
1480 -1435 -1481 0
1480 1435 -1482 0
1481 -526 1438 0
-1481 526 0
-1481 -1438 0
-1482 -1440 1483 0
-1482 1440 1484 0
1482 -1440 -1483 0
1482 1440 -1484 0
1483 -528 1442 0
-1483 528 0
-1483 -1442 0
-1484 -1444 1485 0
-1484 1444 1486 0
1484 -1444 -1485 0
1484 1444 -1486 0
1485 -530 1448 0
-1485 530 0
-1485 -1448 0
-1486 -1450 1487 0
-1486 1450 1488 0
1486 -1450 -1487 0
1486 1450 -1488 0
1487 -532 1452 0
-1487 532 0
-1487 -1452 0
-1488 -1454 1489 0
-1488 1454 1490 0
1488 -1454 -1489 0
1488 1454 -1490 0
1489 -534 1457 0
-1489 534 0
-1489 -1457 0
-1490 -1459 1491 0
-1490 1459 1492 0
1490 -1459 -1491 0
1490 1459 -1492 0
1491 -536 1461 0
-1491 536 0
-1491 -1461 0
-1492 1463 1494 0
-1492 -1463 1493 0
1492 -1463 -1493 0
1492 1463 -1494 0
1493 -538 1466 0
-1493 538 0
-1493 -1466 0
1494 -539 1468 0
-1494 539 0
-1494 -1468 0
-1495 1154 -1366 0
-1495 1366 1496 0
-1495 -1366 -1384 0
1495 1366 -1496 0
1495 -1154 -1366 1384 0
-1496 1156 -1386 0
-1496 1386 1497 0
-1496 -1386 -1388 0
1496 1386 -1497 0
1496 -1156 -1386 1388 0
-1497 1158 -1390 0
-1497 1390 1498 0
-1497 -1390 -1391 0
1497 1390 -1498 0
1497 -1158 -1390 1391 0
-1498 1160 -1393 0
-1498 1393 1499 0
-1498 -1393 -1396 0
1498 1393 -1499 0
1498 -1160 -1393 1396 0
-1499 1162 -1398 0
-1499 1398 1500 0
-1499 -1398 -1399 0
1499 1398 -1500 0
1499 -1162 -1398 1399 0
-1500 1164 -1401 0
-1500 1401 1501 0
-1500 -1401 -1403 0
1500 1401 -1501 0
1500 -1164 -1401 1403 0
-1501 1166 -1405 0
-1501 1405 1502 0
-1501 -1405 -1406 0
1501 1405 -1502 0
1501 -1166 -1405 1406 0
-1502 1169 1408 0
-1502 -1408 1503 0
-1502 1408 -1412 0
1502 -1408 -1503 0
1502 -1169 1408 1412 0
1503 -1168 1411 0
-1503 1168 0
-1503 -1411 0
-1504 -1413 1505 0
-1504 1413 1506 0
1504 -1413 -1505 0
1504 1413 -1506 0
1505 -550 1433 0
-1505 550 0
-1505 -1433 0
-1506 -1435 1507 0
-1506 1435 1508 0
1506 -1435 -1507 0
1506 1435 -1508 0
1507 -552 1438 0
-1507 552 0
-1507 -1438 0
-1508 -1440 1509 0
-1508 1440 1510 0
1508 -1440 -1509 0
1508 1440 -1510 0
1509 -554 1442 0
-1509 554 0
-1509 -1442 0
-1510 -1444 1511 0
-1510 1444 1512 0
1510 -1444 -1511 0
1510 1444 -1512 0
1511 -556 1448 0
-1511 556 0
-1511 -1448 0
-1512 -1450 1513 0
-1512 1450 1514 0
1512 -1450 -1513 0
1512 1450 -1514 0
1513 -558 1452 0
-1513 558 0
-1513 -1452 0
-1514 -1454 1515 0
-1514 1454 1516 0
1514 -1454 -1515 0
1514 1454 -1516 0
1515 -560 1457 0
-1515 560 0
-1515 -1457 0
-1516 -1459 1517 0
-1516 1459 1518 0
1516 -1459 -1517 0
1516 1459 -1518 0
1517 -562 1461 0
-1517 562 0
-1517 -1461 0
-1518 1463 1520 0
-1518 -1463 1519 0
1518 -1463 -1519 0
1518 1463 -1520 0
1519 -564 1466 0
-1519 564 0
-1519 -1466 0
1520 -565 1468 0
-1520 565 0
-1520 -1468 0
-1521 1188 -1366 0
-1521 1366 1522 0
-1521 -1366 -1384 0
1521 1366 -1522 0
1521 -1188 -1366 1384 0
-1522 1190 -1386 0
-1522 1386 1523 0
-1522 -1386 -1388 0
1522 1386 -1523 0
1522 -1190 -1386 1388 0
-1523 1192 -1390 0
-1523 1390 1524 0
-1523 -1390 -1391 0
1523 1390 -1524 0
1523 -1192 -1390 1391 0
-1524 1194 -1393 0
-1524 1393 1525 0
-1524 -1393 -1396 0
1524 1393 -1525 0
1524 -1194 -1393 1396 0
-1525 1196 -1398 0
-1525 1398 1526 0
-1525 -1398 -1399 0
1525 1398 -1526 0
1525 -1196 -1398 1399 0
-1526 1198 -1401 0
-1526 1401 1527 0
-1526 -1401 -1403 0
1526 1401 -1527 0
1526 -1198 -1401 1403 0
-1527 1200 -1405 0
-1527 1405 1528 0
-1527 -1405 -1406 0
1527 1405 -1528 0
1527 -1200 -1405 1406 0
-1528 1203 1408 0
-1528 -1408 1529 0
-1528 1408 -1412 0
1528 -1408 -1529 0
1528 -1203 1408 1412 0
1529 -1202 1411 0
-1529 1202 0
-1529 -1411 0
-1530 -1413 1531 0
-1530 1413 1532 0
1530 -1413 -1531 0
1530 1413 -1532 0
1531 -576 1433 0
-1531 576 0
-1531 -1433 0
-1532 -1435 1533 0
-1532 1435 1534 0
1532 -1435 -1533 0
1532 1435 -1534 0
1533 -578 1438 0
-1533 578 0
-1533 -1438 0
-1534 -1440 1535 0
-1534 1440 1536 0
1534 -1440 -1535 0
1534 1440 -1536 0
1535 -580 1442 0
-1535 580 0
-1535 -1442 0
-1536 -1444 1537 0
-1536 1444 1538 0
1536 -1444 -1537 0
1536 1444 -1538 0
1537 -582 1448 0
-1537 582 0
-1537 -1448 0
-1538 -1450 1539 0
-1538 1450 1540 0
1538 -1450 -1539 0
1538 1450 -1540 0
1539 -584 1452 0
-1539 584 0
-1539 -1452 0
-1540 -1454 1541 0
-1540 1454 1542 0
1540 -1454 -1541 0
1540 1454 -1542 0
1541 -586 1457 0
-1541 586 0
-1541 -1457 0
-1542 -1459 1543 0
-1542 1459 1544 0
1542 -1459 -1543 0
1542 1459 -1544 0
1543 -588 1461 0
-1543 588 0
-1543 -1461 0
-1544 1463 1546 0
-1544 -1463 1545 0
1544 -1463 -1545 0
1544 1463 -1546 0
1545 -590 1466 0
-1545 590 0
-1545 -1466 0
1546 -591 1468 0
-1546 591 0
-1546 -1468 0
-1547 1222 -1366 0
-1547 1366 1548 0
-1547 -1366 -1384 0
1547 1366 -1548 0
1547 -1222 -1366 1384 0
-1548 1224 -1386 0
-1548 1386 1549 0
-1548 -1386 -1388 0
1548 1386 -1549 0
1548 -1224 -1386 1388 0
-1549 1226 -1390 0
-1549 1390 1550 0
-1549 -1390 -1391 0
1549 1390 -1550 0
1549 -1226 -1390 1391 0
-1550 1228 -1393 0
-1550 1393 1551 0
-1550 -1393 -1396 0
1550 1393 -1551 0
1550 -1228 -1393 1396 0
-1551 1230 -1398 0
-1551 1398 1552 0
-1551 -1398 -1399 0
1551 1398 -1552 0
1551 -1230 -1398 1399 0
-1552 1232 -1401 0
-1552 1401 1553 0
-1552 -1401 -1403 0
1552 1401 -1553 0
1552 -1232 -1401 1403 0
-1553 1234 -1405 0
-1553 1405 1554 0
-1553 -1405 -1406 0
1553 1405 -1554 0
1553 -1234 -1405 1406 0
-1554 1237 1408 0
-1554 -1408 1555 0
-1554 1408 -1412 0
1554 -1408 -1555 0
1554 -1237 1408 1412 0
1555 -1236 1411 0
-1555 1236 0
-1555 -1411 0
-1556 -1413 1557 0
-1556 1413 1558 0
1556 -1413 -1557 0
1556 1413 -1558 0
1557 -602 1433 0
-1557 602 0
-1557 -1433 0
-1558 -1435 1559 0
-1558 1435 1560 0
1558 -1435 -1559 0
1558 1435 -1560 0
1559 -604 1438 0
-1559 604 0
-1559 -1438 0
-1560 -1440 1561 0
-1560 1440 1562 0
1560 -1440 -1561 0
1560 1440 -1562 0
1561 -606 1442 0
-1561 606 0
-1561 -1442 0
-1562 -1444 1563 0
-1562 1444 1564 0
1562 -1444 -1563 0
1562 1444 -1564 0
1563 -608 1448 0
-1563 608 0
-1563 -1448 0
-1564 -1450 1565 0
-1564 1450 1566 0
1564 -1450 -1565 0
1564 1450 -1566 0
1565 -610 1452 0
-1565 610 0
-1565 -1452 0
-1566 -1454 1567 0
-1566 1454 1568 0
1566 -1454 -1567 0
1566 1454 -1568 0
1567 -612 1457 0
-1567 612 0
-1567 -1457 0
-1568 -1459 1569 0
-1568 1459 1570 0
1568 -1459 -1569 0
1568 1459 -1570 0
1569 -614 1461 0
-1569 614 0
-1569 -1461 0
-1570 1463 1572 0
-1570 -1463 1571 0
1570 -1463 -1571 0
1570 1463 -1572 0
1571 -616 1466 0
-1571 616 0
-1571 -1466 0
1572 -617 1468 0
-1572 617 0
-1572 -1468 0
-1573 1256 -1366 0
-1573 1366 1574 0
-1573 -1366 -1384 0
1573 1366 -1574 0
1573 -1256 -1366 1384 0
-1574 1258 -1386 0
-1574 1386 1575 0
-1574 -1386 -1388 0
1574 1386 -1575 0
1574 -1258 -1386 1388 0
-1575 1260 -1390 0
-1575 1390 1576 0
-1575 -1390 -1391 0
1575 1390 -1576 0
1575 -1260 -1390 1391 0
-1576 1262 -1393 0
-1576 1393 1577 0
-1576 -1393 -1396 0
1576 1393 -1577 0
1576 -1262 -1393 1396 0
-1577 1264 -1398 0
-1577 1398 1578 0
-1577 -1398 -1399 0
1577 1398 -1578 0
1577 -1264 -1398 1399 0
-1578 1266 -1401 0
-1578 1401 1579 0
-1578 -1401 -1403 0
1578 1401 -1579 0
1578 -1266 -1401 1403 0
-1579 1268 -1405 0
-1579 1405 1580 0
-1579 -1405 -1406 0
1579 1405 -1580 0
1579 -1268 -1405 1406 0
-1580 1271 1408 0
-1580 -1408 1581 0
-1580 1408 -1412 0
1580 -1408 -1581 0
1580 -1271 1408 1412 0
1581 -1270 1411 0
-1581 1270 0
-1581 -1411 0
-1582 -1413 1583 0
-1582 1413 1584 0
1582 -1413 -1583 0
1582 1413 -1584 0
1583 -628 1433 0
-1583 628 0
-1583 -1433 0
-1584 -1435 1585 0
-1584 1435 1586 0
1584 -1435 -1585 0
1584 1435 -1586 0
1585 -630 1438 0
-1585 630 0
-1585 -1438 0
-1586 -1440 1587 0
-1586 1440 1588 0
1586 -1440 -1587 0
1586 1440 -1588 0
1587 -632 1442 0
-1587 632 0
-1587 -1442 0
-1588 -1444 1589 0
-1588 1444 1590 0
1588 -1444 -1589 0
1588 1444 -1590 0
1589 -634 1448 0
-1589 634 0
-1589 -1448 0
-1590 -1450 1591 0
-1590 1450 1592 0
1590 -1450 -1591 0
1590 1450 -1592 0
1591 -636 1452 0
-1591 636 0
-1591 -1452 0
-1592 -1454 1593 0
-1592 1454 1594 0
1592 -1454 -1593 0
1592 1454 -1594 0
1593 -638 1457 0
-1593 638 0
-1593 -1457 0
-1594 -1459 1595 0
-1594 1459 1596 0
1594 -1459 -1595 0
1594 1459 -1596 0
1595 -640 1461 0
-1595 640 0
-1595 -1461 0
-1596 1463 1598 0
-1596 -1463 1597 0
1596 -1463 -1597 0
1596 1463 -1598 0
1597 -642 1466 0
-1597 642 0
-1597 -1466 0
1598 -643 1468 0
-1598 643 0
-1598 -1468 0
-1599 1290 -1366 0
-1599 1366 1600 0
-1599 -1366 -1384 0
1599 1366 -1600 0
1599 -1290 -1366 1384 0
-1600 1292 -1386 0
-1600 1386 1601 0
-1600 -1386 -1388 0
1600 1386 -1601 0
1600 -1292 -1386 1388 0
-1601 1294 -1390 0
-1601 1390 1602 0
-1601 -1390 -1391 0
1601 1390 -1602 0
1601 -1294 -1390 1391 0
-1602 1296 -1393 0
-1602 1393 1603 0
-1602 -1393 -1396 0
1602 1393 -1603 0
1602 -1296 -1393 1396 0
-1603 1298 -1398 0
-1603 1398 1604 0
-1603 -1398 -1399 0
1603 1398 -1604 0
1603 -1298 -1398 1399 0
-1604 1300 -1401 0
-1604 1401 1605 0
-1604 -1401 -1403 0
1604 1401 -1605 0
1604 -1300 -1401 1403 0
-1605 1302 -1405 0
-1605 1405 1606 0
-1605 -1405 -1406 0
1605 1405 -1606 0
1605 -1302 -1405 1406 0
-1606 1305 1408 0
-1606 -1408 1607 0
-1606 1408 -1412 0
1606 -1408 -1607 0
1606 -1305 1408 1412 0
1607 -1304 1411 0
-1607 1304 0
-1607 -1411 0
-1608 -1413 1609 0
-1608 1413 1610 0
1608 -1413 -1609 0
1608 1413 -1610 0
1609 -654 1433 0
-1609 654 0
-1609 -1433 0
-1610 -1435 1611 0
-1610 1435 1612 0
1610 -1435 -1611 0
1610 1435 -1612 0
1611 -656 1438 0
-1611 656 0
-1611 -1438 0
-1612 -1440 1613 0
-1612 1440 1614 0
1612 -1440 -1613 0
1612 1440 -1614 0
1613 -658 1442 0
-1613 658 0
-1613 -1442 0
-1614 -1444 1615 0
-1614 1444 1616 0
1614 -1444 -1615 0
1614 1444 -1616 0
1615 -660 1448 0
-1615 660 0
-1615 -1448 0
-1616 -1450 1617 0
-1616 1450 1618 0
1616 -1450 -1617 0
1616 1450 -1618 0
1617 -662 1452 0
-1617 662 0
-1617 -1452 0
-1618 -1454 1619 0
-1618 1454 1620 0
1618 -1454 -1619 0
1618 1454 -1620 0
1619 -664 1457 0
-1619 664 0
-1619 -1457 0
-1620 -1459 1621 0
-1620 1459 1622 0
1620 -1459 -1621 0
1620 1459 -1622 0
1621 -666 1461 0
-1621 666 0
-1621 -1461 0
-1622 1463 1624 0
-1622 -1463 1623 0
1622 -1463 -1623 0
1622 1463 -1624 0
1623 -668 1466 0
-1623 668 0
-1623 -1466 0
1624 -669 1468 0
-1624 669 0
-1624 -1468 0
-1625 1324 -1366 0
-1625 1366 1626 0
-1625 -1366 -1384 0
1625 1366 -1626 0
1625 -1324 -1366 1384 0
-1626 1326 -1386 0
-1626 1386 1627 0
-1626 -1386 -1388 0
1626 1386 -1627 0
1626 -1326 -1386 1388 0
-1627 1328 -1390 0
-1627 1390 1628 0
-1627 -1390 -1391 0
1627 1390 -1628 0
1627 -1328 -1390 1391 0
-1628 1330 -1393 0
-1628 1393 1629 0
-1628 -1393 -1396 0
1628 1393 -1629 0
1628 -1330 -1393 1396 0
-1629 1332 -1398 0
-1629 1398 1630 0
-1629 -1398 -1399 0
1629 1398 -1630 0
1629 -1332 -1398 1399 0
-1630 1334 -1401 0
-1630 1401 1631 0
-1630 -1401 -1403 0
1630 1401 -1631 0
1630 -1334 -1401 1403 0
-1631 1336 -1405 0
-1631 1405 1632 0
-1631 -1405 -1406 0
1631 1405 -1632 0
1631 -1336 -1405 1406 0
-1632 1339 1408 0
-1632 -1408 1633 0
-1632 1408 -1412 0
1632 -1408 -1633 0
1632 -1339 1408 1412 0
1633 -1338 1411 0
-1633 1338 0
-1633 -1411 0
-1634 -1413 1635 0
-1634 1413 1636 0
1634 -1413 -1635 0
1634 1413 -1636 0
1635 -680 1433 0
-1635 680 0
-1635 -1433 0
-1636 -1435 1637 0
-1636 1435 1638 0
1636 -1435 -1637 0
1636 1435 -1638 0
1637 -682 1438 0
-1637 682 0
-1637 -1438 0
-1638 -1440 1639 0
-1638 1440 1640 0
1638 -1440 -1639 0
1638 1440 -1640 0
1639 -684 1442 0
-1639 684 0
-1639 -1442 0
-1640 -1444 1641 0
-1640 1444 1642 0
1640 -1444 -1641 0
1640 1444 -1642 0
1641 -686 1448 0
-1641 686 0
-1641 -1448 0
-1642 -1450 1643 0
-1642 1450 1644 0
1642 -1450 -1643 0
1642 1450 -1644 0
1643 -688 1452 0
-1643 688 0
-1643 -1452 0
-1644 -1454 1645 0
-1644 1454 1646 0
1644 -1454 -1645 0
1644 1454 -1646 0
1645 -690 1457 0
-1645 690 0
-1645 -1457 0
-1646 -1459 1647 0
-1646 1459 1648 0
1646 -1459 -1647 0
1646 1459 -1648 0
1647 -692 1461 0
-1647 692 0
-1647 -1461 0
-1648 1463 1650 0
-1648 -1463 1649 0
1648 -1463 -1649 0
1648 1463 -1650 0
1649 -694 1466 0
-1649 694 0
-1649 -1466 0
1650 -695 1468 0
-1650 695 0
-1650 -1468 0
-1651 4706 4707 4708 1652 0
1651 -1652 0
1651 -4708 0
1651 -4706 0
1651 -4707 0
-1652 4704 4705 0
1652 -4704 0
1652 -4705 0
1653 -4698 -4699 -4700 -4701 0
-1653 4701 0
-1653 4698 0
-1653 4700 0
-1653 4699 0
-1654 4716 1655 1665 1667 0
-1654 -4716 1655 1665 -1667 0
1654 -1655 0
1654 -4716 1667 0
1654 -1665 0
1654 4716 -1667 0
-1655 4714 1656 1662 1664 0
-1655 -4714 1656 1662 -1664 0
1655 -1656 0
1655 -4714 1664 0
1655 -1662 0
1655 4714 -1664 0
-1656 4712 1657 1661 0
-1656 -4712 1657 -1661 0
1656 -1657 0
1656 -4712 1661 0
1656 4712 -1661 0
-1657 -4710 4711 -1658 1660 0
-1657 4710 4711 1658 1660 0
-1657 4710 -4711 1658 -1660 0
-1657 -4710 -4711 -1658 -1660 0
1657 -4710 1658 0
1657 4710 -1658 0
1657 4711 -1660 0
1657 -4711 1660 0
-1658 1341 1659 0
-1658 1323 -1659 0
1658 -1341 1659 0
1658 -1323 -1659 0
1659 -4708 1064 1065 0
-1659 4708 0
-1659 -1064 0
-1659 -1065 0
-1660 1307 1659 0
-1660 1289 -1659 0
1660 -1307 1659 0
1660 -1289 -1659 0
-1661 1273 1659 0
-1661 1255 -1659 0
1661 -1273 1659 0
1661 -1255 -1659 0
-1662 4713 1663 0
-1662 -4713 -1663 0
1662 -4713 1663 0
1662 4713 -1663 0
-1663 1239 1659 0
-1663 1221 -1659 0
1663 -1239 1659 0
1663 -1221 -1659 0
-1664 1205 1659 0
-1664 1187 -1659 0
1664 -1205 1659 0
1664 -1187 -1659 0
-1665 4715 1666 0
-1665 -4715 -1666 0
1665 -4715 1666 0
1665 4715 -1666 0
-1666 1171 1659 0
-1666 1153 -1659 0
1666 -1171 1659 0
1666 -1153 -1659 0
-1667 1137 1659 0
-1667 1119 -1659 0
1667 -1137 1659 0
1667 -1119 -1659 0
-1668 1082 1659 0
-1668 1007 -1659 0
1668 -1082 1659 0
1668 -1007 -1659 0
-1669 4724 1670 1680 1682 0
-1669 -4724 1670 1680 -1682 0
1669 -1670 0
1669 -4724 1682 0
1669 -1680 0
1669 4724 -1682 0
-1670 4722 1671 1677 1679 0
-1670 -4722 1671 1677 -1679 0
1670 -1671 0
1670 -4722 1679 0
1670 -1677 0
1670 4722 -1679 0
-1671 4720 1672 1676 0
-1671 -4720 1672 -1676 0
1671 -1672 0
1671 -4720 1676 0
1671 4720 -1676 0
-1672 -4718 4719 -1673 1675 0
-1672 4718 4719 1673 1675 0
-1672 4718 -4719 1673 -1675 0
-1672 -4718 -4719 -1673 -1675 0
1672 -4718 1673 0
1672 4718 -1673 0
1672 4719 -1675 0
1672 -4719 1675 0
-1673 1343 1674 0
-1673 1323 -1674 0
1673 -1343 1674 0
1673 -1323 -1674 0
1674 -4708 -1063 0
-1674 4708 0
-1674 1063 0
-1675 1309 1674 0
-1675 1289 -1674 0
1675 -1309 1674 0
1675 -1289 -1674 0
-1676 1275 1674 0
-1676 1255 -1674 0
1676 -1275 1674 0
1676 -1255 -1674 0
-1677 4721 1678 0
-1677 -4721 -1678 0
1677 -4721 1678 0
1677 4721 -1678 0
-1678 1241 1674 0
-1678 1221 -1674 0
1678 -1241 1674 0
1678 -1221 -1674 0
-1679 1207 1674 0
-1679 1187 -1674 0
1679 -1207 1674 0
1679 -1187 -1674 0
-1680 4723 1681 0
-1680 -4723 -1681 0
1680 -4723 1681 0
1680 4723 -1681 0
-1681 1173 1674 0
-1681 1153 -1674 0
1681 -1173 1674 0
1681 -1153 -1674 0
-1682 1139 1674 0
-1682 1119 -1674 0
1682 -1139 1674 0
1682 -1119 -1674 0
-1683 1087 1674 0
-1683 1007 -1674 0
1683 -1087 1674 0
1683 -1007 -1674 0
-1684 4732 1685 1695 1697 0
-1684 -4732 1685 1695 -1697 0
1684 -1685 0
1684 -4732 1697 0
1684 -1695 0
1684 4732 -1697 0
-1685 4730 1686 1692 1694 0
-1685 -4730 1686 1692 -1694 0
1685 -1686 0
1685 -4730 1694 0
1685 -1692 0
1685 4730 -1694 0
-1686 4728 1687 1691 0
-1686 -4728 1687 -1691 0
1686 -1687 0
1686 -4728 1691 0
1686 4728 -1691 0
-1687 -4726 4727 -1688 1690 0
-1687 4726 4727 1688 1690 0
-1687 4726 -4727 1688 -1690 0
-1687 -4726 -4727 -1688 -1690 0
1687 -4726 1688 0
1687 4726 -1688 0
1687 4727 -1690 0
1687 -4727 1690 0
-1688 1345 1689 0
-1688 1323 -1689 0
1688 -1345 1689 0
1688 -1323 -1689 0
1689 -4708 -1085 0
-1689 4708 0
-1689 1085 0
-1690 1311 1689 0
-1690 1289 -1689 0
1690 -1311 1689 0
1690 -1289 -1689 0
-1691 1277 1689 0
-1691 1255 -1689 0
1691 -1277 1689 0
1691 -1255 -1689 0
-1692 4729 1693 0
-1692 -4729 -1693 0
1692 -4729 1693 0
1692 4729 -1693 0
-1693 1243 1689 0
-1693 1221 -1689 0
1693 -1243 1689 0
1693 -1221 -1689 0
-1694 1209 1689 0
-1694 1187 -1689 0
1694 -1209 1689 0
1694 -1187 -1689 0
-1695 4731 1696 0
-1695 -4731 -1696 0
1695 -4731 1696 0
1695 4731 -1696 0
-1696 1175 1689 0
-1696 1153 -1689 0
1696 -1175 1689 0
1696 -1153 -1689 0
-1697 1141 1689 0
-1697 1119 -1689 0
1697 -1141 1689 0
1697 -1119 -1689 0
-1698 1091 1689 0
-1698 1007 -1689 0
1698 -1091 1689 0
1698 -1007 -1689 0
-1699 4740 1700 1710 1712 0
-1699 -4740 1700 1710 -1712 0
1699 -1700 0
1699 -4740 1712 0
1699 -1710 0
1699 4740 -1712 0
-1700 4738 1701 1707 1709 0
-1700 -4738 1701 1707 -1709 0
1700 -1701 0
1700 -4738 1709 0
1700 -1707 0
1700 4738 -1709 0
-1701 4736 1702 1706 0
-1701 -4736 1702 -1706 0
1701 -1702 0
1701 -4736 1706 0
1701 4736 -1706 0
-1702 -4734 4735 -1703 1705 0
-1702 4734 4735 1703 1705 0
-1702 4734 -4735 1703 -1705 0
-1702 -4734 -4735 -1703 -1705 0
1702 -4734 1703 0
1702 4734 -1703 0
1702 4735 -1705 0
1702 -4735 1705 0
-1703 1347 1704 0
-1703 1323 -1704 0
1703 -1347 1704 0
1703 -1323 -1704 0
1704 -4708 -1090 0
-1704 4708 0
-1704 1090 0
-1705 1313 1704 0
-1705 1289 -1704 0
1705 -1313 1704 0
1705 -1289 -1704 0
-1706 1279 1704 0
-1706 1255 -1704 0
1706 -1279 1704 0
1706 -1255 -1704 0
-1707 4737 1708 0
-1707 -4737 -1708 0
1707 -4737 1708 0
1707 4737 -1708 0
-1708 1245 1704 0
-1708 1221 -1704 0
1708 -1245 1704 0
1708 -1221 -1704 0
-1709 1211 1704 0
-1709 1187 -1704 0
1709 -1211 1704 0
1709 -1187 -1704 0
-1710 4739 1711 0
-1710 -4739 -1711 0
1710 -4739 1711 0
1710 4739 -1711 0
-1711 1177 1704 0
-1711 1153 -1704 0
1711 -1177 1704 0
1711 -1153 -1704 0
-1712 1143 1704 0
-1712 1119 -1704 0
1712 -1143 1704 0
1712 -1119 -1704 0
-1713 1097 1704 0
-1713 1007 -1704 0
1713 -1097 1704 0
1713 -1007 -1704 0
-1714 4748 1715 1725 1727 0
-1714 -4748 1715 1725 -1727 0
1714 -1715 0
1714 -4748 1727 0
1714 -1725 0
1714 4748 -1727 0
-1715 4746 1716 1722 1724 0
-1715 -4746 1716 1722 -1724 0
1715 -1716 0
1715 -4746 1724 0
1715 -1722 0
1715 4746 -1724 0
-1716 4744 1717 1721 0
-1716 -4744 1717 -1721 0
1716 -1717 0
1716 -4744 1721 0
1716 4744 -1721 0
-1717 -4742 4743 -1718 1720 0
-1717 4742 4743 1718 1720 0
-1717 4742 -4743 1718 -1720 0
-1717 -4742 -4743 -1718 -1720 0
1717 -4742 1718 0
1717 4742 -1718 0
1717 4743 -1720 0
1717 -4743 1720 0
-1718 1349 1719 0
-1718 1323 -1719 0
1718 -1349 1719 0
1718 -1323 -1719 0
1719 -4708 -1094 0
-1719 4708 0
-1719 1094 0
-1720 1315 1719 0
-1720 1289 -1719 0
1720 -1315 1719 0
1720 -1289 -1719 0
-1721 1281 1719 0
-1721 1255 -1719 0
1721 -1281 1719 0
1721 -1255 -1719 0
-1722 4745 1723 0
-1722 -4745 -1723 0
1722 -4745 1723 0
1722 4745 -1723 0
-1723 1247 1719 0
-1723 1221 -1719 0
1723 -1247 1719 0
1723 -1221 -1719 0
-1724 1213 1719 0
-1724 1187 -1719 0
1724 -1213 1719 0
1724 -1187 -1719 0
-1725 4747 1726 0
-1725 -4747 -1726 0
1725 -4747 1726 0
1725 4747 -1726 0
-1726 1179 1719 0
-1726 1153 -1719 0
1726 -1179 1719 0
1726 -1153 -1719 0
-1727 1145 1719 0
-1727 1119 -1719 0
1727 -1145 1719 0
1727 -1119 -1719 0
-1728 1101 1719 0
-1728 1007 -1719 0
1728 -1101 1719 0
1728 -1007 -1719 0
-1729 4756 1730 1740 1742 0
-1729 -4756 1730 1740 -1742 0
1729 -1730 0
1729 -4756 1742 0
1729 -1740 0
1729 4756 -1742 0
-1730 4754 1731 1737 1739 0
-1730 -4754 1731 1737 -1739 0
1730 -1731 0
1730 -4754 1739 0
1730 -1737 0
1730 4754 -1739 0
-1731 4752 1732 1736 0
-1731 -4752 1732 -1736 0
1731 -1732 0
1731 -4752 1736 0
1731 4752 -1736 0
-1732 -4750 4751 -1733 1735 0
-1732 4750 4751 1733 1735 0
-1732 4750 -4751 1733 -1735 0
-1732 -4750 -4751 -1733 -1735 0
1732 -4750 1733 0
1732 4750 -1733 0
1732 4751 -1735 0
1732 -4751 1735 0
-1733 1351 1734 0
-1733 1323 -1734 0
1733 -1351 1734 0
1733 -1323 -1734 0
1734 -4708 -1100 0
-1734 4708 0
-1734 1100 0
-1735 1317 1734 0
-1735 1289 -1734 0
1735 -1317 1734 0
1735 -1289 -1734 0
-1736 1283 1734 0
-1736 1255 -1734 0
1736 -1283 1734 0
1736 -1255 -1734 0
-1737 4753 1738 0
-1737 -4753 -1738 0
1737 -4753 1738 0
1737 4753 -1738 0
-1738 1249 1734 0
-1738 1221 -1734 0
1738 -1249 1734 0
1738 -1221 -1734 0
-1739 1215 1734 0
-1739 1187 -1734 0
1739 -1215 1734 0
1739 -1187 -1734 0
-1740 4755 1741 0
-1740 -4755 -1741 0
1740 -4755 1741 0
1740 4755 -1741 0
-1741 1181 1734 0
-1741 1153 -1734 0
1741 -1181 1734 0
1741 -1153 -1734 0
-1742 1147 1734 0
-1742 1119 -1734 0
1742 -1147 1734 0
1742 -1119 -1734 0
-1743 1106 1734 0
-1743 1007 -1734 0
1743 -1106 1734 0
1743 -1007 -1734 0
-1744 4764 1745 1755 1757 0
-1744 -4764 1745 1755 -1757 0
1744 -1745 0
1744 -4764 1757 0
1744 -1755 0
1744 4764 -1757 0
-1745 4762 1746 1752 1754 0
-1745 -4762 1746 1752 -1754 0
1745 -1746 0
1745 -4762 1754 0
1745 -1752 0
1745 4762 -1754 0
-1746 4760 1747 1751 0
-1746 -4760 1747 -1751 0
1746 -1747 0
1746 -4760 1751 0
1746 4760 -1751 0
-1747 -4758 4759 -1748 1750 0
-1747 4758 4759 1748 1750 0
-1747 4758 -4759 1748 -1750 0
-1747 -4758 -4759 -1748 -1750 0
1747 -4758 1748 0
1747 4758 -1748 0
1747 4759 -1750 0
1747 -4759 1750 0
-1748 1353 1749 0
-1748 1323 -1749 0
1748 -1353 1749 0
1748 -1323 -1749 0
1749 -4708 -1104 0
-1749 4708 0
-1749 1104 0
-1750 1319 1749 0
-1750 1289 -1749 0
1750 -1319 1749 0
1750 -1289 -1749 0
-1751 1285 1749 0
-1751 1255 -1749 0
1751 -1285 1749 0
1751 -1255 -1749 0
-1752 4761 1753 0
-1752 -4761 -1753 0
1752 -4761 1753 0
1752 4761 -1753 0
-1753 1251 1749 0
-1753 1221 -1749 0
1753 -1251 1749 0
1753 -1221 -1749 0
-1754 1217 1749 0
-1754 1187 -1749 0
1754 -1217 1749 0
1754 -1187 -1749 0
-1755 4763 1756 0
-1755 -4763 -1756 0
1755 -4763 1756 0
1755 4763 -1756 0
-1756 1183 1749 0
-1756 1153 -1749 0
1756 -1183 1749 0
1756 -1153 -1749 0
-1757 1149 1749 0
-1757 1119 -1749 0
1757 -1149 1749 0
1757 -1119 -1749 0
-1758 1110 1749 0
-1758 1007 -1749 0
1758 -1110 1749 0
1758 -1007 -1749 0
-1759 4772 1760 1770 1772 0
-1759 -4772 1760 1770 -1772 0
1759 -1760 0
1759 -4772 1772 0
1759 -1770 0
1759 4772 -1772 0
-1760 4770 1761 1767 1769 0
-1760 -4770 1761 1767 -1769 0
1760 -1761 0
1760 -4770 1769 0
1760 -1767 0
1760 4770 -1769 0
-1761 4768 1762 1766 0
-1761 -4768 1762 -1766 0
1761 -1762 0
1761 -4768 1766 0
1761 4768 -1766 0
-1762 -4766 4767 -1763 1765 0
-1762 4766 4767 1763 1765 0
-1762 4766 -4767 1763 -1765 0
-1762 -4766 -4767 -1763 -1765 0
1762 -4766 1763 0
1762 4766 -1763 0
1762 4767 -1765 0
1762 -4767 1765 0
-1763 1355 1764 0
-1763 1323 -1764 0
1763 -1355 1764 0
1763 -1323 -1764 0
1764 -4708 -1109 0
-1764 4708 0
-1764 1109 0
-1765 1321 1764 0
-1765 1289 -1764 0
1765 -1321 1764 0
1765 -1289 -1764 0
-1766 1287 1764 0
-1766 1255 -1764 0
1766 -1287 1764 0
1766 -1255 -1764 0
-1767 4769 1768 0
-1767 -4769 -1768 0
1767 -4769 1768 0
1767 4769 -1768 0
-1768 1253 1764 0
-1768 1221 -1764 0
1768 -1253 1764 0
1768 -1221 -1764 0
-1769 1219 1764 0
-1769 1187 -1764 0
1769 -1219 1764 0
1769 -1187 -1764 0
-1770 4771 1771 0
-1770 -4771 -1771 0
1770 -4771 1771 0
1770 4771 -1771 0
-1771 1185 1764 0
-1771 1153 -1764 0
1771 -1185 1764 0
1771 -1153 -1764 0
-1772 1151 1764 0
-1772 1119 -1764 0
1772 -1151 1764 0
1772 -1119 -1764 0
-1773 1115 1764 0
-1773 1007 -1764 0
1773 -1115 1764 0
1773 -1007 -1764 0
-1774 4780 1775 1785 1787 0
-1774 -4780 1775 1785 -1787 0
1774 -1775 0
1774 -4780 1787 0
1774 -1785 0
1774 4780 -1787 0
-1775 4778 1776 1782 1784 0
-1775 -4778 1776 1782 -1784 0
1775 -1776 0
1775 -4778 1784 0
1775 -1782 0
1775 4778 -1784 0
-1776 4776 1777 1781 0
-1776 -4776 1777 -1781 0
1776 -1777 0
1776 -4776 1781 0
1776 4776 -1781 0
-1777 -4774 4775 -1778 1780 0
-1777 4774 4775 1778 1780 0
-1777 4774 -4775 1778 -1780 0
-1777 -4774 -4775 -1778 -1780 0
1777 -4774 1778 0
1777 4774 -1778 0
1777 4775 -1780 0
1777 -4775 1780 0
-1778 1356 1779 0
-1778 1323 -1779 0
1778 -1356 1779 0
1778 -1323 -1779 0
1779 -4708 -1113 0
-1779 4708 0
-1779 1113 0
-1780 1322 1779 0
-1780 1289 -1779 0
1780 -1322 1779 0
1780 -1289 -1779 0
-1781 1288 1779 0
-1781 1255 -1779 0
1781 -1288 1779 0
1781 -1255 -1779 0
-1782 4777 1783 0
-1782 -4777 -1783 0
1782 -4777 1783 0
1782 4777 -1783 0
-1783 1254 1779 0
-1783 1221 -1779 0
1783 -1254 1779 0
1783 -1221 -1779 0
-1784 1220 1779 0
-1784 1187 -1779 0
1784 -1220 1779 0
1784 -1187 -1779 0
-1785 4779 1786 0
-1785 -4779 -1786 0
1785 -4779 1786 0
1785 4779 -1786 0
-1786 1186 1779 0
-1786 1153 -1779 0
1786 -1186 1779 0
1786 -1153 -1779 0
-1787 1152 1779 0
-1787 1119 -1779 0
1787 -1152 1779 0
1787 -1119 -1779 0
-1788 1117 1779 0
-1788 1007 -1779 0
1788 -1117 1779 0
1788 -1007 -1779 0
-1789 4788 1790 1805 1807 0
-1789 -4788 1790 1805 -1807 0
1789 -1790 0
1789 -4788 1807 0
1789 -1805 0
1789 4788 -1807 0
-1790 4786 1791 1802 1804 0
-1790 -4786 1791 1802 -1804 0
1790 -1791 0
1790 -4786 1804 0
1790 -1802 0
1790 4786 -1804 0
-1791 4784 1792 1801 0
-1791 -4784 1792 -1801 0
1791 -1792 0
1791 -4784 1801 0
1791 4784 -1801 0
-1792 -4782 4783 -1793 1800 0
-1792 4782 4783 1793 1800 0
-1792 4782 -4783 1793 -1800 0
-1792 -4782 -4783 -1793 -1800 0
1792 -4782 1793 0
1792 4782 -1793 0
1792 4783 -1800 0
1792 -4783 1800 0
-1793 1078 1794 0
-1793 -4708 -1078 -1794 0
-1793 4708 1078 0
1793 -1078 1794 0
1793 4708 -1078 0
1793 -4708 1078 -1794 0
1794 -1081 -1795 0
-1794 1081 0
-1794 1795 0
1795 -1076 -1796 0
-1795 1076 0
-1795 1796 0
1796 -1074 -1797 0
-1796 1074 0
-1796 1797 0
1797 -1071 -1798 0
-1797 1071 0
-1797 1798 0
1798 -1068 -1799 0
-1798 1068 0
-1798 1799 0
1799 -1064 -1066 0
-1799 1064 0
-1799 1066 0
-1800 1081 1795 0
-1800 -4708 -1081 -1795 0
-1800 4708 1081 0
1800 -1081 1795 0
1800 4708 -1081 0
1800 -4708 1081 -1795 0
-1801 1076 1796 0
-1801 -4708 -1076 -1796 0
-1801 4708 1076 0
1801 -1076 1796 0
1801 4708 -1076 0
1801 -4708 1076 -1796 0
-1802 4785 1803 0
-1802 -4785 -1803 0
1802 -4785 1803 0
1802 4785 -1803 0
-1803 1074 1797 0
-1803 -4708 -1074 -1797 0
-1803 4708 1074 0
1803 -1074 1797 0
1803 4708 -1074 0
1803 -4708 1074 -1797 0
-1804 1071 1798 0
-1804 -4708 -1071 -1798 0
-1804 4708 1071 0
1804 -1071 1798 0
1804 4708 -1071 0
1804 -4708 1071 -1798 0
-1805 4787 1806 0
-1805 -4787 -1806 0
1805 -4787 1806 0
1805 4787 -1806 0
-1806 1068 1799 0
-1806 -4708 -1068 -1799 0
-1806 4708 1068 0
1806 -1068 1799 0
1806 4708 -1068 0
1806 -4708 1068 -1799 0
-1807 4708 1066 0
-1807 -4708 -1064 -1066 0
-1807 1064 1066 0
1807 1064 -1066 0
1807 4708 -1066 0
1807 -4708 -1064 1066 0
-1808 4708 1064 0
-1808 -4708 -1064 0
1808 -4708 1064 0
1808 4708 -1064 0
-1809 4796 1810 1820 1822 0
-1809 -4796 1810 1820 -1822 0
1809 -1810 0
1809 -4796 1822 0
1809 -1820 0
1809 4796 -1822 0
-1810 4794 1811 1817 1819 0
-1810 -4794 1811 1817 -1819 0
1810 -1811 0
1810 -4794 1819 0
1810 -1817 0
1810 4794 -1819 0
-1811 4792 1812 1816 0
-1811 -4792 1812 -1816 0
1811 -1812 0
1811 -4792 1816 0
1811 4792 -1816 0
-1812 -4790 4791 -1813 1815 0
-1812 4790 4791 1813 1815 0
-1812 4790 -4791 1813 -1815 0
-1812 -4790 -4791 -1813 -1815 0
1812 -4790 1813 0
1812 4790 -1813 0
1812 4791 -1815 0
1812 -4791 1815 0
-1813 1625 -1814 0
-1813 1635 1814 0
1813 -1635 1814 0
1813 -1625 -1814 0
1814 -4709 1414 1415 0
-1814 4709 0
-1814 -1414 0
-1814 -1415 0
-1815 1599 -1814 0
-1815 1609 1814 0
1815 -1609 1814 0
1815 -1599 -1814 0
-1816 1573 -1814 0
-1816 1583 1814 0
1816 -1583 1814 0
1816 -1573 -1814 0
-1817 4793 1818 0
-1817 -4793 -1818 0
1817 -4793 1818 0
1817 4793 -1818 0
-1818 1547 -1814 0
-1818 1557 1814 0
1818 -1557 1814 0
1818 -1547 -1814 0
-1819 1521 -1814 0
-1819 1531 1814 0
1819 -1531 1814 0
1819 -1521 -1814 0
-1820 4795 1821 0
-1820 -4795 -1821 0
1820 -4795 1821 0
1820 4795 -1821 0
-1821 1495 -1814 0
-1821 1505 1814 0
1821 -1505 1814 0
1821 -1495 -1814 0
-1822 1469 -1814 0
-1822 1479 1814 0
1822 -1479 1814 0
1822 -1469 -1814 0
-1823 1365 -1814 0
-1823 1432 1814 0
1823 -1432 1814 0
1823 -1365 -1814 0
-1824 4804 1825 1835 1837 0
-1824 -4804 1825 1835 -1837 0
1824 -1825 0
1824 -4804 1837 0
1824 -1835 0
1824 4804 -1837 0
-1825 4802 1826 1832 1834 0
-1825 -4802 1826 1832 -1834 0
1825 -1826 0
1825 -4802 1834 0
1825 -1832 0
1825 4802 -1834 0
-1826 4800 1827 1831 0
-1826 -4800 1827 -1831 0
1826 -1827 0
1826 -4800 1831 0
1826 4800 -1831 0
-1827 -4798 4799 -1828 1830 0
-1827 4798 4799 1828 1830 0
-1827 4798 -4799 1828 -1830 0
-1827 -4798 -4799 -1828 -1830 0
1827 -4798 1828 0
1827 4798 -1828 0
1827 4799 -1830 0
1827 -4799 1830 0
-1828 1625 -1829 0
-1828 1637 1829 0
1828 -1637 1829 0
1828 -1625 -1829 0
1829 -4709 -1413 0
-1829 4709 0
-1829 1413 0
-1830 1599 -1829 0
-1830 1611 1829 0
1830 -1611 1829 0
1830 -1599 -1829 0
-1831 1573 -1829 0
-1831 1585 1829 0
1831 -1585 1829 0
1831 -1573 -1829 0
-1832 4801 1833 0
-1832 -4801 -1833 0
1832 -4801 1833 0
1832 4801 -1833 0
-1833 1547 -1829 0
-1833 1559 1829 0
1833 -1559 1829 0
1833 -1547 -1829 0
-1834 1521 -1829 0
-1834 1533 1829 0
1834 -1533 1829 0
1834 -1521 -1829 0
-1835 4803 1836 0
-1835 -4803 -1836 0
1835 -4803 1836 0
1835 4803 -1836 0
-1836 1495 -1829 0
-1836 1507 1829 0
1836 -1507 1829 0
1836 -1495 -1829 0
-1837 1469 -1829 0
-1837 1481 1829 0
1837 -1481 1829 0
1837 -1469 -1829 0
-1838 1365 -1829 0
-1838 1437 1829 0
1838 -1437 1829 0
1838 -1365 -1829 0
-1839 4812 1840 1850 1852 0
-1839 -4812 1840 1850 -1852 0
1839 -1840 0
1839 -4812 1852 0
1839 -1850 0
1839 4812 -1852 0
-1840 4810 1841 1847 1849 0
-1840 -4810 1841 1847 -1849 0
1840 -1841 0
1840 -4810 1849 0
1840 -1847 0
1840 4810 -1849 0
-1841 4808 1842 1846 0
-1841 -4808 1842 -1846 0
1841 -1842 0
1841 -4808 1846 0
1841 4808 -1846 0
-1842 -4806 4807 -1843 1845 0
-1842 4806 4807 1843 1845 0
-1842 4806 -4807 1843 -1845 0
-1842 -4806 -4807 -1843 -1845 0
1842 -4806 1843 0
1842 4806 -1843 0
1842 4807 -1845 0
1842 -4807 1845 0
-1843 1625 -1844 0
-1843 1639 1844 0
1843 -1639 1844 0
1843 -1625 -1844 0
1844 -4709 -1435 0
-1844 4709 0
-1844 1435 0
-1845 1599 -1844 0
-1845 1613 1844 0
1845 -1613 1844 0
1845 -1599 -1844 0
-1846 1573 -1844 0
-1846 1587 1844 0
1846 -1587 1844 0
1846 -1573 -1844 0
-1847 4809 1848 0
-1847 -4809 -1848 0
1847 -4809 1848 0
1847 4809 -1848 0
-1848 1547 -1844 0
-1848 1561 1844 0
1848 -1561 1844 0
1848 -1547 -1844 0
-1849 1521 -1844 0
-1849 1535 1844 0
1849 -1535 1844 0
1849 -1521 -1844 0
-1850 4811 1851 0
-1850 -4811 -1851 0
1850 -4811 1851 0
1850 4811 -1851 0
-1851 1495 -1844 0
-1851 1509 1844 0
1851 -1509 1844 0
1851 -1495 -1844 0
-1852 1469 -1844 0
-1852 1483 1844 0
1852 -1483 1844 0
1852 -1469 -1844 0
-1853 1365 -1844 0
-1853 1441 1844 0
1853 -1441 1844 0
1853 -1365 -1844 0
-1854 4820 1855 1865 1867 0
-1854 -4820 1855 1865 -1867 0
1854 -1855 0
1854 -4820 1867 0
1854 -1865 0
1854 4820 -1867 0
-1855 4818 1856 1862 1864 0
-1855 -4818 1856 1862 -1864 0
1855 -1856 0
1855 -4818 1864 0
1855 -1862 0
1855 4818 -1864 0
-1856 4816 1857 1861 0
-1856 -4816 1857 -1861 0
1856 -1857 0
1856 -4816 1861 0
1856 4816 -1861 0
-1857 -4814 4815 -1858 1860 0
-1857 4814 4815 1858 1860 0
-1857 4814 -4815 1858 -1860 0
-1857 -4814 -4815 -1858 -1860 0
1857 -4814 1858 0
1857 4814 -1858 0
1857 4815 -1860 0
1857 -4815 1860 0
-1858 1625 -1859 0
-1858 1641 1859 0
1858 -1641 1859 0
1858 -1625 -1859 0
1859 -4709 -1440 0
-1859 4709 0
-1859 1440 0
-1860 1599 -1859 0
-1860 1615 1859 0
1860 -1615 1859 0
1860 -1599 -1859 0
-1861 1573 -1859 0
-1861 1589 1859 0
1861 -1589 1859 0
1861 -1573 -1859 0
-1862 4817 1863 0
-1862 -4817 -1863 0
1862 -4817 1863 0
1862 4817 -1863 0
-1863 1547 -1859 0
-1863 1563 1859 0
1863 -1563 1859 0
1863 -1547 -1859 0
-1864 1521 -1859 0
-1864 1537 1859 0
1864 -1537 1859 0
1864 -1521 -1859 0
-1865 4819 1866 0
-1865 -4819 -1866 0
1865 -4819 1866 0
1865 4819 -1866 0
-1866 1495 -1859 0
-1866 1511 1859 0
1866 -1511 1859 0
1866 -1495 -1859 0
-1867 1469 -1859 0
-1867 1485 1859 0
1867 -1485 1859 0
1867 -1469 -1859 0
-1868 1365 -1859 0
-1868 1447 1859 0
1868 -1447 1859 0
1868 -1365 -1859 0
-1869 4828 1870 1880 1882 0
-1869 -4828 1870 1880 -1882 0
1869 -1870 0
1869 -4828 1882 0
1869 -1880 0
1869 4828 -1882 0
-1870 4826 1871 1877 1879 0
-1870 -4826 1871 1877 -1879 0
1870 -1871 0
1870 -4826 1879 0
1870 -1877 0
1870 4826 -1879 0
-1871 4824 1872 1876 0
-1871 -4824 1872 -1876 0
1871 -1872 0
1871 -4824 1876 0
1871 4824 -1876 0
-1872 -4822 4823 -1873 1875 0
-1872 4822 4823 1873 1875 0
-1872 4822 -4823 1873 -1875 0
-1872 -4822 -4823 -1873 -1875 0
1872 -4822 1873 0
1872 4822 -1873 0
1872 4823 -1875 0
1872 -4823 1875 0
-1873 1625 -1874 0
-1873 1643 1874 0
1873 -1643 1874 0
1873 -1625 -1874 0
1874 -4709 -1444 0
-1874 4709 0
-1874 1444 0
-1875 1599 -1874 0
-1875 1617 1874 0
1875 -1617 1874 0
1875 -1599 -1874 0
-1876 1573 -1874 0
-1876 1591 1874 0
1876 -1591 1874 0
1876 -1573 -1874 0
-1877 4825 1878 0
-1877 -4825 -1878 0
1877 -4825 1878 0
1877 4825 -1878 0
-1878 1547 -1874 0
-1878 1565 1874 0
1878 -1565 1874 0
1878 -1547 -1874 0
-1879 1521 -1874 0
-1879 1539 1874 0
1879 -1539 1874 0
1879 -1521 -1874 0
-1880 4827 1881 0
-1880 -4827 -1881 0
1880 -4827 1881 0
1880 4827 -1881 0
-1881 1495 -1874 0
-1881 1513 1874 0
1881 -1513 1874 0
1881 -1495 -1874 0
-1882 1469 -1874 0
-1882 1487 1874 0
1882 -1487 1874 0
1882 -1469 -1874 0
-1883 1365 -1874 0
-1883 1451 1874 0
1883 -1451 1874 0
1883 -1365 -1874 0
-1884 4836 1885 1895 1897 0
-1884 -4836 1885 1895 -1897 0
1884 -1885 0
1884 -4836 1897 0
1884 -1895 0
1884 4836 -1897 0
-1885 4834 1886 1892 1894 0
-1885 -4834 1886 1892 -1894 0
1885 -1886 0
1885 -4834 1894 0
1885 -1892 0
1885 4834 -1894 0
-1886 4832 1887 1891 0
-1886 -4832 1887 -1891 0
1886 -1887 0
1886 -4832 1891 0
1886 4832 -1891 0
-1887 -4830 4831 -1888 1890 0
-1887 4830 4831 1888 1890 0
-1887 4830 -4831 1888 -1890 0
-1887 -4830 -4831 -1888 -1890 0
1887 -4830 1888 0
1887 4830 -1888 0
1887 4831 -1890 0
1887 -4831 1890 0
-1888 1625 -1889 0
-1888 1645 1889 0
1888 -1645 1889 0
1888 -1625 -1889 0
1889 -4709 -1450 0
-1889 4709 0
-1889 1450 0
-1890 1599 -1889 0
-1890 1619 1889 0
1890 -1619 1889 0
1890 -1599 -1889 0
-1891 1573 -1889 0
-1891 1593 1889 0
1891 -1593 1889 0
1891 -1573 -1889 0
-1892 4833 1893 0
-1892 -4833 -1893 0
1892 -4833 1893 0
1892 4833 -1893 0
-1893 1547 -1889 0
-1893 1567 1889 0
1893 -1567 1889 0
1893 -1547 -1889 0
-1894 1521 -1889 0
-1894 1541 1889 0
1894 -1541 1889 0
1894 -1521 -1889 0
-1895 4835 1896 0
-1895 -4835 -1896 0
1895 -4835 1896 0
1895 4835 -1896 0
-1896 1495 -1889 0
-1896 1515 1889 0
1896 -1515 1889 0
1896 -1495 -1889 0
-1897 1469 -1889 0
-1897 1489 1889 0
1897 -1489 1889 0
1897 -1469 -1889 0
-1898 1365 -1889 0
-1898 1456 1889 0
1898 -1456 1889 0
1898 -1365 -1889 0
-1899 4844 1900 1910 1912 0
-1899 -4844 1900 1910 -1912 0
1899 -1900 0
1899 -4844 1912 0
1899 -1910 0
1899 4844 -1912 0
-1900 4842 1901 1907 1909 0
-1900 -4842 1901 1907 -1909 0
1900 -1901 0
1900 -4842 1909 0
1900 -1907 0
1900 4842 -1909 0
-1901 4840 1902 1906 0
-1901 -4840 1902 -1906 0
1901 -1902 0
1901 -4840 1906 0
1901 4840 -1906 0
-1902 -4838 4839 -1903 1905 0
-1902 4838 4839 1903 1905 0
-1902 4838 -4839 1903 -1905 0
-1902 -4838 -4839 -1903 -1905 0
1902 -4838 1903 0
1902 4838 -1903 0
1902 4839 -1905 0
1902 -4839 1905 0
-1903 1625 -1904 0
-1903 1647 1904 0
1903 -1647 1904 0
1903 -1625 -1904 0
1904 -4709 -1454 0
-1904 4709 0
-1904 1454 0
-1905 1599 -1904 0
-1905 1621 1904 0
1905 -1621 1904 0
1905 -1599 -1904 0
-1906 1573 -1904 0
-1906 1595 1904 0
1906 -1595 1904 0
1906 -1573 -1904 0
-1907 4841 1908 0
-1907 -4841 -1908 0
1907 -4841 1908 0
1907 4841 -1908 0
-1908 1547 -1904 0
-1908 1569 1904 0
1908 -1569 1904 0
1908 -1547 -1904 0
-1909 1521 -1904 0
-1909 1543 1904 0
1909 -1543 1904 0
1909 -1521 -1904 0
-1910 4843 1911 0
-1910 -4843 -1911 0
1910 -4843 1911 0
1910 4843 -1911 0
-1911 1495 -1904 0
-1911 1517 1904 0
1911 -1517 1904 0
1911 -1495 -1904 0
-1912 1469 -1904 0
-1912 1491 1904 0
1912 -1491 1904 0
1912 -1469 -1904 0
-1913 1365 -1904 0
-1913 1460 1904 0
1913 -1460 1904 0
1913 -1365 -1904 0
-1914 4852 1915 1925 1927 0
-1914 -4852 1915 1925 -1927 0
1914 -1915 0
1914 -4852 1927 0
1914 -1925 0
1914 4852 -1927 0
-1915 4850 1916 1922 1924 0
-1915 -4850 1916 1922 -1924 0
1915 -1916 0
1915 -4850 1924 0
1915 -1922 0
1915 4850 -1924 0
-1916 4848 1917 1921 0
-1916 -4848 1917 -1921 0
1916 -1917 0
1916 -4848 1921 0
1916 4848 -1921 0
-1917 -4846 4847 -1918 1920 0
-1917 4846 4847 1918 1920 0
-1917 4846 -4847 1918 -1920 0
-1917 -4846 -4847 -1918 -1920 0
1917 -4846 1918 0
1917 4846 -1918 0
1917 4847 -1920 0
1917 -4847 1920 0
-1918 1625 -1919 0
-1918 1649 1919 0
1918 -1649 1919 0
1918 -1625 -1919 0
1919 -4709 -1459 0
-1919 4709 0
-1919 1459 0
-1920 1599 -1919 0
-1920 1623 1919 0
1920 -1623 1919 0
1920 -1599 -1919 0
-1921 1573 -1919 0
-1921 1597 1919 0
1921 -1597 1919 0
1921 -1573 -1919 0
-1922 4849 1923 0
-1922 -4849 -1923 0
1922 -4849 1923 0
1922 4849 -1923 0
-1923 1547 -1919 0
-1923 1571 1919 0
1923 -1571 1919 0
1923 -1547 -1919 0
-1924 1521 -1919 0
-1924 1545 1919 0
1924 -1545 1919 0
1924 -1521 -1919 0
-1925 4851 1926 0
-1925 -4851 -1926 0
1925 -4851 1926 0
1925 4851 -1926 0
-1926 1495 -1919 0
-1926 1519 1919 0
1926 -1519 1919 0
1926 -1495 -1919 0
-1927 1469 -1919 0
-1927 1493 1919 0
1927 -1493 1919 0
1927 -1469 -1919 0
-1928 1365 -1919 0
-1928 1465 1919 0
1928 -1465 1919 0
1928 -1365 -1919 0
-1929 4860 1930 1940 1942 0
-1929 -4860 1930 1940 -1942 0
1929 -1930 0
1929 -4860 1942 0
1929 -1940 0
1929 4860 -1942 0
-1930 4858 1931 1937 1939 0
-1930 -4858 1931 1937 -1939 0
1930 -1931 0
1930 -4858 1939 0
1930 -1937 0
1930 4858 -1939 0
-1931 4856 1932 1936 0
-1931 -4856 1932 -1936 0
1931 -1932 0
1931 -4856 1936 0
1931 4856 -1936 0
-1932 -4854 4855 -1933 1935 0
-1932 4854 4855 1933 1935 0
-1932 4854 -4855 1933 -1935 0
-1932 -4854 -4855 -1933 -1935 0
1932 -4854 1933 0
1932 4854 -1933 0
1932 4855 -1935 0
1932 -4855 1935 0
-1933 1625 -1934 0
-1933 1650 1934 0
1933 -1650 1934 0
1933 -1625 -1934 0
1934 -4709 -1463 0
-1934 4709 0
-1934 1463 0
-1935 1599 -1934 0
-1935 1624 1934 0
1935 -1624 1934 0
1935 -1599 -1934 0
-1936 1573 -1934 0
-1936 1598 1934 0
1936 -1598 1934 0
1936 -1573 -1934 0
-1937 4857 1938 0
-1937 -4857 -1938 0
1937 -4857 1938 0
1937 4857 -1938 0
-1938 1547 -1934 0
-1938 1572 1934 0
1938 -1572 1934 0
1938 -1547 -1934 0
-1939 1521 -1934 0
-1939 1546 1934 0
1939 -1546 1934 0
1939 -1521 -1934 0
-1940 4859 1941 0
-1940 -4859 -1941 0
1940 -4859 1941 0
1940 4859 -1941 0
-1941 1495 -1934 0
-1941 1520 1934 0
1941 -1520 1934 0
1941 -1495 -1934 0
-1942 1469 -1934 0
-1942 1494 1934 0
1942 -1494 1934 0
1942 -1469 -1934 0
-1943 1365 -1934 0
-1943 1467 1934 0
1943 -1467 1934 0
1943 -1365 -1934 0
-1944 4868 1945 1960 1962 0
-1944 -4868 1945 1960 -1962 0
1944 -1945 0
1944 -4868 1962 0
1944 -1960 0
1944 4868 -1962 0
-1945 4866 1946 1957 1959 0
-1945 -4866 1946 1957 -1959 0
1945 -1946 0
1945 -4866 1959 0
1945 -1957 0
1945 4866 -1959 0
-1946 4864 1947 1956 0
-1946 -4864 1947 -1956 0
1946 -1947 0
1946 -4864 1956 0
1946 4864 -1956 0
-1947 -4862 4863 -1948 1955 0
-1947 4862 4863 1948 1955 0
-1947 4862 -4863 1948 -1955 0
-1947 -4862 -4863 -1948 -1955 0
1947 -4862 1948 0
1947 4862 -1948 0
1947 4863 -1955 0
1947 -4863 1955 0
-1948 1428 1949 0
-1948 -4709 -1428 -1949 0
-1948 4709 1428 0
1948 -1428 1949 0
1948 4709 -1428 0
1948 -4709 1428 -1949 0
1949 -1431 -1950 0
-1949 1431 0
-1949 1950 0
1950 -1426 -1951 0
-1950 1426 0
-1950 1951 0
1951 -1424 -1952 0
-1951 1424 0
-1951 1952 0
1952 -1421 -1953 0
-1952 1421 0
-1952 1953 0
1953 -1418 -1954 0
-1953 1418 0
-1953 1954 0
1954 -1414 -1416 0
-1954 1414 0
-1954 1416 0
-1955 1431 1950 0
-1955 -4709 -1431 -1950 0
-1955 4709 1431 0
1955 -1431 1950 0
1955 4709 -1431 0
1955 -4709 1431 -1950 0
-1956 1426 1951 0
-1956 -4709 -1426 -1951 0
-1956 4709 1426 0
1956 -1426 1951 0
1956 4709 -1426 0
1956 -4709 1426 -1951 0
-1957 4865 1958 0
-1957 -4865 -1958 0
1957 -4865 1958 0
1957 4865 -1958 0
-1958 1424 1952 0
-1958 -4709 -1424 -1952 0
-1958 4709 1424 0
1958 -1424 1952 0
1958 4709 -1424 0
1958 -4709 1424 -1952 0
-1959 1421 1953 0
-1959 -4709 -1421 -1953 0
-1959 4709 1421 0
1959 -1421 1953 0
1959 4709 -1421 0
1959 -4709 1421 -1953 0
-1960 4867 1961 0
-1960 -4867 -1961 0
1960 -4867 1961 0
1960 4867 -1961 0
-1961 1418 1954 0
-1961 -4709 -1418 -1954 0
-1961 4709 1418 0
1961 -1418 1954 0
1961 4709 -1418 0
1961 -4709 1418 -1954 0
-1962 4709 1416 0
-1962 -4709 -1414 -1416 0
-1962 1414 1416 0
1962 1414 -1416 0
1962 4709 -1416 0
1962 -4709 -1414 1416 0
-1963 4709 1414 0
-1963 -4709 -1414 0
1963 -4709 1414 0
1963 4709 -1414 0
-1964 -4876 1965 1975 -1977 0
-1964 4876 1965 1975 1977 0
1964 -1965 0
1964 4876 -1977 0
1964 -1975 0
1964 -4876 1977 0
-1965 -4874 1966 1972 -1974 0
-1965 4874 1966 1972 1974 0
1965 -1966 0
1965 4874 -1974 0
1965 -1972 0
1965 -4874 1974 0
-1966 4872 1967 1971 0
-1966 -4872 1967 -1971 0
1966 -1967 0
1966 -4872 1971 0
1966 4872 -1971 0
-1967 -4870 4871 -1968 1970 0
-1967 4870 -4871 1968 -1970 0
-1967 4870 4871 1968 1970 0
-1967 -4870 -4871 -1968 -1970 0
1967 -4870 1968 0
1967 4870 -1968 0
1967 4871 -1970 0
1967 -4871 1970 0
1968 -1324 1969 0
-1968 1324 0
-1968 -1969 0
-1969 4709 1384 0
-1969 1366 1384 0
1969 -1384 0
1969 -4709 -1366 0
1970 -1290 1969 0
-1970 1290 0
-1970 -1969 0
1971 -1256 1969 0
-1971 1256 0
-1971 -1969 0
-1972 -4873 -1973 0
-1972 4873 1973 0
1972 4873 -1973 0
1972 -4873 1973 0
1973 -1222 1969 0
-1973 1222 0
-1973 -1969 0
1974 -1188 1969 0
-1974 1188 0
-1974 -1969 0
-1975 -4875 -1976 0
-1975 4875 1976 0
1975 4875 -1976 0
1975 -4875 1976 0
1976 -1154 1969 0
-1976 1154 0
-1976 -1969 0
1977 -1120 1969 0
-1977 1120 0
-1977 -1969 0
1978 -1026 1969 0
-1978 1026 0
-1978 -1969 0
-1979 -4884 1980 1990 -1992 0
-1979 4884 1980 1990 1992 0
1979 -1980 0
1979 4884 -1992 0
1979 -1990 0
1979 -4884 1992 0
-1980 -4882 1981 1987 -1989 0
-1980 4882 1981 1987 1989 0
1980 -1981 0
1980 4882 -1989 0
1980 -1987 0
1980 -4882 1989 0
-1981 4880 1982 1986 0
-1981 -4880 1982 -1986 0
1981 -1982 0
1981 -4880 1986 0
1981 4880 -1986 0
-1982 -4878 4879 -1983 1985 0
-1982 4878 -4879 1983 -1985 0
-1982 4878 4879 1983 1985 0
-1982 -4878 -4879 -1983 -1985 0
1982 -4878 1983 0
1982 4878 -1983 0
1982 4879 -1985 0
1982 -4879 1985 0
1983 -1326 1984 0
-1983 1326 0
-1983 -1984 0
-1984 4709 1388 0
-1984 1386 1388 0
1984 -1388 0
1984 -4709 -1386 0
1985 -1292 1984 0
-1985 1292 0
-1985 -1984 0
1986 -1258 1984 0
-1986 1258 0
-1986 -1984 0
-1987 -4881 -1988 0
-1987 4881 1988 0
1987 4881 -1988 0
1987 -4881 1988 0
1988 -1224 1984 0
-1988 1224 0
-1988 -1984 0
1989 -1190 1984 0
-1989 1190 0
-1989 -1984 0
-1990 -4883 -1991 0
-1990 4883 1991 0
1990 4883 -1991 0
1990 -4883 1991 0
1991 -1156 1984 0
-1991 1156 0
-1991 -1984 0
1992 -1122 1984 0
-1992 1122 0
-1992 -1984 0
1993 -1031 1984 0
-1993 1031 0
-1993 -1984 0
-1994 -4892 1995 2005 -2007 0
-1994 4892 1995 2005 2007 0
1994 -1995 0
1994 4892 -2007 0
1994 -2005 0
1994 -4892 2007 0
-1995 -4890 1996 2002 -2004 0
-1995 4890 1996 2002 2004 0
1995 -1996 0
1995 4890 -2004 0
1995 -2002 0
1995 -4890 2004 0
-1996 4888 1997 2001 0
-1996 -4888 1997 -2001 0
1996 -1997 0
1996 -4888 2001 0
1996 4888 -2001 0
-1997 -4886 4887 -1998 2000 0
-1997 4886 -4887 1998 -2000 0
-1997 4886 4887 1998 2000 0
-1997 -4886 -4887 -1998 -2000 0
1997 -4886 1998 0
1997 4886 -1998 0
1997 4887 -2000 0
1997 -4887 2000 0
1998 -1328 1999 0
-1998 1328 0
-1998 -1999 0
-1999 4709 1391 0
-1999 1390 1391 0
1999 -1391 0
1999 -4709 -1390 0
2000 -1294 1999 0
-2000 1294 0
-2000 -1999 0
2001 -1260 1999 0
-2001 1260 0
-2001 -1999 0
-2002 -4889 -2003 0
-2002 4889 2003 0
2002 4889 -2003 0
2002 -4889 2003 0
2003 -1226 1999 0
-2003 1226 0
-2003 -1999 0
2004 -1192 1999 0
-2004 1192 0
-2004 -1999 0
-2005 -4891 -2006 0
-2005 4891 2006 0
2005 4891 -2006 0
2005 -4891 2006 0
2006 -1158 1999 0
-2006 1158 0
-2006 -1999 0
2007 -1124 1999 0
-2007 1124 0
-2007 -1999 0
2008 -1035 1999 0
-2008 1035 0
-2008 -1999 0
-2009 -4900 2010 2020 -2022 0
-2009 4900 2010 2020 2022 0
2009 -2010 0
2009 4900 -2022 0
2009 -2020 0
2009 -4900 2022 0
-2010 -4898 2011 2017 -2019 0
-2010 4898 2011 2017 2019 0
2010 -2011 0
2010 4898 -2019 0
2010 -2017 0
2010 -4898 2019 0
-2011 4896 2012 2016 0
-2011 -4896 2012 -2016 0
2011 -2012 0
2011 -4896 2016 0
2011 4896 -2016 0
-2012 -4894 4895 -2013 2015 0
-2012 4894 -4895 2013 -2015 0
-2012 4894 4895 2013 2015 0
-2012 -4894 -4895 -2013 -2015 0
2012 -4894 2013 0
2012 4894 -2013 0
2012 4895 -2015 0
2012 -4895 2015 0
2013 -1330 2014 0
-2013 1330 0
-2013 -2014 0
-2014 4709 1396 0
-2014 1393 1396 0
2014 -1396 0
2014 -4709 -1393 0
2015 -1296 2014 0
-2015 1296 0
-2015 -2014 0
2016 -1262 2014 0
-2016 1262 0
-2016 -2014 0
-2017 -4897 -2018 0
-2017 4897 2018 0
2017 4897 -2018 0
2017 -4897 2018 0
2018 -1228 2014 0
-2018 1228 0
-2018 -2014 0
2019 -1194 2014 0
-2019 1194 0
-2019 -2014 0
-2020 -4899 -2021 0
-2020 4899 2021 0
2020 4899 -2021 0
2020 -4899 2021 0
2021 -1160 2014 0
-2021 1160 0
-2021 -2014 0
2022 -1126 2014 0
-2022 1126 0
-2022 -2014 0
2023 -1041 2014 0
-2023 1041 0
-2023 -2014 0
-2024 -4908 2025 2035 -2037 0
-2024 4908 2025 2035 2037 0
2024 -2025 0
2024 4908 -2037 0
2024 -2035 0
2024 -4908 2037 0
-2025 -4906 2026 2032 -2034 0
-2025 4906 2026 2032 2034 0
2025 -2026 0
2025 4906 -2034 0
2025 -2032 0
2025 -4906 2034 0
-2026 4904 2027 2031 0
-2026 -4904 2027 -2031 0
2026 -2027 0
2026 -4904 2031 0
2026 4904 -2031 0
-2027 -4902 4903 -2028 2030 0
-2027 4902 -4903 2028 -2030 0
-2027 4902 4903 2028 2030 0
-2027 -4902 -4903 -2028 -2030 0
2027 -4902 2028 0
2027 4902 -2028 0
2027 4903 -2030 0
2027 -4903 2030 0
2028 -1332 2029 0
-2028 1332 0
-2028 -2029 0
-2029 4709 1399 0
-2029 1398 1399 0
2029 -1399 0
2029 -4709 -1398 0
2030 -1298 2029 0
-2030 1298 0
-2030 -2029 0
2031 -1264 2029 0
-2031 1264 0
-2031 -2029 0
-2032 -4905 -2033 0
-2032 4905 2033 0
2032 4905 -2033 0
2032 -4905 2033 0
2033 -1230 2029 0
-2033 1230 0
-2033 -2029 0
2034 -1196 2029 0
-2034 1196 0
-2034 -2029 0
-2035 -4907 -2036 0
-2035 4907 2036 0
2035 4907 -2036 0
2035 -4907 2036 0
2036 -1162 2029 0
-2036 1162 0
-2036 -2029 0
2037 -1128 2029 0
-2037 1128 0
-2037 -2029 0
2038 -1045 2029 0
-2038 1045 0
-2038 -2029 0
-2039 -4916 2040 2050 -2052 0
-2039 4916 2040 2050 2052 0
2039 -2040 0
2039 4916 -2052 0
2039 -2050 0
2039 -4916 2052 0
-2040 -4914 2041 2047 -2049 0
-2040 4914 2041 2047 2049 0
2040 -2041 0
2040 4914 -2049 0
2040 -2047 0
2040 -4914 2049 0
-2041 4912 2042 2046 0
-2041 -4912 2042 -2046 0
2041 -2042 0
2041 -4912 2046 0
2041 4912 -2046 0
-2042 -4910 4911 -2043 2045 0
-2042 4910 -4911 2043 -2045 0
-2042 4910 4911 2043 2045 0
-2042 -4910 -4911 -2043 -2045 0
2042 -4910 2043 0
2042 4910 -2043 0
2042 4911 -2045 0
2042 -4911 2045 0
2043 -1334 2044 0
-2043 1334 0
-2043 -2044 0
-2044 4709 1403 0
-2044 1401 1403 0
2044 -1403 0
2044 -4709 -1401 0
2045 -1300 2044 0
-2045 1300 0
-2045 -2044 0
2046 -1266 2044 0
-2046 1266 0
-2046 -2044 0
-2047 -4913 -2048 0
-2047 4913 2048 0
2047 4913 -2048 0
2047 -4913 2048 0
2048 -1232 2044 0
-2048 1232 0
-2048 -2044 0
2049 -1198 2044 0
-2049 1198 0
-2049 -2044 0
-2050 -4915 -2051 0
-2050 4915 2051 0
2050 4915 -2051 0
2050 -4915 2051 0
2051 -1164 2044 0
-2051 1164 0
-2051 -2044 0
2052 -1130 2044 0
-2052 1130 0
-2052 -2044 0
2053 -1050 2044 0
-2053 1050 0
-2053 -2044 0
-2054 -4924 2055 2065 -2067 0
-2054 4924 2055 2065 2067 0
2054 -2055 0
2054 4924 -2067 0
2054 -2065 0
2054 -4924 2067 0
-2055 -4922 2056 2062 -2064 0
-2055 4922 2056 2062 2064 0
2055 -2056 0
2055 4922 -2064 0
2055 -2062 0
2055 -4922 2064 0
-2056 4920 2057 2061 0
-2056 -4920 2057 -2061 0
2056 -2057 0
2056 -4920 2061 0
2056 4920 -2061 0
-2057 -4918 4919 -2058 2060 0
-2057 4918 -4919 2058 -2060 0
-2057 4918 4919 2058 2060 0
-2057 -4918 -4919 -2058 -2060 0
2057 -4918 2058 0
2057 4918 -2058 0
2057 4919 -2060 0
2057 -4919 2060 0
2058 -1336 2059 0
-2058 1336 0
-2058 -2059 0
-2059 4709 1406 0
-2059 1405 1406 0
2059 -1406 0
2059 -4709 -1405 0
2060 -1302 2059 0
-2060 1302 0
-2060 -2059 0
2061 -1268 2059 0
-2061 1268 0
-2061 -2059 0
-2062 -4921 -2063 0
-2062 4921 2063 0
2062 4921 -2063 0
2062 -4921 2063 0
2063 -1234 2059 0
-2063 1234 0
-2063 -2059 0
2064 -1200 2059 0
-2064 1200 0
-2064 -2059 0
-2065 -4923 -2066 0
-2065 4923 2066 0
2065 4923 -2066 0
2065 -4923 2066 0
2066 -1166 2059 0
-2066 1166 0
-2066 -2059 0
2067 -1132 2059 0
-2067 1132 0
-2067 -2059 0
2068 -1054 2059 0
-2068 1054 0
-2068 -2059 0
-2069 -4932 2070 2080 -2082 0
-2069 4932 2070 2080 2082 0
2069 -2070 0
2069 4932 -2082 0
2069 -2080 0
2069 -4932 2082 0
-2070 -4930 2071 2077 -2079 0
-2070 4930 2071 2077 2079 0
2070 -2071 0
2070 4930 -2079 0
2070 -2077 0
2070 -4930 2079 0
-2071 4928 2072 2076 0
-2071 -4928 2072 -2076 0
2071 -2072 0
2071 -4928 2076 0
2071 4928 -2076 0
-2072 -4926 4927 -2073 2075 0
-2072 4926 -4927 2073 -2075 0
-2072 4926 4927 2073 2075 0
-2072 -4926 -4927 -2073 -2075 0
2072 -4926 2073 0
2072 4926 -2073 0
2072 4927 -2075 0
2072 -4927 2075 0
2073 -1338 2074 0
-2073 1338 0
-2073 -2074 0
-2074 4709 1411 0
-2074 1408 1411 0
2074 -1411 0
2074 -4709 -1408 0
2075 -1304 2074 0
-2075 1304 0
-2075 -2074 0
2076 -1270 2074 0
-2076 1270 0
-2076 -2074 0
-2077 -4929 -2078 0
-2077 4929 2078 0
2077 4929 -2078 0
2077 -4929 2078 0
2078 -1236 2074 0
-2078 1236 0
-2078 -2074 0
2079 -1202 2074 0
-2079 1202 0
-2079 -2074 0
-2080 -4931 -2081 0
-2080 4931 2081 0
2080 4931 -2081 0
2080 -4931 2081 0
2081 -1168 2074 0
-2081 1168 0
-2081 -2074 0
2082 -1134 2074 0
-2082 1134 0
-2082 -2074 0
2083 -1059 2074 0
-2083 1059 0
-2083 -2074 0
-2084 -4940 2085 2095 -2097 0
-2084 4940 2085 2095 2097 0
2084 -2085 0
2084 4940 -2097 0
2084 -2095 0
2084 -4940 2097 0
-2085 -4938 2086 2092 -2094 0
-2085 4938 2086 2092 2094 0
2085 -2086 0
2085 4938 -2094 0
2085 -2092 0
2085 -4938 2094 0
-2086 4936 2087 2091 0
-2086 -4936 2087 -2091 0
2086 -2087 0
2086 -4936 2091 0
2086 4936 -2091 0
-2087 -4934 4935 -2088 2090 0
-2087 4934 -4935 2088 -2090 0
-2087 4934 4935 2088 2090 0
-2087 -4934 -4935 -2088 -2090 0
2087 -4934 2088 0
2087 4934 -2088 0
2087 4935 -2090 0
2087 -4935 2090 0
2088 -1339 2089 0
-2088 1339 0
-2088 -2089 0
-2089 1409 1412 0
-2089 1367 1412 0
-2089 4709 1412 0
2089 -1412 0
2089 -4709 -1367 -1409 0
2090 -1305 2089 0
-2090 1305 0
-2090 -2089 0
2091 -1271 2089 0
-2091 1271 0
-2091 -2089 0
-2092 -4937 -2093 0
-2092 4937 2093 0
2092 4937 -2093 0
2092 -4937 2093 0
2093 -1237 2089 0
-2093 1237 0
-2093 -2089 0
2094 -1203 2089 0
-2094 1203 0
-2094 -2089 0
-2095 -4939 -2096 0
-2095 4939 2096 0
2095 4939 -2096 0
2095 -4939 2096 0
2096 -1169 2089 0
-2096 1169 0
-2096 -2089 0
2097 -1135 2089 0
-2097 1135 0
-2097 -2089 0
2098 -1061 2089 0
-2098 1061 0
-2098 -2089 0
-2099 4948 2100 2115 2117 0
-2099 -4948 2100 2115 -2117 0
2099 -2100 0
2099 -4948 2117 0
2099 -2115 0
2099 4948 -2117 0
-2100 4946 2101 2112 2114 0
-2100 -4946 2101 2112 -2114 0
2100 -2101 0
2100 -4946 2114 0
2100 -2112 0
2100 4946 -2114 0
-2101 4944 2102 2111 0
-2101 -4944 2102 -2111 0
2101 -2102 0
2101 -4944 2111 0
2101 4944 -2111 0
-2102 -4942 4943 -2103 2110 0
-2102 4942 4943 2103 2110 0
-2102 4942 -4943 2103 -2110 0
-2102 -4942 -4943 -2103 -2110 0
2102 -4942 2103 0
2102 4942 -2103 0
2102 4943 -2110 0
2102 -4943 2110 0
-2103 1380 -2104 0
-2103 -4709 -1380 2104 0
-2103 4709 1380 0
2103 -1380 -2104 0
2103 4709 -1380 0
2103 -4709 1380 2104 0
-2104 1383 2105 0
2104 -1383 0
2104 -2105 0
-2105 1378 2106 0
2105 -1378 0
2105 -2106 0
-2106 1376 2107 0
2106 -1376 0
2106 -2107 0
-2107 1373 2108 0
2107 -1373 0
2107 -2108 0
-2108 1370 2109 0
2108 -1370 0
2108 -2109 0
-2109 1367 1368 0
2109 -1367 0
2109 -1368 0
-2110 1383 -2105 0
-2110 -4709 -1383 2105 0
-2110 4709 1383 0
2110 -1383 -2105 0
2110 4709 -1383 0
2110 -4709 1383 2105 0
-2111 1378 -2106 0
-2111 -4709 -1378 2106 0
-2111 4709 1378 0
2111 -1378 -2106 0
2111 4709 -1378 0
2111 -4709 1378 2106 0
-2112 4945 2113 0
-2112 -4945 -2113 0
2112 -4945 2113 0
2112 4945 -2113 0
-2113 1376 -2107 0
-2113 -4709 -1376 2107 0
-2113 4709 1376 0
2113 -1376 -2107 0
2113 4709 -1376 0
2113 -4709 1376 2107 0
-2114 1373 -2108 0
-2114 -4709 -1373 2108 0
-2114 4709 1373 0
2114 -1373 -2108 0
2114 4709 -1373 0
2114 -4709 1373 2108 0
-2115 4947 2116 0
-2115 -4947 -2116 0
2115 -4947 2116 0
2115 4947 -2116 0
-2116 1370 -2109 0
-2116 -4709 -1370 2109 0
-2116 4709 1370 0
2116 -1370 -2109 0
2116 4709 -1370 0
2116 -4709 1370 2109 0
-2117 4709 1368 0
-2117 -4709 1367 -1368 0
-2117 -1367 1368 0
2117 4709 -1368 0
2117 -1367 -1368 0
2117 -4709 1367 1368 0
-2118 4709 1367 0
-2118 -4709 -1367 0
2118 -4709 1367 0
2118 4709 -1367 0
-2119 -4698 -4950 0
-2119 4698 4950 0
2119 4698 -4950 0
2119 -4698 4950 0
-2120 -4700 -4952 0
-2120 4700 4952 0
2120 4700 -4952 0
2120 -4700 4952 0
-2121 -4703 -4955 0
-2121 4703 4955 0
2121 4703 -4955 0
2121 -4703 4955 0
-2122 -4956 2126 0
-2122 2123 2126 0
2122 -2126 0
2122 4956 -2123 0
2123 -4694 4695 2124 2125 0
-2123 -2125 0
-2123 4694 0
-2123 -2124 0
-2123 -4695 0
-2124 4696 4697 0
2124 -4696 0
2124 -4697 0
-2125 4690 4691 4692 4693 0
2125 -4693 0
2125 -4692 0
2125 -4690 0
2125 -4691 0
2126 2127 -3019 -3740 4200 0
-2126 -2127 0
-2126 -4200 0
-2126 3740 0
-2126 3019 0
2127 -4709 -2128 2474 0
2127 -4709 2412 2474 0
-2127 4709 0
-2127 -2474 0
-2127 2128 -2412 0
-2128 -2129 2169 0
-2128 2169 2336 2399 0
2128 -2169 0
2128 2129 -2399 0
2128 2129 -2336 0
2129 2130 -2168 0
-2129 -2130 0
-2129 2168 0
-2130 2131 2145 0
2130 -2131 0
2130 -2145 0
-2131 -2132 -2137 0
-2131 2132 2137 0
2131 2132 -2137 0
2131 -2132 2137 0
2132 2133 -2135 0
2132 -2133 2135 0
-2132 -2133 -2135 0
-2132 2133 2135 0
2133 -4696 -4707 -762 -2134 0
-2133 2134 0
-2133 4696 0
-2133 4707 0
-2133 762 0
2134 -4695 4705 0
2134 4695 -4705 -767 0
2134 -4695 767 0
-2134 4695 767 0
-2134 4695 4705 0
-2134 -4695 -4705 -767 0
2135 4694 -2136 0
2135 -4694 2136 0
-2135 -4694 -2136 0
-2135 4694 2136 0
2136 -4695 -4705 -767 0
-2136 4695 0
-2136 4705 0
-2136 767 0
2137 2138 -2140 0
-2137 -2138 0
-2137 2140 0
2138 -2134 2139 0
2138 -762 2134 -2139 0
2138 762 -2134 0
-2138 2134 2139 0
-2138 762 2134 0
-2138 -762 -2134 -2139 0
2139 -4696 -4707 0
-2139 4696 0
-2139 4707 0
2140 2141 -2143 0
-2140 -2141 0
-2140 2143 0
2141 4707 -2142 0
2141 762 -2142 0
2141 4696 -4707 -762 0
-2141 4707 2142 0
-2141 762 2142 0
-2141 -4696 -4707 -762 0
2142 -4696 4697 0
2142 4696 -4697 -4705 0
2142 -4696 4705 0
-2142 4696 4705 0
-2142 4696 4697 0
-2142 -4696 -4697 -4705 0
2143 -4708 2144 0
-2143 4708 0
-2143 -2144 0
2144 -4707 762 0
2144 4707 -762 0
-2144 4707 762 0
-2144 -4707 -762 0
-2145 2146 2155 2156 2167 0
2145 -2146 0
2145 -2167 0
2145 -2156 0
2145 -2155 0
2146 2147 -2153 0
2146 -2147 2153 0
-2146 -2147 -2153 0
-2146 2147 2153 0
2147 -2148 -2150 0
-2147 2148 0
-2147 2150 0
2148 -4693 -2149 0
-2148 4693 0
-2148 2149 0
2149 -2133 -2135 0
-2149 2133 0
-2149 2135 0
2150 4692 -2151 0
2150 -4692 2151 0
-2150 -4692 -2151 0
-2150 4692 2151 0
2151 -4693 -2152 0
-2151 4693 0
-2151 2152 0
2152 -4694 -2136 0
-2152 4694 0
-2152 2136 0
2153 4691 -2154 0
2153 -4691 2154 0
-2153 -4691 -2154 0
-2153 4691 2154 0
2154 -4692 -2151 0
-2154 4692 0
-2154 2151 0
2155 2148 -2150 0
2155 -2148 2150 0
-2155 -2148 -2150 0
-2155 2148 2150 0
-2156 -2157 -2163 0
-2156 2157 2163 0
2156 2157 -2163 0
2156 -2157 2163 0
2157 2146 -2158 0
-2157 -2146 0
-2157 2158 0
2158 2155 -2159 0
-2158 -2155 0
-2158 2159 0
2159 -2160 2161 0
-2159 2160 0
-2159 -2161 0
2160 2132 -2137 0
-2160 -2132 0
-2160 2137 0
2161 4693 -2149 0
2161 2149 -2162 0
-2161 -4693 -2149 0
-2161 2149 2162 0
2162 4693 -2152 0
2162 -4693 2152 0
-2162 -4693 -2152 0
-2162 4693 2152 0
2163 4690 -2164 0
2163 2164 -2165 0
-2163 -4690 -2164 0
-2163 2164 2165 0
2164 -2147 -2153 0
-2164 2147 0
-2164 2153 0
-2165 -4690 -2166 0
-2165 4690 2166 0
2165 4690 -2166 0
2165 -4690 2166 0
2166 -4691 -2154 0
-2166 4691 0
-2166 2154 0
-2167 -2160 -2161 0
-2167 2160 2161 0
2167 2160 -2161 0
2167 -2160 2161 0
2168 4708 2138 2141 -2144 0
2168 -4708 2138 -2141 2144 0
-2168 2141 2144 0
-2168 4708 -2141 0
-2168 -2138 0
-2168 -4708 -2144 0
2169 -2170 -2176 0
-2169 2170 0
-2169 2176 0
2170 4708 -2129 0
2170 -2129 2171 0
-2170 2129 0
-2170 -4708 -2171 0
2171 2142 -2144 2172 0
-2171 -2172 0
-2171 2144 0
-2171 -2142 0
-2172 2138 2173 0
2172 -2138 0
2172 -2173 0
-2173 2132 2174 0
2173 -2132 0
2173 -2174 0
-2174 2146 2163 2175 0
2174 -2175 0
2174 -2163 0
2174 -2146 0
-2175 2155 2161 0
2175 -2155 0
2175 -2161 0
2176 -2177 -2233 0
2176 2177 -2183 0
-2176 2177 2183 0
-2176 -2177 2233 0
2177 -4707 762 2178 0
-2177 4707 0
-2177 -762 0
-2177 -2178 0
-2178 2142 2179 0
2178 -2142 0
2178 -2179 0
-2179 2134 2180 0
2179 -2134 0
2179 -2180 0
-2180 2135 2181 0
2180 -2135 0
2180 -2181 0
-2181 2165 2182 0
2181 -2165 0
2181 -2182 0
-2182 4691 4692 4693 2152 0
-2182 -4691 -4692 -4693 -2152 0
2182 4692 -2152 0
2182 -4691 2152 0
2182 -4692 4693 0
2182 4691 -4693 0
-2183 -2184 2188 0
-2183 4618 2184 0
2183 -2184 -2188 0
2183 -4618 2184 0
2184 -2185 2186 0
-2184 2185 0
-2184 -2186 0
2185 4696 4697 -4705 0
-2185 4705 0
-2185 -4697 0
-2185 -4696 0
-2186 4695 2187 0
2186 -4695 0
2186 -2187 0
-2187 4694 2125 0
2187 -4694 0
2187 -2125 0
-2188 -2189 2198 0
-2188 4458 2202 0
-2188 4458 -2189 0
-2188 2198 2202 0
2188 2189 -2202 0
2188 -4458 -2198 0
2189 -224 2190 2194 0
-2189 -2194 0
-2189 -2190 0
-2189 224 0
-2190 2191 2192 0
2190 -2191 0
2190 -2192 0
-2191 4530 4531 4532 4533 0
2191 -4533 0
2191 -4532 0
2191 -4530 0
2191 -4531 0
-2192 -4534 -2193 0
-2192 4534 2193 0
2192 4534 -2193 0
2192 -4534 2193 0
2193 4535 4536 4537 -4704 0
-2193 4704 0
-2193 -4537 0
-2193 -4535 0
-2193 -4536 0
-2194 2195 2197 0
2194 -2195 0
2194 -2197 0
-2195 -4535 -2196 0
-2195 4535 2196 0
2195 4535 -2196 0
2195 -4535 2196 0
2196 4536 4537 -4704 0
-2196 4704 0
-2196 -4537 0
-2196 -4536 0
-2197 4536 -4537 0
-2197 4536 4704 0
-2197 -4536 4537 -4704 0
2197 -4536 -4537 0
2197 -4536 4704 0
2197 4536 4537 -4704 0
2198 2199 -2189 0
2198 4704 -2189 0
-2198 2189 0
-2198 -4704 -2199 0
2199 4536 -4537 2200 0
-2199 -2200 0
-2199 4537 0
-2199 -4536 0
-2200 4535 2201 0
2200 -4535 0
2200 -2201 0
-2201 4534 2191 0
2201 -4534 0
2201 -2191 0
-2202 -2203 2230 0
-2202 2204 2227 2230 0
2202 -2230 0
2202 2203 -2204 0
2202 2203 -2227 0
2203 2201 2195 -2197 0
-2203 -2201 0
-2203 -2195 0
-2203 2197 0
2204 2205 -2215 0
2204 -4506 2205 -2207 0
-2204 -2205 0
-2204 4506 2215 0
-2204 2207 2215 0
2205 2197 -2206 0
-2205 -2197 0
-2205 2206 0
2206 2190 -2195 0
-2206 -2190 0
-2206 2195 0
2207 2208 -2210 0
-2207 -2208 0
-2207 2210 0
2208 224 -2209 0
-2208 -224 0
-2208 2209 0
2209 -2197 -2206 0
-2209 2197 0
-2209 2206 0
2210 -2211 2212 0
-2210 2211 0
-2210 -2212 0
2211 -224 -2209 0
-2211 224 0
-2211 2209 0
2212 -4704 -2213 0
-2212 4704 0
-2212 2213 0
2213 -4536 -4537 -2214 0
-2213 4536 0
-2213 4537 0
-2213 2214 0
2214 -4535 2201 0
-2214 4535 0
-2214 -2201 0
-2215 4498 2218 0
-2215 2216 2218 0
2215 -2218 0
2215 -4498 -2216 0
2216 2217 -2208 0
2216 4704 -2208 0
-2216 2208 0
-2216 -4704 -2217 0
2217 -4536 4537 -2214 0
-2217 4536 0
-2217 -4537 0
-2217 2214 0
2218 2209 -2219 -2225 0
2218 2209 2219 -2222 0
-2218 -2209 0
-2218 -2219 2225 0
-2218 2219 2222 0
2219 224 -2220 0
-2219 -224 0
-2219 2220 0
2220 -2221 2194 0
-2220 2221 0
-2220 -2194 0
2221 -4534 2191 0
-2221 4534 0
-2221 -2191 0
2222 -4522 2223 0
-2222 4522 0
-2222 -2223 0
2223 -4537 -4704 -2224 0
-2223 4537 0
-2223 4704 0
-2223 2224 0
2224 4535 4536 -2221 0
-2224 2221 0
-2224 -4536 0
-2224 -4535 0
2225 -4514 2226 0
-2225 4514 0
-2225 -2226 0
2226 -2221 -2193 0
-2226 2221 0
-2226 2193 0
-2227 2228 2229 0
-2227 4482 4490 0
-2227 4490 2229 0
-2227 4482 2228 0
2227 -4490 -2228 0
2227 -4482 -2229 0
2228 4537 -4704 -2205 0
2228 -4537 4704 -2205 0
-2228 2205 0
-2228 4537 4704 0
-2228 -4537 -4704 0
2229 224 -2205 0
-2229 -224 0
-2229 2205 0
-2230 4474 2231 0
-2230 4466 2232 0
-2230 2231 2232 0
-2230 4466 4474 0
2230 -4466 -2231 0
2230 -4474 -2232 0
2231 -4537 -4704 -2203 0
2231 4537 4704 -2203 0
-2231 2203 0
-2231 -4537 4704 0
-2231 4537 -4704 0
2232 4537 -4704 -2203 0
2232 -4537 4704 -2203 0
-2232 2203 0
-2232 4537 4704 0
-2232 -4537 -4704 0
-2233 2270 2288 0
-2233 2234 2288 0
2233 -2288 0
2233 -2234 -2270 0
2234 4706 -2235 0
2234 -2235 2264 0
-2234 2235 0
-2234 -4706 -2264 0
2235 2236 -2262 2263 0
-2235 -2236 0
-2235 2262 0
-2235 -2263 0
-2236 2237 2240 2242 0
2236 -2237 0
2236 -2240 0
2236 -2242 0
-2237 -2238 -2239 0
-2237 2238 2239 0
2237 2238 -2239 0
2237 -2238 2239 0
2238 -4706 420 0
-2238 4706 0
-2238 -420 0
2239 -4616 4617 0
2239 4616 -4617 -4704 0
2239 -4616 4704 0
-2239 4616 4704 0
-2239 4616 4617 0
-2239 -4616 -4617 -4704 0
2240 4615 -2241 0
2240 -4615 2241 0
-2240 -4615 -2241 0
-2240 4615 2241 0
2241 -4704 -424 0
-2241 4704 0
-2241 424 0
-2242 2243 2247 2260 2261 0
2242 -2243 0
2242 -2261 0
2242 -2260 0
2242 -2247 0
2243 4612 -2244 0
2243 -4612 2244 0
-2243 -4612 -2244 0
-2243 4612 2244 0
2244 -4613 -2245 0
-2244 4613 0
-2244 2245 0
2245 -4614 -2246 0
-2245 4614 0
-2245 2246 0
2246 -4615 -2241 0
-2246 4615 0
-2246 2241 0
-2247 2248 2258 0
-2247 -2248 -2258 0
2247 -2248 2258 0
2247 2248 -2258 0
2248 -2249 2256 0
-2248 2249 0
-2248 -2256 0
2249 2243 -2250 0
-2249 -2243 0
-2249 2250 0
2250 -2251 2255 0
-2250 2251 0
-2250 -2255 0
2251 -2252 2254 0
-2251 2252 0
-2251 -2254 0
2252 -2253 2240 0
-2252 2253 0
-2252 -2240 0
2253 -2238 2239 0
-2253 2238 0
-2253 -2239 0
2254 4614 -2246 0
2254 -4614 2246 0
-2254 -4614 -2246 0
-2254 4614 2246 0
2255 4613 -2245 0
2255 -4613 2245 0
-2255 -4613 -2245 0
-2255 4613 2245 0
2256 4611 -2257 0
2256 -4611 2257 0
-2256 -4611 -2257 0
-2256 4611 2257 0
2257 -4612 -2244 0
-2257 4612 0
-2257 2244 0
-2258 -4610 -2259 0
-2258 4610 2259 0
2258 4610 -2259 0
2258 -4610 2259 0
2259 -4611 -2257 0
-2259 4611 0
-2259 2257 0
-2260 -2249 -2256 0
-2260 2249 2256 0
2260 2249 -2256 0
2260 -2249 2256 0
-2261 -2251 -2255 0
-2261 2251 2255 0
2261 2251 -2255 0
2261 -2251 2255 0
2262 -4706 420 0
2262 4706 -420 0
-2262 4706 420 0
-2262 -4706 -420 0
-2263 -2252 -2254 0
-2263 2252 2254 0
2263 2252 -2254 0
2263 -2252 2254 0
2264 4616 -2265 0
-2264 -4616 0
-2264 2265 0
2265 -420 2266 0
-2265 420 0
-2265 -2266 0
-2266 2240 2267 0
2266 -2240 0
2266 -2267 0
-2267 2254 2268 0
2267 -2254 0
2267 -2268 0
-2268 2258 2269 0
2268 -2258 0
2268 -2269 0
-2269 4611 4612 4613 2245 0
-2269 -4611 -4612 -4613 -2245 0
2269 4612 -2245 0
2269 -4611 2245 0
2269 -4612 4613 0
2269 4611 -4613 0
-2270 -2271 2276 0
-2270 4538 2271 0
2270 -2271 -2276 0
2270 -4538 2271 0
2271 4617 -4704 2272 0
-2271 -2272 0
-2271 4704 0
-2271 -4617 0
-2272 4616 2273 0
2272 -4616 0
2272 -2273 0
-2273 4614 2274 0
2273 -4614 0
2273 -2274 0
-2274 4615 2275 0
2274 -4615 0
2274 -2275 0
-2275 4610 4611 4612 4613 0
2275 -4613 0
2275 -4612 0
2275 -4610 0
2275 -4611 0
2276 2199 -2287 0
2276 -4458 -2199 0
2276 2199 -2277 0
-2276 4458 -2199 0
-2276 2199 2277 2287 0
2277 2278 -2281 0
2277 -4482 2278 -2279 0
-2277 -2278 0
-2277 4482 2281 0
-2277 2279 2281 0
2278 -4536 2200 0
-2278 4536 0
-2278 -2200 0
2279 4537 -2280 0
-2279 -4537 0
-2279 2280 0
2280 4536 -2214 0
-2280 -4536 0
-2280 2214 0
-2281 4490 2283 0
-2281 2282 2283 0
2281 -2283 0
2281 -4490 -2282 0
2282 -4537 -2280 0
-2282 4537 0
-2282 2280 0
2283 2280 2217 -2284 0
2283 -4498 2280 -2217 0
-2283 -2280 0
-2283 2217 2284 0
-2283 4498 -2217 0
2284 -4506 -2285 0
2284 2213 -2285 0
-2284 2285 0
-2284 4506 -2213 0
-2285 4514 2213 -2286 0
-2285 4522 2213 2286 0
2285 -2213 0
2285 -4522 2286 0
2285 -4514 -2286 0
2286 4537 -2224 0
-2286 -4537 0
-2286 2224 0
-2287 2278 0
-2287 4466 4537 0
-2287 4474 -4537 0
2287 -4466 4537 -2278 0
2287 -4474 -4537 -2278 0
2288 2235 -2296 0
2288 2235 -2289 -2293 0
-2288 -2235 0
-2288 2289 2296 0
-2288 2293 2296 0
2289 -2262 -2290 0
-2289 2262 0
-2289 2290 0
2290 -2237 2291 2292 0
-2290 -2292 0
-2290 -2291 0
-2290 2237 0
-2291 2242 2263 0
2291 -2242 0
2291 -2263 0
-2292 -2253 -2240 0
-2292 2253 2240 0
2292 2253 -2240 0
2292 -2253 2240 0
-2293 -2294 2276 0
-2293 4554 2294 0
2293 -2294 -2276 0
2293 -4554 2294 0
2294 -4704 -2295 0
-2294 4704 0
-2294 2295 0
2295 -4616 4617 2273 0
-2295 4616 0
-2295 -4617 0
-2295 -2273 0
-2296 -2262 -2290 0
-2296 2290 2300 0
-2296 -2290 2297 0
2296 2290 -2300 0
2296 2262 -2290 -2297 0
-2297 -2298 2276 0
-2297 4546 2298 0
2297 -2298 -2276 0
2297 -4546 2298 0
2298 -4704 -2299 0
-2298 4704 0
-2298 2299 0
2299 -4617 2272 0
-2299 4617 0
-2299 -2272 0
-2300 -2301 2313 2326 0
-2300 2303 2313 2326 0
2300 -2326 0
2300 -2313 0
2300 2301 -2303 0
2301 2237 -2302 0
-2301 -2237 0
-2301 2302 0
2302 2291 -2292 0
-2302 -2291 0
-2302 2292 0
-2303 2304 0
-2303 -2262 2310 0
-2303 2262 2305 0
2303 2262 -2304 -2305 0
2303 -2262 -2304 -2310 0
2304 -2237 -2302 0
-2304 2237 0
-2304 2302 0
-2305 -2306 2276 0
-2305 4578 2306 0
2305 -2306 -2276 0
2305 -4578 2306 0
2306 -4704 -2307 0
-2306 4704 0
-2306 2307 0
2307 -4617 -2308 0
-2307 4617 0
-2307 2308 0
2308 4616 -2309 0
-2308 -4616 0
-2308 2309 0
2309 4614 -4615 2275 0
-2309 -2275 0
-2309 4615 0
-2309 -4614 0
-2310 -2311 2276 0
-2310 4586 2311 0
2310 -2311 -2276 0
2310 -4586 2311 0
2311 -4704 -2312 0
-2311 4704 0
-2311 2312 0
2312 -4616 4617 -2309 0
-2312 4616 0
-2312 -4617 0
-2312 2309 0
2313 2302 -2318 0
2313 2302 -2314 -2316 0
-2313 -2302 0
-2313 2314 2318 0
-2313 2316 2318 0
2314 2262 -2315 0
-2314 -2262 0
-2314 2315 0
2315 -2254 2236 0
-2315 2254 0
-2315 -2236 0
-2316 -2317 2276 0
-2316 4594 2317 0
2316 -2317 -2276 0
2316 -4594 2317 0
2317 -2241 -2309 0
-2317 2241 0
-2317 2309 0
2318 2319 -2323 0
-2318 -2319 0
-2318 2323 0
-2319 2314 2320 0
2319 -2314 0
2319 -2320 0
2320 -2321 -2322 0
-2320 2321 0
-2320 2322 0
2321 -4706 -420 0
-2321 4706 0
-2321 420 0
2322 2239 2240 -2254 2268 0
-2322 -2239 0
-2322 -2268 0
-2322 2254 0
-2322 -2240 0
-2323 -2324 2276 0
-2323 4602 2324 0
2323 -2324 -2276 0
2323 -4602 2324 0
2324 -4704 -2325 0
-2324 4704 0
-2324 2325 0
2325 -4614 4616 4617 2274 0
-2325 -2274 0
-2325 -4617 0
-2325 4614 0
-2325 -4616 0
-2326 2327 2328 0
-2326 2329 2332 0
-2326 2327 2332 0
-2326 2328 2329 0
2326 -2327 -2329 0
2326 -2328 -2332 0
2327 -2262 -2301 0
-2327 2262 0
-2327 2301 0
2328 2239 2262 -2302 0
-2328 2302 0
-2328 -2262 0
-2328 -2239 0
-2329 -2330 2276 0
-2329 4570 2330 0
2329 -2330 -2276 0
2329 -4570 2330 0
2330 -4704 -2331 0
-2330 4704 0
-2330 2331 0
2331 4617 -2308 0
-2331 -4617 0
-2331 2308 0
-2332 -2333 2276 0
-2332 4562 2333 0
2332 -2333 -2276 0
2332 -4562 2333 0
2333 -4704 -2334 0
-2333 4704 0
-2333 2334 0
2334 -4617 -2335 0
-2334 4617 0
-2334 2335 0
2335 -4616 2273 0
-2335 4616 0
-2335 -2273 0
2336 2337 2340 -2352 0
2336 2337 -2340 -2344 0
-2336 -2337 0
-2336 -2340 2344 0
-2336 2340 2352 0
2337 2130 -2338 2339 0
-2337 -2130 0
-2337 2338 0
-2337 -2339 0
-2338 -2141 -2143 0
-2338 2141 2143 0
2338 2141 -2143 0
2338 -2141 2143 0
-2339 -2138 -2140 0
-2339 2138 2140 0
2339 2138 -2140 0
2339 -2138 2140 0
2340 2341 -2342 0
-2340 -2341 0
-2340 2342 0
-2341 -4708 -2144 0
-2341 4708 2144 0
2341 4708 -2144 0
2341 -4708 2144 0
2342 2338 -2343 0
-2342 -2338 0
-2342 2343 0
2343 2130 -2339 0
-2343 -2130 0
-2343 2339 0
2344 2345 -2348 0
2344 -2345 -2233 0
-2344 -2345 2233 0
-2344 2345 2348 0
2345 -4707 -2346 0
-2345 4707 0
-2345 2346 0
2346 -762 -2347 0
-2346 762 0
-2346 2347 0
2347 -2142 2179 0
-2347 2142 0
-2347 -2179 0
-2348 -2349 2188 0
-2348 4642 2349 0
2348 -2349 -2188 0
2348 -4642 2349 0
2349 -4705 -2350 0
-2349 4705 0
-2349 2350 0
2350 -4697 -2351 0
-2350 4697 0
-2350 2351 0
2351 -4696 2186 0
-2351 4696 0
-2351 -2186 0
2352 2353 -2354 0
2352 -2353 -2394 0
2352 2353 -2380 0
-2352 -2353 2394 0
-2352 2353 2354 2380 0
2353 -2341 -2342 0
-2353 2341 0
-2353 2342 0
2354 2355 -2369 0
2354 2355 -2356 -2360 0
-2354 -2355 0
-2354 2356 2369 0
-2354 2360 2369 0
2355 -2338 -2343 0
-2355 2338 0
-2355 2343 0
2356 2341 -2357 0
-2356 -2341 0
-2356 2357 0
2357 2358 -2359 0
-2357 -2358 0
-2357 2359 0
-2358 2138 2141 0
2358 -2138 0
2358 -2141 0
2359 -2131 2145 0
-2359 2131 0
-2359 -2145 0
2360 2361 -2365 0
2360 -2361 -2233 0
-2360 -2361 2233 0
-2360 2361 2365 0
2361 -4707 -2362 0
-2361 4707 0
-2361 2362 0
2362 -762 -2363 0
-2362 762 0
-2362 2363 0
2363 -2142 -2364 0
-2363 2142 0
-2363 2364 0
2364 -2134 2180 0
-2364 2134 0
-2364 -2180 0
-2365 -2366 2188 0
-2365 4674 2366 0
2365 -2366 -2188 0
2365 -4674 2366 0
2366 -2367 -2368 0
-2366 2367 0
-2366 2368 0
2367 -4705 -767 0
-2367 4705 0
-2367 767 0
2368 -4695 2187 0
-2368 4695 0
-2368 -2187 0
2369 2370 -2374 0
-2369 -2370 0
-2369 2374 0
-2370 2356 2371 0
2370 -2356 0
2370 -2371 0
2371 -2144 -2372 0
-2371 2144 0
-2371 2372 0
2372 -4708 -2373 0
-2372 4708 0
-2372 2373 0
2373 -2132 2138 2141 2174 0
-2373 -2174 0
-2373 -2141 0
-2373 2132 0
-2373 -2138 0
2374 2375 -2378 0
2374 -2375 -2233 0
-2374 -2375 2233 0
-2374 2375 2378 0
2375 -4707 -2376 0
-2375 4707 0
-2375 2376 0
2376 -2135 2181 2377 0
-2376 2135 0
-2376 -2181 0
-2376 -2377 0
-2377 4695 4696 4697 4705 0
-2377 -4695 -4696 -4697 -4705 0
2377 4696 -4705 0
2377 -4695 4705 0
2377 -4696 4697 0
2377 4695 -4697 0
-2378 -2379 2188 0
-2378 4682 2379 0
2378 -2379 -2188 0
2378 -4682 2379 0
2379 -4705 -2123 0
-2379 4705 0
-2379 2123 0
-2380 2355 0
-2380 2341 2381 0
-2380 -2341 2388 0
2380 -2341 -2355 -2388 0
2380 2341 -2355 -2381 0
2381 2382 -2385 0
2381 -2382 -2233 0
-2381 -2382 2233 0
-2381 2382 2385 0
2382 -4707 -2383 0
-2382 4707 0
-2382 2383 0
2383 -762 -2384 0
-2383 762 0
-2383 2384 0
2384 2142 -2364 0
-2384 -2142 0
-2384 2364 0
-2385 -2386 2188 0
-2385 4658 2386 0
2385 -2386 -2188 0
2385 -4658 2386 0
2386 -4705 -2387 0
-2386 4705 0
-2386 2387 0
2387 4696 -4697 -2368 0
-2387 2368 0
-2387 4697 0
-2387 -4696 0
2388 2389 -2391 0
2388 -2389 -2233 0
-2388 -2389 2233 0
-2388 2389 2391 0
2389 -4707 -2390 0
-2389 4707 0
-2389 2390 0
2390 762 -2363 0
-2390 -762 0
-2390 2363 0
-2391 -2392 2188 0
-2391 4666 2392 0
2391 -2392 -2188 0
2391 -4666 2392 0
2392 -4705 -2393 0
-2392 4705 0
-2392 2393 0
2393 -4696 4697 -2368 0
-2393 4696 0
-2393 -4697 0
-2393 2368 0
2394 2395 -2397 0
2394 -2395 -2233 0
-2394 -2395 2233 0
-2394 2395 2397 0
2395 -4707 -2396 0
-2395 4707 0
-2395 2396 0
2396 762 -2384 0
-2396 -762 0
-2396 2384 0
-2397 -2398 2188 0
-2397 4650 2398 0
2397 -2398 -2188 0
2397 -4650 2398 0
2398 -2185 -2368 0
-2398 2185 0
-2398 2368 0
-2399 2337 0
-2399 2341 2400 0
-2399 -2341 2406 0
2399 -2341 -2337 -2406 0
2399 2341 -2337 -2400 0
2400 2401 -2403 0
2400 -2401 -2233 0
-2400 -2401 2233 0
-2400 2401 2403 0
2401 -4707 -2402 0
-2401 4707 0
-2401 2402 0
2402 -762 2178 0
-2402 762 0
-2402 -2178 0
-2403 -2404 2188 0
-2403 4626 2404 0
2403 -2404 -2188 0
2403 -4626 2404 0
2404 -4705 -2405 0
-2404 4705 0
-2404 2405 0
2405 4696 -4697 2186 0
-2405 -2186 0
-2405 4697 0
-2405 -4696 0
2406 2407 -2409 0
2406 -2407 -2233 0
-2406 -2407 2233 0
-2406 2407 2409 0
2407 -4707 -2408 0
-2407 4707 0
-2407 2408 0
2408 762 -2347 0
-2408 -762 0
-2408 2347 0
-2409 -2410 2188 0
-2409 4634 2410 0
2409 -2410 -2188 0
2409 -4634 2410 0
2410 -4705 -2411 0
-2410 4705 0
-2410 2411 0
2411 -4696 4697 2186 0
-2411 4696 0
-2411 -4697 0
-2411 -2186 0
2412 2413 -2431 0
2412 -2413 -2471 0
2412 2413 -2464 0
-2412 -2413 2471 0
-2412 2413 2431 2464 0
2413 -2414 2415 0
-2413 2414 0
-2413 -2415 0
-2414 -4707 -2262 0
-2414 4707 2262 0
2414 4707 -2262 0
2414 -4707 2262 0
-2415 2416 2418 0
2415 -2416 0
2415 -2418 0
-2416 2237 2417 0
-2416 -2239 -2417 0
2416 -2237 2417 0
2416 2239 -2417 0
2417 -4707 2262 0
-2417 4707 0
-2417 -2262 0
-2418 2419 2422 0
2418 -2419 0
2418 -2422 0
-2419 2263 2420 0
-2419 4614 -2246 -2420 0
-2419 -4614 2246 -2420 0
2419 -2263 2420 0
2419 -4614 -2246 -2420 0
2419 4614 2246 -2420 0
2420 2292 -2421 0
-2420 -2292 0
-2420 2421 0
2421 2239 -2417 0
-2421 -2239 0
-2421 2417 0
-2422 2423 2424 0
2422 -2423 0
2422 -2424 0
-2423 -2292 -2421 0
-2423 2292 2421 0
2423 2292 -2421 0
2423 -2292 2421 0
-2424 2247 2425 2426 2430 0
2424 -2430 0
2424 -2247 0
2424 -2426 0
2424 -2425 0
-2425 -2243 -2250 0
-2425 2243 2250 0
2425 2243 -2250 0
2425 -2243 2250 0
-2426 2260 2427 0
-2426 -2256 -2427 0
2426 -2260 2427 0
2426 2256 -2427 0
2427 2425 -2428 0
-2427 -2425 0
-2427 2428 0
2428 2261 -2429 0
-2428 -2261 0
-2428 2429 0
2429 2254 -2420 0
-2429 -2254 0
-2429 2420 0
-2430 -2261 -2429 0
-2430 2261 2429 0
2430 2261 -2429 0
2430 -2261 2429 0
2431 2432 -2441 0
2431 2432 -2433 -2436 0
-2431 -2432 0
-2431 2433 2441 0
-2431 2436 2441 0
2432 -2416 2418 0
-2432 2416 0
-2432 -2418 0
2433 -2434 -2414 0
-2433 2434 0
-2433 2414 0
2434 2416 -2435 0
-2434 -2416 0
-2434 2435 0
2435 2419 -2423 2424 0
-2435 -2419 0
-2435 2423 0
-2435 -2424 0
2436 2437 -2329 0
-2436 -2437 0
-2436 2329 0
-2437 2301 2438 0
-2437 2321 2440 0
-2437 2438 2440 0
-2437 2321 2301 0
2437 -2321 -2438 0
2437 -2301 -2440 0
2438 2239 -2439 0
-2438 -2239 0
-2438 2439 0
2439 -2240 2267 0
-2439 2240 0
-2439 -2267 0
2440 -4707 -2262 0
-2440 4707 0
-2440 2262 0
-2441 2442 2446 0
-2441 2444 2446 0
2441 -2446 0
2441 -2442 -2444 0
2442 -2435 2443 0
-2442 2435 0
-2442 -2443 0
-2443 2237 2414 0
2443 -2237 0
2443 -2414 0
2444 2445 -2332 0
-2444 -2445 0
-2444 2332 0
-2445 2417 2438 0
-2445 2238 2301 0
-2445 2301 2438 0
-2445 2238 2417 0
2445 -2301 -2417 0
2445 -2238 -2438 0
2446 2434 -2452 0
2446 2434 -2447 -2449 0
-2446 -2434 0
-2446 2447 2452 0
-2446 2449 2452 0
2447 -2414 -2448 0
-2447 2414 0
-2447 2448 0
2448 -2416 -2435 0
-2448 2416 0
-2448 2435 0
2449 2450 -2310 0
-2449 -2450 0
-2449 2310 0
-2450 2440 2451 0
-2450 4706 2304 0
-2450 2304 2451 0
-2450 4706 2440 0
2450 -2304 -2440 0
2450 -4706 -2451 0
2451 -420 -2239 -2439 0
-2451 2439 0
-2451 2239 0
-2451 420 0
-2452 2453 2457 0
-2452 2454 2457 0
2452 -2457 0
2452 -2453 -2454 0
2453 2414 -2448 0
-2453 -2414 0
-2453 2448 0
2454 2455 -2305 0
-2454 -2455 0
-2454 2305 0
-2455 2417 2456 0
-2455 4706 2304 0
-2455 2304 2456 0
-2455 4706 2417 0
2455 -2304 -2417 0
2455 -4706 -2456 0
2456 420 -2239 -2439 0
-2456 -420 0
-2456 2239 0
-2456 2439 0
2457 2448 2458 -2462 0
2457 2448 -2458 -2459 0
-2457 -2448 0
-2457 -2458 2459 0
-2457 2458 2462 0
2458 -2419 2422 2443 0
-2458 -2443 0
-2458 -2422 0
-2458 2419 0
2459 2460 -2316 0
-2459 -2460 0
-2459 2316 0
-2460 2417 2461 0
-2460 4706 2315 0
-2460 2315 2461 0
-2460 4706 2417 0
2460 -2315 -2417 0
2460 -4706 -2461 0
2461 420 -2322 0
-2461 -420 0
-2461 2322 0
2462 2463 -2323 0
-2462 -2463 0
-2462 2323 0
-2463 2320 2440 0
-2463 2315 2320 0
2463 -2320 0
2463 -2315 -2440 0
-2464 2432 0
-2464 2414 2468 0
-2464 -2414 2465 0
2464 -2432 2414 -2468 0
2464 -2432 -2414 -2465 0
2465 2466 -2293 0
-2465 -2466 0
-2465 2293 0
-2466 2289 2467 0
-2466 4706 4707 0
-2466 4707 2467 0
-2466 4706 2289 0
2466 -4707 -2289 0
2466 -4706 -2467 0
2467 -2239 -2265 0
-2467 2239 0
-2467 2265 0
2468 2469 -2297 0
-2468 -2469 0
-2468 2297 0
-2469 2417 2470 0
-2469 4706 2290 0
-2469 2290 2470 0
-2469 4706 2417 0
2469 -2290 -2417 0
2469 -4706 -2470 0
2470 420 -2239 2266 0
-2470 -420 0
-2470 2239 0
-2470 -2266 0
2471 2472 -2270 0
-2471 -2472 0
-2471 2270 0
-2472 4707 2473 0
-2472 2235 2473 0
2472 -2473 0
2472 -4707 -2235 0
2473 -4706 -2264 0
-2473 4706 0
-2473 2264 0
2474 2475 2128 -2552 0
2474 2475 -2412 -2552 0
-2474 -2475 0
-2474 2552 0
-2474 -2128 2412 0
2475 -2476 2536 0
-2475 2476 0
-2475 -2536 0
-2476 -2129 2477 0
-2476 2477 2514 2531 0
2476 -2477 0
2476 2129 -2531 0
2476 2129 -2514 0
2477 -2170 -2478 0
-2477 2170 0
-2477 2478 0
2478 2177 -2503 0
2478 -2177 -2479 0
-2478 -2177 2479 0
-2478 2177 2503 0
-2479 2480 2488 0
-2479 2234 2488 0
2479 -2488 0
2479 -2234 -2480 0
-2480 -2271 2481 0
-2480 4539 2271 0
2480 -2271 -2481 0
2480 -4539 2271 0
2481 2199 -2487 0
2481 -4459 -2199 0
2481 2199 -2482 0
-2481 4459 -2199 0
-2481 2199 2482 2487 0
2482 2278 -2483 0
2482 -4483 2278 -2279 0
-2482 -2278 0
-2482 4483 2483 0
-2482 2279 2483 0
-2483 4491 2484 0
-2483 2282 2484 0
2483 -2484 0
2483 -4491 -2282 0
2484 2280 2217 -2485 0
2484 -4499 2280 -2217 0
-2484 -2280 0
-2484 2217 2485 0
-2484 4499 -2217 0
2485 -4507 -2486 0
2485 2213 -2486 0
-2485 2486 0
-2485 4507 -2213 0
-2486 4515 2213 -2286 0
-2486 4523 2213 2286 0
2486 -2213 0
2486 -4523 2286 0
2486 -4515 -2286 0
-2487 2278 0
-2487 4467 4537 0
-2487 4475 -4537 0
2487 -4467 4537 -2278 0
2487 -4475 -4537 -2278 0
2488 2235 -2500 0
2488 2235 2290 -2489 0
-2488 -2235 0
-2488 -2290 2500 0
-2488 2489 2500 0
-2489 2490 -2301 2497 0
-2489 2490 2494 2497 0
2489 -2490 0
2489 -2497 0
2489 2301 -2494 0
2490 2302 -2492 0
2490 2302 -2314 -2491 0
-2490 -2302 0
-2490 2314 2492 0
-2490 2491 2492 0
-2491 4595 2317 0
-2491 2481 -2317 0
2491 -2481 -2317 0
2491 -4595 2317 0
2492 2319 -2493 0
-2492 -2319 0
-2492 2493 0
-2493 4603 2324 0
-2493 2481 -2324 0
2493 -2481 -2324 0
2493 -4603 2324 0
-2494 2304 0
-2494 -2262 2496 0
-2494 2262 2495 0
2494 2262 -2304 -2495 0
2494 -2262 -2304 -2496 0
-2495 4579 2306 0
-2495 2481 -2306 0
2495 -2481 -2306 0
2495 -4579 2306 0
-2496 4587 2311 0
-2496 2481 -2311 0
2496 -2481 -2311 0
2496 -4587 2311 0
-2497 2498 2328 0
-2497 2327 2499 0
-2497 2327 2328 0
-2497 2498 2499 0
2497 -2327 -2498 0
2497 -2328 -2499 0
-2498 4571 2330 0
-2498 2481 -2330 0
2498 -2481 -2330 0
2498 -4571 2330 0
-2499 4563 2333 0
-2499 2481 -2333 0
2499 -2481 -2333 0
2499 -4563 2333 0
-2500 2290 0
-2500 -2262 2502 0
-2500 2262 2501 0
2500 2262 -2290 -2501 0
2500 -2262 -2290 -2502 0
-2501 4547 2298 0
-2501 2481 -2298 0
2501 -2481 -2298 0
2501 -4547 2298 0
-2502 4555 2294 0
-2502 2481 -2294 0
2502 -2481 -2294 0
2502 -4555 2294 0
-2503 -2184 2504 0
-2503 4619 2184 0
2503 -2184 -2504 0
2503 -4619 2184 0
-2504 -2189 2198 0
-2504 4459 2505 0
-2504 4459 -2189 0
-2504 2198 2505 0
2504 2189 -2505 0
2504 -4459 -2198 0
-2505 4467 2506 2513 0
-2505 2506 2231 2513 0
2505 -2513 0
2505 -2506 0
2505 -4467 -2231 0
2506 2203 -2507 0
2506 -4491 2203 -2228 0
-2506 -2203 0
-2506 4491 2507 0
-2506 2228 2507 0
-2507 2205 2508 0
-2507 -224 -2205 0
-2507 4483 -2205 0
2507 2205 -2508 0
2507 -4483 224 -2205 0
-2508 4499 2509 2510 0
-2508 2509 2216 2510 0
2508 -2510 0
2508 -2509 0
2508 -4499 -2216 0
2509 -4507 -2207 0
-2509 4507 0
-2509 2207 0
2510 2209 2219 -2512 0
2510 2209 -2219 -2511 0
-2510 -2209 0
-2510 -2219 2511 0
-2510 2219 2512 0
2511 -4515 2226 0
-2511 4515 0
-2511 -2226 0
2512 -4523 2223 0
-2512 4523 0
-2512 -2223 0
2513 -4475 -2232 0
-2513 4475 0
-2513 2232 0
2514 2337 2340 -2517 0
2514 2337 -2340 -2515 0
-2514 -2337 0
-2514 -2340 2515 0
-2514 2340 2517 0
2515 -2479 -2345 0
2515 2345 -2516 0
-2515 2479 -2345 0
-2515 2345 2516 0
-2516 2504 -2349 0
-2516 4643 2349 0
2516 -4643 2349 0
2516 -2504 -2349 0
2517 2353 -2524 0
2517 -2353 -2529 0
2517 -2518 2353 0
-2517 -2353 2529 0
-2517 2518 2353 2524 0
2518 2355 -2521 0
2518 2355 -2356 -2519 0
-2518 -2355 0
-2518 2356 2521 0
-2518 2519 2521 0
2519 -2479 -2361 0
2519 2361 -2520 0
-2519 2479 -2361 0
-2519 2361 2520 0
-2520 2504 -2366 0
-2520 4675 2366 0
2520 -4675 2366 0
2520 -2504 -2366 0
2521 2370 -2522 0
-2521 -2370 0
-2521 2522 0
2522 -2479 -2375 0
2522 2375 -2523 0
-2522 2479 -2375 0
-2522 2375 2523 0
-2523 2504 -2379 0
-2523 4683 2379 0
2523 -4683 2379 0
2523 -2504 -2379 0
-2524 2355 0
-2524 2341 2525 0
-2524 -2341 2527 0
2524 -2341 -2355 -2527 0
2524 2341 -2355 -2525 0
2525 -2479 -2382 0
2525 2382 -2526 0
-2525 2479 -2382 0
-2525 2382 2526 0
-2526 2504 -2386 0
-2526 4659 2386 0
2526 -4659 2386 0
2526 -2504 -2386 0
2527 -2479 -2389 0
2527 2389 -2528 0
-2527 2479 -2389 0
-2527 2389 2528 0
-2528 2504 -2392 0
-2528 4667 2392 0
2528 -4667 2392 0
2528 -2504 -2392 0
2529 -2479 -2395 0
2529 2395 -2530 0
-2529 2479 -2395 0
-2529 2395 2530 0
-2530 2504 -2398 0
-2530 4651 2398 0
2530 -4651 2398 0
2530 -2504 -2398 0
-2531 2337 0
-2531 2341 2532 0
-2531 -2341 2534 0
2531 -2341 -2337 -2534 0
2531 2341 -2337 -2532 0
2532 -2479 -2401 0
2532 2401 -2533 0
-2532 2479 -2401 0
-2532 2401 2533 0
-2533 2504 -2404 0
-2533 4627 2404 0
2533 -4627 2404 0
2533 -2504 -2404 0
2534 -2479 -2407 0
2534 2407 -2535 0
-2534 2479 -2407 0
-2534 2407 2535 0
-2535 2504 -2410 0
-2535 4635 2410 0
2535 -4635 2410 0
2535 -2504 -2410 0
2536 2413 -2548 0
2536 -2413 -2551 0
2536 -2537 2413 0
-2536 -2413 2551 0
-2536 2537 2413 2548 0
2537 2432 -2539 0
2537 2432 -2433 -2538 0
-2537 -2432 0
-2537 2433 2539 0
-2537 2538 2539 0
2538 -2498 2437 0
-2538 2498 0
-2538 -2437 0
-2539 2540 2541 0
-2539 2442 2541 0
2539 -2541 0
2539 -2540 -2442 0
2540 -2499 2445 0
-2540 2499 0
-2540 -2445 0
2541 2434 -2543 0
2541 2434 -2447 -2542 0
-2541 -2434 0
-2541 2447 2543 0
-2541 2542 2543 0
2542 -2496 2450 0
-2542 2496 0
-2542 -2450 0
-2543 2453 2545 0
-2543 2544 2545 0
2543 -2545 0
2543 -2453 -2544 0
2544 -2495 2455 0
-2544 2495 0
-2544 -2455 0
2545 2448 -2458 -2547 0
2545 2448 2458 -2546 0
-2545 -2448 0
-2545 -2458 2547 0
-2545 2458 2546 0
2546 -2493 2463 0
-2546 2493 0
-2546 -2463 0
2547 -2491 2460 0
-2547 2491 0
-2547 -2460 0
-2548 2432 0
-2548 2414 2550 0
-2548 -2414 2549 0
2548 -2432 2414 -2550 0
2548 -2432 -2414 -2549 0
2549 -2502 2466 0
-2549 2502 0
-2549 -2466 0
2550 -2501 2469 0
-2550 2501 0
-2550 -2469 0
2551 -2480 2472 0
-2551 2480 0
-2551 -2472 0
-2552 -2553 2613 3018 0
-2552 2613 2629 3018 0
-2552 -2553 2629 3018 0
2552 2553 -2613 0
2552 -2613 -2629 0
2552 -3018 0
2552 2553 -2629 0
-2553 -2129 2554 0
-2553 2554 2591 2608 0
2553 -2554 0
2553 2129 -2608 0
2553 2129 -2591 0
2554 -2170 -2555 0
-2554 2170 0
-2554 2555 0
2555 -2177 -2567 0
2555 2177 -2556 0
-2555 2177 2556 0
-2555 -2177 2567 0
-2556 -2184 2557 0
-2556 4620 2184 0
2556 -2184 -2557 0
2556 -4620 2184 0
-2557 -2189 2198 0
-2557 4460 2558 0
-2557 4460 -2189 0
-2557 2198 2558 0
2557 2189 -2558 0
2557 -4460 -2198 0
-2558 4468 2559 2566 0
-2558 2231 2559 2566 0
2558 -2566 0
2558 -2559 0
2558 -4468 -2231 0
2559 2203 -2560 0
2559 -4492 2203 -2228 0
-2559 -2203 0
-2559 4492 2560 0
-2559 2228 2560 0
-2560 2205 2561 0
-2560 -224 -2205 0
-2560 4484 -2205 0
2560 2205 -2561 0
2560 -4484 224 -2205 0
-2561 4500 2562 2563 0
-2561 2216 2562 2563 0
2561 -2563 0
2561 -2562 0
2561 -4500 -2216 0
2562 -4508 -2207 0
-2562 4508 0
-2562 2207 0
2563 2209 -2219 -2565 0
2563 2209 2219 -2564 0
-2563 -2209 0
-2563 -2219 2565 0
-2563 2219 2564 0
2564 -4524 2223 0
-2564 4524 0
-2564 -2223 0
2565 -4516 2226 0
-2565 4516 0
-2565 -2226 0
2566 -4476 -2232 0
-2566 4476 0
-2566 2232 0
-2567 2568 2576 0
-2567 2234 2576 0
2567 -2576 0
2567 -2234 -2568 0
-2568 -2271 2569 0
-2568 4540 2271 0
2568 -2271 -2569 0
2568 -4540 2271 0
2569 2199 -2575 0
2569 -4460 -2199 0
2569 2199 -2570 0
-2569 4460 -2199 0
-2569 2199 2570 2575 0
2570 2278 -2571 0
2570 -4484 2278 -2279 0
-2570 -2278 0
-2570 4484 2571 0
-2570 2279 2571 0
-2571 4492 2572 0
-2571 2282 2572 0
2571 -2572 0
2571 -4492 -2282 0
2572 2280 2217 -2573 0
2572 -4500 2280 -2217 0
-2572 -2280 0
-2572 2217 2573 0
-2572 4500 -2217 0
2573 -4508 -2574 0
2573 2213 -2574 0
-2573 2574 0
-2573 4508 -2213 0
-2574 4516 2213 -2286 0
-2574 4524 2213 2286 0
2574 -2213 0
2574 -4524 2286 0
2574 -4516 -2286 0
-2575 2278 0
-2575 4468 4537 0
-2575 4476 -4537 0
2575 -4468 4537 -2278 0
2575 -4476 -4537 -2278 0
2576 2235 -2588 0
2576 2235 2290 -2577 0
-2576 -2235 0
-2576 -2290 2588 0
-2576 2577 2588 0
-2577 -2301 2578 2585 0
-2577 2578 2582 2585 0
2577 -2585 0
2577 -2578 0
2577 2301 -2582 0
2578 2302 -2580 0
2578 2302 -2314 -2579 0
-2578 -2302 0
-2578 2314 2580 0
-2578 2579 2580 0
-2579 -2317 2569 0
-2579 4596 2317 0
2579 -2317 -2569 0
2579 -4596 2317 0
2580 2319 -2581 0
-2580 -2319 0
-2580 2581 0
-2581 -2324 2569 0
-2581 4604 2324 0
2581 -2324 -2569 0
2581 -4604 2324 0
-2582 2304 0
-2582 -2262 2584 0
-2582 2262 2583 0
2582 2262 -2304 -2583 0
2582 -2262 -2304 -2584 0
-2583 -2306 2569 0
-2583 4580 2306 0
2583 -2306 -2569 0
2583 -4580 2306 0
-2584 -2311 2569 0
-2584 4588 2311 0
2584 -2311 -2569 0
2584 -4588 2311 0
-2585 2327 2328 0
-2585 2586 2587 0
-2585 2327 2587 0
-2585 2328 2586 0
2585 -2327 -2586 0
2585 -2328 -2587 0
-2586 -2330 2569 0
-2586 4572 2330 0
2586 -2330 -2569 0
2586 -4572 2330 0
-2587 -2333 2569 0
-2587 4564 2333 0
2587 -2333 -2569 0
2587 -4564 2333 0
-2588 2290 0
-2588 -2262 2590 0
-2588 2262 2589 0
2588 2262 -2290 -2589 0
2588 -2262 -2290 -2590 0
-2589 -2298 2569 0
-2589 4548 2298 0
2589 -2298 -2569 0
2589 -4548 2298 0
-2590 -2294 2569 0
-2590 4556 2294 0
2590 -2294 -2569 0
2590 -4556 2294 0
2591 2337 2340 -2594 0
2591 2337 -2340 -2592 0
-2591 -2337 0
-2591 -2340 2592 0
-2591 2340 2594 0
2592 2345 -2593 0
2592 -2345 -2567 0
-2592 -2345 2567 0
-2592 2345 2593 0
-2593 -2349 2557 0
-2593 4644 2349 0
2593 -2349 -2557 0
2593 -4644 2349 0
2594 2353 -2595 0
2594 -2353 -2606 0
2594 2353 -2601 0
-2594 -2353 2606 0
-2594 2353 2595 2601 0
2595 2355 -2598 0
2595 2355 -2356 -2596 0
-2595 -2355 0
-2595 2356 2598 0
-2595 2596 2598 0
2596 2361 -2597 0
2596 -2361 -2567 0
-2596 -2361 2567 0
-2596 2361 2597 0
-2597 -2366 2557 0
-2597 4676 2366 0
2597 -2366 -2557 0
2597 -4676 2366 0
2598 2370 -2599 0
-2598 -2370 0
-2598 2599 0
2599 2375 -2600 0
2599 -2375 -2567 0
-2599 -2375 2567 0
-2599 2375 2600 0
-2600 -2379 2557 0
-2600 4684 2379 0
2600 -2379 -2557 0
2600 -4684 2379 0
-2601 2355 0
-2601 2341 2602 0
-2601 -2341 2604 0
2601 -2341 -2355 -2604 0
2601 2341 -2355 -2602 0
2602 2382 -2603 0
2602 -2382 -2567 0
-2602 -2382 2567 0
-2602 2382 2603 0
-2603 -2386 2557 0
-2603 4660 2386 0
2603 -2386 -2557 0
2603 -4660 2386 0
2604 2389 -2605 0
2604 -2389 -2567 0
-2604 -2389 2567 0
-2604 2389 2605 0
-2605 -2392 2557 0
-2605 4668 2392 0
2605 -2392 -2557 0
2605 -4668 2392 0
2606 2395 -2607 0
2606 -2395 -2567 0
-2606 -2395 2567 0
-2606 2395 2607 0
-2607 -2398 2557 0
-2607 4652 2398 0
2607 -2398 -2557 0
2607 -4652 2398 0
-2608 2337 0
-2608 2341 2609 0
-2608 -2341 2611 0
2608 -2341 -2337 -2611 0
2608 2341 -2337 -2609 0
2609 2401 -2610 0
2609 -2401 -2567 0
-2609 -2401 2567 0
-2609 2401 2610 0
-2610 -2404 2557 0
-2610 4628 2404 0
2610 -2404 -2557 0
2610 -4628 2404 0
2611 2407 -2612 0
2611 -2407 -2567 0
-2611 -2407 2567 0
-2611 2407 2612 0
-2612 -2410 2557 0
-2612 4636 2410 0
2612 -2410 -2557 0
2612 -4636 2410 0
2613 2413 -2614 0
2613 -2413 -2628 0
2613 2413 -2625 0
-2613 -2413 2628 0
-2613 2413 2614 2625 0
2614 2432 -2616 0
2614 2432 -2433 -2615 0
-2614 -2432 0
-2614 2433 2616 0
-2614 2615 2616 0
2615 2437 -2586 0
-2615 -2437 0
-2615 2586 0
-2616 2442 2618 0
-2616 2617 2618 0
2616 -2618 0
2616 -2442 -2617 0
2617 2445 -2587 0
-2617 -2445 0
-2617 2587 0
2618 2434 -2620 0
2618 2434 -2447 -2619 0
-2618 -2434 0
-2618 2447 2620 0
-2618 2619 2620 0
2619 2450 -2584 0
-2619 -2450 0
-2619 2584 0
-2620 2453 2622 0
-2620 2621 2622 0
2620 -2622 0
2620 -2453 -2621 0
2621 2455 -2583 0
-2621 -2455 0
-2621 2583 0
2622 2448 -2458 -2624 0
2622 2448 2458 -2623 0
-2622 -2448 0
-2622 -2458 2624 0
-2622 2458 2623 0
2623 2463 -2581 0
-2623 -2463 0
-2623 2581 0
2624 2460 -2579 0
-2624 -2460 0
-2624 2579 0
-2625 2432 0
-2625 2414 2626 0
-2625 -2414 2627 0
2625 -2432 -2414 -2627 0
2625 -2432 2414 -2626 0
2626 2469 -2589 0
-2626 -2469 0
-2626 2589 0
2627 2466 -2590 0
-2627 -2466 0
-2627 2590 0
2628 2472 -2568 0
-2628 -2472 0
-2628 2568 0
-2629 2691 2707 0
-2629 -2630 2691 0
-2629 -2630 2707 0
2629 2630 -2691 0
2629 -2691 -2707 0
2629 2630 -2707 0
-2630 2631 2666 0
-2630 2170 2666 0
2630 -2666 0
2630 -2170 -2631 0
-2631 -2177 2632 0
-2631 2177 2656 0
2631 2177 -2656 0
2631 -2177 -2632 0
-2632 2633 2641 0
-2632 2234 2641 0
2632 -2641 0
2632 -2234 -2633 0
-2633 -2271 2634 0
-2633 4541 2271 0
2633 -2271 -2634 0
2633 -4541 2271 0
2634 2199 -2640 0
2634 -4461 -2199 0
2634 2199 -2635 0
-2634 4461 -2199 0
-2634 2199 2635 2640 0
2635 2278 -2636 0
2635 -4485 2278 -2279 0
-2635 -2278 0
-2635 4485 2636 0
-2635 2279 2636 0
-2636 4493 2637 0
-2636 2282 2637 0
2636 -2637 0
2636 -4493 -2282 0
2637 2280 2217 -2638 0
2637 -4501 2280 -2217 0
-2637 -2280 0
-2637 2217 2638 0
-2637 4501 -2217 0
2638 -4509 -2639 0
2638 2213 -2639 0
-2638 2639 0
-2638 4509 -2213 0
-2639 4517 2213 -2286 0
-2639 4525 2213 2286 0
2639 -2213 0
2639 -4525 2286 0
2639 -4517 -2286 0
-2640 2278 0
-2640 4469 4537 0
-2640 4477 -4537 0
2640 -4469 4537 -2278 0
2640 -4477 -4537 -2278 0
2641 2235 -2653 0
2641 2235 2290 -2642 0
-2641 -2235 0
-2641 -2290 2653 0
-2641 2642 2653 0
-2642 -2301 2646 2649 0
-2642 2643 2646 2649 0
2642 -2646 0
2642 -2649 0
2642 2301 -2643 0
-2643 2304 0
-2643 2262 2645 0
-2643 -2262 2644 0
2643 2262 -2304 -2645 0
2643 -2262 -2304 -2644 0
-2644 -2311 2634 0
-2644 4589 2311 0
2644 -2311 -2634 0
2644 -4589 2311 0
-2645 -2306 2634 0
-2645 4581 2306 0
2645 -2306 -2634 0
2645 -4581 2306 0
-2646 2327 2328 0
-2646 2647 2648 0
-2646 2328 2648 0
-2646 2327 2647 0
2646 -2328 -2647 0
2646 -2327 -2648 0
-2647 -2333 2634 0
-2647 4565 2333 0
2647 -2333 -2634 0
2647 -4565 2333 0
-2648 -2330 2634 0
-2648 4573 2330 0
2648 -2330 -2634 0
2648 -4573 2330 0
2649 2302 -2651 0
2649 2302 -2314 -2650 0
-2649 -2302 0
-2649 2314 2651 0
-2649 2650 2651 0
-2650 -2317 2634 0
-2650 4597 2317 0
2650 -2317 -2634 0
2650 -4597 2317 0
2651 2319 -2652 0
-2651 -2319 0
-2651 2652 0
-2652 -2324 2634 0
-2652 4605 2324 0
2652 -2324 -2634 0
2652 -4605 2324 0
-2653 2290 0
-2653 -2262 2655 0
-2653 2262 2654 0
2653 2262 -2290 -2654 0
2653 -2262 -2290 -2655 0
-2654 -2298 2634 0
-2654 4549 2298 0
2654 -2298 -2634 0
2654 -4549 2298 0
-2655 -2294 2634 0
-2655 4557 2294 0
2655 -2294 -2634 0
2655 -4557 2294 0
-2656 -2184 2657 0
-2656 4621 2184 0
2656 -2184 -2657 0
2656 -4621 2184 0
-2657 -2189 2198 0
-2657 4461 2658 0
-2657 4461 -2189 0
-2657 2198 2658 0
2657 2189 -2658 0
2657 -4461 -2198 0
-2658 -2203 2665 0
-2658 2659 2664 2665 0
2658 -2665 0
2658 2203 -2659 0
2658 2203 -2664 0
2659 2205 -2660 0
2659 -4509 2205 -2207 0
-2659 -2205 0
-2659 4509 2660 0
-2659 2207 2660 0
-2660 4501 2661 0
-2660 2216 2661 0
2660 -2661 0
2660 -4501 -2216 0
2661 2209 -2219 -2663 0
2661 2209 2219 -2662 0
-2661 -2209 0
-2661 -2219 2663 0
-2661 2219 2662 0
2662 -4525 2223 0
-2662 4525 0
-2662 -2223 0
2663 -4517 2226 0
-2663 4517 0
-2663 -2226 0
-2664 2228 2229 0
-2664 4485 4493 0
-2664 4493 2229 0
-2664 4485 2228 0
2664 -4493 -2228 0
2664 -4485 -2229 0
-2665 4477 2231 0
-2665 4469 2232 0
-2665 2231 2232 0
-2665 4469 4477 0
2665 -4469 -2231 0
2665 -4477 -2232 0
2666 2129 -2670 0
2666 2129 -2667 -2668 0
-2666 -2129 0
-2666 2667 2670 0
-2666 2668 2670 0
2667 2341 -2337 0
-2667 -2341 0
-2667 2337 0
-2668 -2401 2632 0
-2668 2401 2669 0
2668 2401 -2669 0
2668 -2401 -2632 0
-2669 -2404 2657 0
-2669 4629 2404 0
2669 -2404 -2657 0
2669 -4629 2404 0
-2670 2337 2673 0
-2670 -2337 2671 0
-2670 2341 -2337 0
2670 2337 -2673 0
2670 -2341 -2337 -2671 0
-2671 -2407 2632 0
-2671 2407 2672 0
2671 2407 -2672 0
2671 -2407 -2632 0
-2672 -2410 2657 0
-2672 4637 2410 0
2672 -2410 -2657 0
2672 -4637 2410 0
2673 -2340 -2674 0
2673 2340 -2676 0
-2673 -2340 2674 0
-2673 2340 2676 0
-2674 -2345 2632 0
-2674 2345 2675 0
2674 2345 -2675 0
2674 -2345 -2632 0
-2675 -2349 2657 0
-2675 4645 2349 0
2675 -2349 -2657 0
2675 -4645 2349 0
2676 -2353 -2689 0
2676 2353 -2677 0
2676 2353 -2685 0
-2676 -2353 2689 0
-2676 2353 2677 2685 0
-2677 -2341 -2355 0
-2677 2355 2680 0
-2677 -2355 2678 0
2677 2355 -2680 0
2677 2341 -2355 -2678 0
-2678 -2382 2632 0
-2678 2382 2679 0
2678 2382 -2679 0
2678 -2382 -2632 0
-2679 -2386 2657 0
-2679 4661 2386 0
2679 -2386 -2657 0
2679 -4661 2386 0
-2680 2356 -2370 0
-2680 2681 2683 0
-2680 2356 2683 0
-2680 -2370 2681 0
2680 -2356 -2681 0
2680 2370 -2683 0
-2681 -2361 2632 0
-2681 2361 2682 0
2681 2361 -2682 0
2681 -2361 -2632 0
-2682 -2366 2657 0
-2682 4677 2366 0
2682 -2366 -2657 0
2682 -4677 2366 0
-2683 -2375 2632 0
-2683 2375 2684 0
2683 2375 -2684 0
2683 -2375 -2632 0
-2684 -2379 2657 0
-2684 4685 2379 0
2684 -2379 -2657 0
2684 -4685 2379 0
2685 -2686 -2687 0
-2685 2686 0
-2685 2687 0
2686 -2341 -2355 0
-2686 2341 0
-2686 2355 0
-2687 -2389 2632 0
-2687 2389 2688 0
2687 2389 -2688 0
2687 -2389 -2632 0
-2688 -2392 2657 0
-2688 4669 2392 0
2688 -2392 -2657 0
2688 -4669 2392 0
-2689 -2395 2632 0
-2689 2395 2690 0
2689 2395 -2690 0
2689 -2395 -2632 0
-2690 -2398 2657 0
-2690 4653 2398 0
2690 -2398 -2657 0
2690 -4653 2398 0
2691 2413 -2692 0
2691 -2413 -2706 0
2691 2413 -2703 0
-2691 -2413 2706 0
-2691 2413 2692 2703 0
2692 2432 -2694 0
2692 2432 -2433 -2693 0
-2692 -2432 0
-2692 2433 2694 0
-2692 2693 2694 0
2693 2437 -2648 0
-2693 -2437 0
-2693 2648 0
-2694 2442 2696 0
-2694 2695 2696 0
2694 -2696 0
2694 -2442 -2695 0
2695 2445 -2647 0
-2695 -2445 0
-2695 2647 0
2696 2434 -2698 0
2696 2434 -2447 -2697 0
-2696 -2434 0
-2696 2447 2698 0
-2696 2697 2698 0
2697 2450 -2644 0
-2697 -2450 0
-2697 2644 0
-2698 2453 2700 0
-2698 2699 2700 0
2698 -2700 0
2698 -2453 -2699 0
2699 2455 -2645 0
-2699 -2455 0
-2699 2645 0
2700 2448 -2458 -2702 0
2700 2448 2458 -2701 0
-2700 -2448 0
-2700 -2458 2702 0
-2700 2458 2701 0
2701 2463 -2652 0
-2701 -2463 0
-2701 2652 0
2702 2460 -2650 0
-2702 -2460 0
-2702 2650 0
-2703 2432 0
-2703 2414 2705 0
-2703 -2414 2704 0
2703 -2432 2414 -2705 0
2703 -2432 -2414 -2704 0
2704 2466 -2655 0
-2704 -2466 0
-2704 2655 0
2705 2469 -2654 0
-2705 -2469 0
-2705 2654 0
2706 2472 -2633 0
-2706 -2472 0
-2706 2633 0
-2707 2769 2785 0
-2707 -2708 2769 0
-2707 -2708 2785 0
2707 2708 -2769 0
2707 -2769 -2785 0
2707 2708 -2785 0
-2708 -2129 2709 0
-2708 2709 2747 2764 0
2708 -2709 0
2708 2129 -2764 0
2708 2129 -2747 0
2709 -2170 -2710 0
-2709 2170 0
-2709 2710 0
2710 -2177 -2723 0
2710 2177 -2711 0
-2710 2177 2711 0
-2710 -2177 2723 0
-2711 -2184 2712 0
-2711 4622 2184 0
2711 -2184 -2712 0
2711 -4622 2184 0
-2712 -2189 2198 0
-2712 4462 2713 0
-2712 4462 -2189 0
-2712 2198 2713 0
2712 2189 -2713 0
2712 -4462 -2198 0
-2713 -2203 2722 0
-2713 2714 2719 2722 0
2713 -2722 0
2713 2203 -2714 0
2713 2203 -2719 0
2714 2205 -2715 0
2714 -4510 2205 -2210 0
-2714 -2205 0
-2714 4510 2715 0
-2714 2210 2715 0
-2715 4502 2716 0
-2715 2216 2716 0
2715 -2716 0
2715 -4502 -2216 0
2716 2209 -2219 -2718 0
2716 2209 2219 -2717 0
-2716 -2209 0
-2716 -2219 2718 0
-2716 2219 2717 0
2717 -4526 2223 0
-2717 4526 0
-2717 -2223 0
2718 -4518 2226 0
-2718 4518 0
-2718 -2226 0
-2719 2228 2720 0
-2719 4486 4494 0
-2719 4494 2720 0
-2719 4486 2228 0
2719 -4494 -2228 0
2719 -4486 -2720 0
2720 -2229 2721 0
-2720 2229 0
-2720 -2721 0
2721 4537 -4704 -2280 0
-2721 2280 0
-2721 4704 0
-2721 -4537 0
-2722 4478 2231 0
-2722 4470 2232 0
-2722 2231 2232 0
-2722 4470 4478 0
2722 -4470 -2231 0
2722 -4478 -2232 0
-2723 2724 2732 0
-2723 2234 2732 0
2723 -2732 0
2723 -2234 -2724 0
-2724 -2271 2725 0
-2724 4542 2271 0
2724 -2271 -2725 0
2724 -4542 2271 0
2725 2199 -2731 0
2725 -4462 -2199 0
2725 2199 -2726 0
-2725 4462 -2199 0
-2725 2199 2726 2731 0
2726 2278 -2727 0
2726 -4486 2278 -2279 0
-2726 -2278 0
-2726 4486 2727 0
-2726 2279 2727 0
-2727 4494 2728 0
-2727 2282 2728 0
2727 -2728 0
2727 -4494 -2282 0
2728 2280 2217 -2729 0
2728 -4502 2280 -2217 0
-2728 -2280 0
-2728 2217 2729 0
-2728 4502 -2217 0
2729 -4510 -2730 0
2729 2213 -2730 0
-2729 2730 0
-2729 4510 -2213 0
-2730 4518 2213 -2286 0
-2730 4526 2213 2286 0
2730 -2213 0
2730 -4526 2286 0
2730 -4518 -2286 0
-2731 2278 0
-2731 4470 4537 0
-2731 4478 -4537 0
2731 -4470 4537 -2278 0
2731 -4478 -4537 -2278 0
2732 2235 -2744 0
2732 2235 2290 -2733 0
-2732 -2235 0
-2732 -2290 2744 0
-2732 2733 2744 0
-2733 -2301 2734 2741 0
-2733 2734 2738 2741 0
2733 -2741 0
2733 -2734 0
2733 2301 -2738 0
2734 2302 -2736 0
2734 2302 -2314 -2735 0
-2734 -2302 0
-2734 2314 2736 0
-2734 2735 2736 0
-2735 -2317 2725 0
-2735 4598 2317 0
2735 -2317 -2725 0
2735 -4598 2317 0
2736 2319 -2737 0
-2736 -2319 0
-2736 2737 0
-2737 -2324 2725 0
-2737 4606 2324 0
2737 -2324 -2725 0
2737 -4606 2324 0
-2738 2304 0
-2738 -2262 2740 0
-2738 2262 2739 0
2738 2262 -2304 -2739 0
2738 -2262 -2304 -2740 0
-2739 -2306 2725 0
-2739 4582 2306 0
2739 -2306 -2725 0
2739 -4582 2306 0
-2740 -2311 2725 0
-2740 4590 2311 0
2740 -2311 -2725 0
2740 -4590 2311 0
-2741 2327 2328 0
-2741 2742 2743 0
-2741 2327 2743 0
-2741 2328 2742 0
2741 -2327 -2742 0
2741 -2328 -2743 0
-2742 -2330 2725 0
-2742 4574 2330 0
2742 -2330 -2725 0
2742 -4574 2330 0
-2743 -2333 2725 0
-2743 4566 2333 0
2743 -2333 -2725 0
2743 -4566 2333 0
-2744 2290 0
-2744 -2262 2746 0
-2744 2262 2745 0
2744 2262 -2290 -2745 0
2744 -2262 -2290 -2746 0
-2745 -2298 2725 0
-2745 4550 2298 0
2745 -2298 -2725 0
2745 -4550 2298 0
-2746 -2294 2725 0
-2746 4558 2294 0
2746 -2294 -2725 0
2746 -4558 2294 0
2747 2337 2340 -2750 0
2747 2337 -2340 -2748 0
-2747 -2337 0
-2747 -2340 2748 0
-2747 2340 2750 0
2748 2345 -2749 0
2748 -2345 -2723 0
-2748 -2345 2723 0
-2748 2345 2749 0
-2749 -2349 2712 0
-2749 4646 2349 0
2749 -2349 -2712 0
2749 -4646 2349 0
2750 2353 -2751 0
2750 -2353 -2762 0
2750 2353 -2757 0
-2750 -2353 2762 0
-2750 2353 2751 2757 0
2751 2355 -2754 0
2751 2355 -2356 -2752 0
-2751 -2355 0
-2751 2356 2754 0
-2751 2752 2754 0
2752 2361 -2753 0
2752 -2361 -2723 0
-2752 -2361 2723 0
-2752 2361 2753 0
-2753 -2366 2712 0
-2753 4678 2366 0
2753 -2366 -2712 0
2753 -4678 2366 0
2754 2370 -2755 0
-2754 -2370 0
-2754 2755 0
2755 2375 -2756 0
2755 -2375 -2723 0
-2755 -2375 2723 0
-2755 2375 2756 0
-2756 -2379 2712 0
-2756 4686 2379 0
2756 -2379 -2712 0
2756 -4686 2379 0
-2757 2355 0
-2757 2341 2758 0
-2757 -2341 2760 0
2757 -2341 -2355 -2760 0
2757 2341 -2355 -2758 0
2758 2382 -2759 0
2758 -2382 -2723 0
-2758 -2382 2723 0
-2758 2382 2759 0
-2759 -2386 2712 0
-2759 4662 2386 0
2759 -2386 -2712 0
2759 -4662 2386 0
2760 2389 -2761 0
2760 -2389 -2723 0
-2760 -2389 2723 0
-2760 2389 2761 0
-2761 -2392 2712 0
-2761 4670 2392 0
2761 -2392 -2712 0
2761 -4670 2392 0
2762 2395 -2763 0
2762 -2395 -2723 0
-2762 -2395 2723 0
-2762 2395 2763 0
-2763 -2398 2712 0
-2763 4654 2398 0
2763 -2398 -2712 0
2763 -4654 2398 0
-2764 2337 0
-2764 2341 2765 0
-2764 -2341 2767 0
2764 -2341 -2337 -2767 0
2764 2341 -2337 -2765 0
2765 2401 -2766 0
2765 -2401 -2723 0
-2765 -2401 2723 0
-2765 2401 2766 0
-2766 -2404 2712 0
-2766 4630 2404 0
2766 -2404 -2712 0
2766 -4630 2404 0
2767 2407 -2768 0
2767 -2407 -2723 0
-2767 -2407 2723 0
-2767 2407 2768 0
-2768 -2410 2712 0
-2768 4638 2410 0
2768 -2410 -2712 0
2768 -4638 2410 0
2769 2413 -2770 0
2769 -2413 -2784 0
2769 2413 -2781 0
-2769 -2413 2784 0
-2769 2413 2770 2781 0
2770 2432 -2778 0
2770 2432 2434 -2771 0
-2770 -2432 0
-2770 -2434 2778 0
-2770 2771 2778 0
-2771 2453 2772 2775 0
-2771 2772 2774 2775 0
2771 -2775 0
2771 -2772 0
2771 -2453 -2774 0
2772 -2447 -2773 0
-2772 2447 0
-2772 2773 0
2773 2450 -2740 0
-2773 -2450 0
-2773 2740 0
2774 2455 -2739 0
-2774 -2455 0
-2774 2739 0
2775 2448 -2458 -2777 0
2775 2448 2458 -2776 0
-2775 -2448 0
-2775 -2458 2777 0
-2775 2458 2776 0
2776 2463 -2737 0
-2776 -2463 0
-2776 2737 0
2777 2460 -2735 0
-2777 -2460 0
-2777 2735 0
-2778 2779 2780 0
-2778 2433 2442 0
-2778 2442 2780 0
-2778 2433 2779 0
2778 -2442 -2779 0
2778 -2433 -2780 0
2779 2445 -2743 0
-2779 -2445 0
-2779 2743 0
2780 2437 -2742 0
-2780 -2437 0
-2780 2742 0
-2781 2432 0
-2781 2414 2783 0
-2781 -2414 2782 0
2781 -2432 2414 -2783 0
2781 -2432 -2414 -2782 0
2782 2466 -2746 0
-2782 -2466 0
-2782 2746 0
2783 2469 -2745 0
-2783 -2469 0
-2783 2745 0
2784 2472 -2724 0
-2784 -2472 0
-2784 2724 0
-2785 -2786 2864 0
-2785 2847 2864 0
-2785 -2786 2847 0
2785 2786 -2847 0
2785 -2847 -2864 0
2785 2786 -2864 0
-2786 2170 2824 0
-2786 2787 2824 0
2786 -2824 0
2786 -2170 -2787 0
2787 -2177 -2799 0
2787 2177 -2788 0
-2787 2177 2788 0
-2787 -2177 2799 0
-2788 -2184 2789 0
-2788 4623 2184 0
2788 -2184 -2789 0
2788 -4623 2184 0
-2789 -2189 2198 0
-2789 4463 2790 0
-2789 4463 -2189 0
-2789 2198 2790 0
2789 2189 -2790 0
2789 -4463 -2198 0
-2790 4471 2791 2798 0
-2790 2231 2791 2798 0
2790 -2798 0
2790 -2791 0
2790 -4471 -2231 0
2791 2203 -2792 0
2791 -4495 2203 -2228 0
-2791 -2203 0
-2791 4495 2792 0
-2791 2228 2792 0
-2792 -2205 2720 0
-2792 4487 2793 0
-2792 4487 -2205 0
-2792 2720 2793 0
2792 2205 -2793 0
2792 -4487 -2720 0
-2793 4503 2794 2797 0
-2793 2216 2794 2797 0
2793 -2797 0
2793 -2794 0
2793 -4503 -2216 0
2794 2209 2219 -2796 0
2794 2209 -2219 -2795 0
-2794 -2209 0
-2794 -2219 2795 0
-2794 2219 2796 0
2795 -4519 2226 0
-2795 4519 0
-2795 -2226 0
2796 -4527 2223 0
-2796 4527 0
-2796 -2223 0
2797 -4511 -2207 0
-2797 4511 0
-2797 2207 0
2798 -4479 -2232 0
-2798 4479 0
-2798 2232 0
-2799 2800 2808 0
-2799 2234 2808 0
2799 -2808 0
2799 -2234 -2800 0
-2800 -2271 2801 0
-2800 4543 2271 0
2800 -2271 -2801 0
2800 -4543 2271 0
2801 2199 -2807 0
2801 -4463 -2199 0
2801 2199 -2802 0
-2801 4463 -2199 0
-2801 2199 2802 2807 0
2802 2278 -2803 0
2802 2278 -2806 0
-2802 -2278 0
-2802 2803 2806 0
2803 2280 2217 -2804 0
2803 -4503 2280 -2217 0
-2803 -2280 0
-2803 2217 2804 0
-2803 4503 -2217 0
2804 -4511 -2805 0
2804 2213 -2805 0
-2804 2805 0
-2804 4511 -2213 0
-2805 4519 2213 -2286 0
-2805 4527 2213 2286 0
2805 -2213 0
2805 -4527 2286 0
2805 -4519 -2286 0
-2806 2280 0
-2806 4487 4537 0
-2806 4495 -4537 0
2806 -4487 4537 -2280 0
2806 -4495 -4537 -2280 0
-2807 2278 0
-2807 4471 4537 0
-2807 4479 -4537 0
2807 -4471 4537 -2278 0
2807 -4479 -4537 -2278 0
2808 2235 -2811 0
2808 2235 -2809 -2810 0
-2808 -2235 0
-2808 2809 2811 0
-2808 2810 2811 0
2809 2262 -2290 0
-2809 -2262 0
-2809 2290 0
-2810 -2298 2801 0
-2810 4551 2298 0
2810 -2298 -2801 0
2810 -4551 2298 0
-2811 2262 -2290 0
-2811 2290 2813 0
-2811 -2290 2812 0
2811 2290 -2813 0
2811 -2262 -2290 -2812 0
-2812 -2294 2801 0
-2812 4559 2294 0
2812 -2294 -2801 0
2812 -4559 2294 0
-2813 -2301 2814 2821 0
-2813 2814 2818 2821 0
2813 -2821 0
2813 -2814 0
2813 2301 -2818 0
2814 2302 -2816 0
2814 2302 -2314 -2815 0
-2814 -2302 0
-2814 2314 2816 0
-2814 2815 2816 0
-2815 -2317 2801 0
-2815 4599 2317 0
2815 -2317 -2801 0
2815 -4599 2317 0
2816 2319 -2817 0
-2816 -2319 0
-2816 2817 0
-2817 -2324 2801 0
-2817 4607 2324 0
2817 -2324 -2801 0
2817 -4607 2324 0
-2818 2304 0
-2818 -2262 2820 0
-2818 2262 2819 0
2818 2262 -2304 -2819 0
2818 -2262 -2304 -2820 0
-2819 -2306 2801 0
-2819 4583 2306 0
2819 -2306 -2801 0
2819 -4583 2306 0
-2820 -2311 2801 0
-2820 4591 2311 0
2820 -2311 -2801 0
2820 -4591 2311 0
-2821 2327 2328 0
-2821 2822 2823 0
-2821 2327 2823 0
-2821 2328 2822 0
2821 -2327 -2822 0
2821 -2328 -2823 0
-2822 -2330 2801 0
-2822 4575 2330 0
2822 -2330 -2801 0
2822 -4575 2330 0
-2823 -2333 2801 0
-2823 4567 2333 0
2823 -2333 -2801 0
2823 -4567 2333 0
2824 2129 -2827 0
2824 2129 -2667 -2825 0
-2824 -2129 0
-2824 2667 2827 0
-2824 2825 2827 0
2825 2401 -2826 0
2825 -2401 -2799 0
-2825 -2401 2799 0
-2825 2401 2826 0
-2826 -2404 2789 0
-2826 4631 2404 0
2826 -2404 -2789 0
2826 -4631 2404 0
-2827 2337 2830 0
-2827 -2337 2828 0
-2827 2341 -2337 0
2827 2337 -2830 0
2827 -2341 -2337 -2828 0
2828 2407 -2829 0
2828 -2407 -2799 0
-2828 -2407 2799 0
-2828 2407 2829 0
-2829 -2410 2789 0
-2829 4639 2410 0
2829 -2410 -2789 0
2829 -4639 2410 0
2830 -2340 -2831 0
2830 2340 -2833 0
-2830 2340 2833 0
-2830 -2340 2831 0
2831 2345 -2832 0
2831 -2345 -2799 0
-2831 -2345 2799 0
-2831 2345 2832 0
-2832 -2349 2789 0
-2832 4647 2349 0
2832 -2349 -2789 0
2832 -4647 2349 0
2833 -2353 -2845 0
2833 2353 -2834 0
2833 2353 -2842 0
-2833 -2353 2845 0
-2833 2353 2834 2842 0
-2834 -2341 -2355 0
-2834 2355 2837 0
-2834 -2355 2835 0
2834 2355 -2837 0
2834 2341 -2355 -2835 0
2835 2382 -2836 0
2835 -2382 -2799 0
-2835 -2382 2799 0
-2835 2382 2836 0
-2836 -2386 2789 0
-2836 4663 2386 0
2836 -2386 -2789 0
2836 -4663 2386 0
-2837 -2370 2838 0
-2837 2356 2840 0
-2837 2838 2840 0
-2837 2356 -2370 0
2837 -2356 -2838 0
2837 2370 -2840 0
2838 2361 -2839 0
2838 -2361 -2799 0
-2838 -2361 2799 0
-2838 2361 2839 0
-2839 -2366 2789 0
-2839 4679 2366 0
2839 -2366 -2789 0
2839 -4679 2366 0
2840 2375 -2841 0
2840 -2375 -2799 0
-2840 -2375 2799 0
-2840 2375 2841 0
-2841 -2379 2789 0
-2841 4687 2379 0
2841 -2379 -2789 0
2841 -4687 2379 0
2842 -2686 -2843 0
-2842 2686 0
-2842 2843 0
2843 2389 -2844 0
2843 -2389 -2799 0
-2843 -2389 2799 0
-2843 2389 2844 0
-2844 -2392 2789 0
-2844 4671 2392 0
2844 -2392 -2789 0
2844 -4671 2392 0
2845 2395 -2846 0
2845 -2395 -2799 0
-2845 -2395 2799 0
-2845 2395 2846 0
-2846 -2398 2789 0
-2846 4655 2398 0
2846 -2398 -2789 0
2846 -4655 2398 0
2847 2413 -2848 0
2847 -2413 -2863 0
2847 2413 -2860 0
-2847 -2413 2863 0
-2847 2413 2848 2860 0
2848 2432 -2857 0
2848 2432 2434 -2849 0
-2848 -2432 0
-2848 -2434 2857 0
-2848 2849 2857 0
-2849 2453 2850 2853 0
-2849 2850 2852 2853 0
2849 -2853 0
2849 -2850 0
2849 -2453 -2852 0
2850 -2447 -2851 0
-2850 2447 0
-2850 2851 0
2851 2450 -2820 0
-2851 -2450 0
-2851 2820 0
2852 2455 -2819 0
-2852 -2455 0
-2852 2819 0
2853 -2854 2855 0
2853 -2458 2855 0
-2853 -2855 0
-2853 2458 2854 0
2854 2463 -2817 0
-2854 -2463 0
-2854 2817 0
-2855 2448 2458 0
-2855 2448 -2856 0
2855 -2448 0
2855 -2458 2856 0
2856 2460 -2815 0
-2856 -2460 0
-2856 2815 0
-2857 2858 2859 0
-2857 2433 2442 0
-2857 2442 2859 0
-2857 2433 2858 0
2857 -2442 -2858 0
2857 -2433 -2859 0
2858 2445 -2823 0
-2858 -2445 0
-2858 2823 0
2859 2437 -2822 0
-2859 -2437 0
-2859 2822 0
-2860 2432 0
-2860 2414 2861 0
-2860 -2414 2862 0
2860 -2432 -2414 -2862 0
2860 -2432 2414 -2861 0
2861 2469 -2810 0
-2861 -2469 0
-2861 2810 0
2862 2466 -2812 0
-2862 -2466 0
-2862 2812 0
2863 2472 -2800 0
-2863 -2472 0
-2863 2800 0
2864 2865 -2926 0
2864 -2926 -2942 0
2864 2865 -2942 0
-2864 -2865 2942 0
-2864 2926 2942 0
-2864 -2865 2926 0
-2865 2170 2903 0
-2865 2866 2903 0
2865 -2903 0
2865 -2170 -2866 0
2866 -2177 -2879 0
2866 2177 -2867 0
-2866 2177 2867 0
-2866 -2177 2879 0
-2867 -2184 2868 0
-2867 4624 2184 0
2867 -2184 -2868 0
2867 -4624 2184 0
-2868 -2189 2198 0
-2868 4464 2869 0
-2868 4464 -2189 0
-2868 2198 2869 0
2868 2189 -2869 0
2868 -4464 -2198 0
-2869 4472 2870 2876 0
-2869 2231 2870 2876 0
2869 -2876 0
2869 -2870 0
2869 -4472 -2231 0
2870 2203 -2871 0
2870 -4496 2203 -2228 0
-2870 -2203 0
-2870 4496 2871 0
-2870 2228 2871 0
-2871 -2205 2720 0
-2871 4488 2872 0
-2871 4488 -2205 0
-2871 2720 2872 0
2871 2205 -2872 0
2871 -4488 -2720 0
-2872 -2208 2216 0
-2872 4504 2873 0
-2872 4504 -2208 0
-2872 2216 2873 0
2872 2208 -2873 0
2872 -4504 -2216 0
-2873 2209 2874 0
-2873 -2212 2874 0
-2873 4512 2874 0
2873 -2874 0
2873 -4512 -2209 2212 0
2874 -2219 2875 0
2874 -4528 2223 2875 0
-2874 -2875 0
-2874 2219 -2223 0
-2874 4528 2219 0
-2875 2211 2219 0
-2875 -4520 2211 2226 0
2875 -2211 0
2875 -2219 -2226 0
2875 4520 -2219 0
2876 -4480 -224 -2203 2877 0
-2876 2203 0
-2876 -2877 0
-2876 4480 0
-2876 224 0
2877 -4704 -2878 0
-2877 4704 0
-2877 2878 0
2878 -4537 -2278 0
-2878 4537 0
-2878 2278 0
-2879 2880 2888 0
-2879 2234 2888 0
2879 -2888 0
2879 -2234 -2880 0
-2880 -2271 2881 0
-2880 4544 2271 0
2880 -2271 -2881 0
2880 -4544 2271 0
2881 2199 -2887 0
2881 -4464 -2199 0
2881 2199 -2882 0
-2881 4464 -2199 0
-2881 2199 2882 2887 0
2882 2278 -2883 0
2882 -4488 2278 -2279 0
-2882 -2278 0
-2882 4488 2883 0
-2882 2279 2883 0
-2883 4496 2884 0
-2883 2282 2884 0
2883 -2884 0
2883 -4496 -2282 0
2884 2280 2217 -2885 0
2884 -4504 2280 -2217 0
-2884 -2280 0
-2884 2217 2885 0
-2884 4504 -2217 0
2885 -4512 -2886 0
2885 2213 -2886 0
-2885 2886 0
-2885 4512 -2213 0
-2886 4520 2213 -2286 0
-2886 4528 2213 2286 0
2886 -2213 0
2886 -4528 2286 0
2886 -4520 -2286 0
-2887 2278 0
-2887 4472 4537 0
-2887 4480 -4537 0
2887 -4472 4537 -2278 0
2887 -4480 -4537 -2278 0
2888 2235 -2900 0
2888 2235 2290 -2889 0
-2888 -2235 0
-2888 -2290 2900 0
-2888 2889 2900 0
-2889 -2301 2893 2897 0
-2889 2890 2893 2897 0
2889 -2897 0
2889 -2893 0
2889 2301 -2890 0
-2890 2304 0
-2890 -2262 2892 0
-2890 2262 2891 0
2890 2262 -2304 -2891 0
2890 -2262 -2304 -2892 0
-2891 -2306 2881 0
-2891 4584 2306 0
2891 -2306 -2881 0
2891 -4584 2306 0
-2892 -2311 2881 0
-2892 4592 2311 0
2892 -2311 -2881 0
2892 -4592 2311 0
2893 2302 -2895 0
2893 2302 -2314 -2894 0
-2893 -2302 0
-2893 2314 2895 0
-2893 2894 2895 0
-2894 -2317 2881 0
-2894 4600 2317 0
2894 -2317 -2881 0
2894 -4600 2317 0
2895 2319 -2896 0
-2895 -2319 0
-2895 2896 0
-2896 -2324 2881 0
-2896 4608 2324 0
2896 -2324 -2881 0
2896 -4608 2324 0
-2897 2327 2328 0
-2897 2898 2899 0
-2897 2327 2899 0
-2897 2328 2898 0
2897 -2327 -2898 0
2897 -2328 -2899 0
-2898 -2330 2881 0
-2898 4576 2330 0
2898 -2330 -2881 0
2898 -4576 2330 0
-2899 -2333 2881 0
-2899 4568 2333 0
2899 -2333 -2881 0
2899 -4568 2333 0
-2900 2290 0
-2900 -2262 2902 0
-2900 2262 2901 0
2900 2262 -2290 -2901 0
2900 -2262 -2290 -2902 0
-2901 -2298 2881 0
-2901 4552 2298 0
2901 -2298 -2881 0
2901 -4552 2298 0
-2902 -2294 2881 0
-2902 4560 2294 0
2902 -2294 -2881 0
2902 -4560 2294 0
2903 2129 -2906 0
2903 2129 -2667 -2904 0
-2903 -2129 0
-2903 2667 2906 0
-2903 2904 2906 0
2904 2401 -2905 0
2904 -2401 -2879 0
-2904 -2401 2879 0
-2904 2401 2905 0
-2905 -2404 2868 0
-2905 4632 2404 0
2905 -2404 -2868 0
2905 -4632 2404 0
-2906 2337 2909 0
-2906 -2337 2907 0
-2906 2341 -2337 0
2906 2337 -2909 0
2906 -2341 -2337 -2907 0
2907 2407 -2908 0
2907 -2407 -2879 0
-2907 -2407 2879 0
-2907 2407 2908 0
-2908 -2410 2868 0
-2908 4640 2410 0
2908 -2410 -2868 0
2908 -4640 2410 0
2909 -2340 -2910 0
2909 2340 -2912 0
-2909 2340 2912 0
-2909 -2340 2910 0
2910 2345 -2911 0
2910 -2345 -2879 0
-2910 -2345 2879 0
-2910 2345 2911 0
-2911 -2349 2868 0
-2911 4648 2349 0
2911 -2349 -2868 0
2911 -4648 2349 0
2912 2353 -2913 0
2912 -2353 -2924 0
2912 2353 -2919 0
-2912 -2353 2924 0
-2912 2353 2913 2919 0
2913 2355 -2916 0
2913 2355 -2356 -2914 0
-2913 -2355 0
-2913 2356 2916 0
-2913 2914 2916 0
2914 2361 -2915 0
2914 -2361 -2879 0
-2914 -2361 2879 0
-2914 2361 2915 0
-2915 -2366 2868 0
-2915 4680 2366 0
2915 -2366 -2868 0
2915 -4680 2366 0
2916 2370 -2917 0
-2916 -2370 0
-2916 2917 0
2917 2375 -2918 0
2917 -2375 -2879 0
-2917 -2375 2879 0
-2917 2375 2918 0
-2918 -2379 2868 0
-2918 4688 2379 0
2918 -2379 -2868 0
2918 -4688 2379 0
-2919 2355 0
-2919 2341 2920 0
-2919 -2341 2922 0
2919 -2341 -2355 -2922 0
2919 2341 -2355 -2920 0
2920 2382 -2921 0
2920 -2382 -2879 0
-2920 -2382 2879 0
-2920 2382 2921 0
-2921 -2386 2868 0
-2921 4664 2386 0
2921 -2386 -2868 0
2921 -4664 2386 0
2922 2389 -2923 0
2922 -2389 -2879 0
-2922 -2389 2879 0
-2922 2389 2923 0
-2923 -2392 2868 0
-2923 4672 2392 0
2923 -2392 -2868 0
2923 -4672 2392 0
2924 2395 -2925 0
2924 -2395 -2879 0
-2924 -2395 2879 0
-2924 2395 2925 0
-2925 -2398 2868 0
-2925 4656 2398 0
2925 -2398 -2868 0
2925 -4656 2398 0
2926 2413 -2927 0
2926 -2413 -2941 0
2926 2413 -2938 0
-2926 -2413 2941 0
-2926 2413 2927 2938 0
2927 2432 -2931 0
2927 2432 2434 -2928 0
-2927 -2432 0
-2927 -2434 2931 0
-2927 2928 2931 0
-2928 2448 0
-2928 2414 2930 0
-2928 -2414 2929 0
2928 2414 -2448 -2930 0
2928 -2414 -2448 -2929 0
2929 2450 -2892 0
-2929 -2450 0
-2929 2892 0
2930 2455 -2891 0
-2930 -2455 0
-2930 2891 0
-2931 2433 2932 2935 0
-2931 2932 2934 2935 0
2931 -2935 0
2931 -2932 0
2931 -2433 -2934 0
2932 -2442 -2933 0
-2932 2442 0
-2932 2933 0
2933 2445 -2899 0
-2933 -2445 0
-2933 2899 0
2934 2437 -2898 0
-2934 -2437 0
-2934 2898 0
2935 2435 2458 -2937 0
2935 2435 -2458 -2936 0
-2935 -2435 0
-2935 -2458 2936 0
-2935 2458 2937 0
2936 2460 -2894 0
-2936 -2460 0
-2936 2894 0
2937 2463 -2896 0
-2937 -2463 0
-2937 2896 0
-2938 2432 0
-2938 2414 2939 0
-2938 -2414 2940 0
2938 -2432 -2414 -2940 0
2938 -2432 2414 -2939 0
2939 2469 -2901 0
-2939 -2469 0
-2939 2901 0
2940 2466 -2902 0
-2940 -2466 0
-2940 2902 0
2941 2472 -2880 0
-2941 -2472 0
-2941 2880 0
2942 2943 -3002 0
-2942 -2943 0
-2942 3002 0
-2943 -2129 2944 0
-2943 2944 2980 2997 0
2943 -2944 0
2943 2129 -2997 0
2943 2129 -2980 0
2944 -2170 -2945 0
-2944 2170 0
-2944 2945 0
2945 -2177 -2956 0
2945 2177 -2946 0
-2945 2177 2946 0
-2945 -2177 2956 0
-2946 -2184 2947 0
-2946 4625 2184 0
2946 -2184 -2947 0
2946 -4625 2184 0
-2947 -2189 2198 0
-2947 4465 2948 0
-2947 4465 -2189 0
-2947 2198 2948 0
2947 2189 -2948 0
2947 -4465 -2198 0
-2948 -2203 2955 0
-2948 2949 2954 2955 0
2948 -2955 0
2948 2203 -2949 0
2948 2203 -2954 0
2949 2205 -2950 0
2949 -4505 2205 -2216 0
-2949 -2205 0
-2949 2216 2950 0
-2949 4505 2950 0
2950 2208 -2952 0
2950 2208 -2219 -2951 0
-2950 -2208 0
-2950 2219 2952 0
-2950 2951 2952 0
2951 -4521 2226 0
-2951 4521 0
-2951 -2226 0
-2952 4513 2953 0
-2952 2210 2953 0
2952 -2953 0
2952 -4513 -2210 0
2953 -4529 2211 2219 2223 0
-2953 -2223 0
-2953 -2219 0
-2953 4529 0
-2953 -2211 0
-2954 2228 2720 0
-2954 4489 4497 0
-2954 4497 2720 0
-2954 4489 2228 0
2954 -4497 -2228 0
2954 -4489 -2720 0
-2955 4481 2231 0
-2955 4473 2232 0
-2955 2231 2232 0
-2955 4473 4481 0
2955 -4473 -2231 0
2955 -4481 -2232 0
-2956 2957 2965 0
-2956 2234 2965 0
2956 -2965 0
2956 -2234 -2957 0
-2957 -2271 2958 0
-2957 4545 2271 0
2957 -2271 -2958 0
2957 -4545 2271 0
2958 2199 -2964 0
2958 -4465 -2199 0
2958 2199 -2959 0
-2958 4465 -2199 0
-2958 2199 2959 2964 0
2959 2278 -2960 0
2959 -4489 2278 -2279 0
-2959 -2278 0
-2959 4489 2960 0
-2959 2279 2960 0
-2960 4497 2961 0
-2960 2282 2961 0
2960 -2961 0
2960 -4497 -2282 0
2961 2280 2217 -2962 0
2961 -4505 2280 -2217 0
-2961 -2280 0
-2961 2217 2962 0
-2961 4505 -2217 0
2962 -4513 -2963 0
2962 2213 -2963 0
-2962 2963 0
-2962 4513 -2213 0
-2963 4521 2213 -2286 0
-2963 4529 2213 2286 0
2963 -2213 0
2963 -4529 2286 0
2963 -4521 -2286 0
-2964 2278 0
-2964 4473 4537 0
-2964 4481 -4537 0
2964 -4473 4537 -2278 0
2964 -4481 -4537 -2278 0
2965 2235 -2977 0
2965 2235 2290 -2966 0
-2965 -2235 0
-2965 -2290 2977 0
-2965 2966 2977 0
-2966 -2301 2970 2974 0
-2966 2967 2970 2974 0
2966 -2974 0
2966 -2970 0
2966 2301 -2967 0
-2967 2304 0
-2967 -2262 2969 0
-2967 2262 2968 0
2967 2262 -2304 -2968 0
2967 -2262 -2304 -2969 0
-2968 -2306 2958 0
-2968 4585 2306 0
2968 -2306 -2958 0
2968 -4585 2306 0
-2969 -2311 2958 0
-2969 4593 2311 0
2969 -2311 -2958 0
2969 -4593 2311 0
2970 2302 -2972 0
2970 2302 -2314 -2971 0
-2970 -2302 0
-2970 2314 2972 0
-2970 2971 2972 0
-2971 -2317 2958 0
-2971 4601 2317 0
2971 -2317 -2958 0
2971 -4601 2317 0
2972 2319 -2973 0
-2972 -2319 0
-2972 2973 0
-2973 -2324 2958 0
-2973 4609 2324 0
2973 -2324 -2958 0
2973 -4609 2324 0
-2974 2327 2328 0
-2974 2975 2976 0
-2974 2327 2976 0
-2974 2328 2975 0
2974 -2327 -2975 0
2974 -2328 -2976 0
-2975 -2330 2958 0
-2975 4577 2330 0
2975 -2330 -2958 0
2975 -4577 2330 0
-2976 -2333 2958 0
-2976 4569 2333 0
2976 -2333 -2958 0
2976 -4569 2333 0
-2977 2290 0
-2977 -2262 2979 0
-2977 2262 2978 0
2977 2262 -2290 -2978 0
2977 -2262 -2290 -2979 0
-2978 -2298 2958 0
-2978 4553 2298 0
2978 -2298 -2958 0
2978 -4553 2298 0
-2979 -2294 2958 0
-2979 4561 2294 0
2979 -2294 -2958 0
2979 -4561 2294 0
2980 2337 2340 -2983 0
2980 2337 -2340 -2981 0
-2980 -2337 0
-2980 -2340 2981 0
-2980 2340 2983 0
2981 2345 -2982 0
2981 -2345 -2956 0
-2981 -2345 2956 0
-2981 2345 2982 0
-2982 -2349 2947 0
-2982 4649 2349 0
2982 -2349 -2947 0
2982 -4649 2349 0
2983 2353 -2984 0
2983 -2353 -2995 0
2983 2353 -2990 0
-2983 -2353 2995 0
-2983 2353 2984 2990 0
2984 2355 -2987 0
2984 2355 -2356 -2985 0
-2984 -2355 0
-2984 2356 2987 0
-2984 2985 2987 0
2985 2361 -2986 0
2985 -2361 -2956 0
-2985 -2361 2956 0
-2985 2361 2986 0
-2986 -2366 2947 0
-2986 4681 2366 0
2986 -2366 -2947 0
2986 -4681 2366 0
2987 2370 -2988 0
-2987 -2370 0
-2987 2988 0
2988 2375 -2989 0
2988 -2375 -2956 0
-2988 -2375 2956 0
-2988 2375 2989 0
-2989 -2379 2947 0
-2989 4689 2379 0
2989 -2379 -2947 0
2989 -4689 2379 0
-2990 2355 0
-2990 2341 2991 0
-2990 -2341 2993 0
2990 -2341 -2355 -2993 0
2990 2341 -2355 -2991 0
2991 2382 -2992 0
2991 -2382 -2956 0
-2991 -2382 2956 0
-2991 2382 2992 0
-2992 -2386 2947 0
-2992 4665 2386 0
2992 -2386 -2947 0
2992 -4665 2386 0
2993 2389 -2994 0
2993 -2389 -2956 0
-2993 -2389 2956 0
-2993 2389 2994 0
-2994 -2392 2947 0
-2994 4673 2392 0
2994 -2392 -2947 0
2994 -4673 2392 0
2995 2395 -2996 0
2995 -2395 -2956 0
-2995 -2395 2956 0
-2995 2395 2996 0
-2996 -2398 2947 0
-2996 4657 2398 0
2996 -2398 -2947 0
2996 -4657 2398 0
-2997 2337 0
-2997 2341 2998 0
-2997 -2341 3000 0
2997 -2341 -2337 -3000 0
2997 2341 -2337 -2998 0
2998 2401 -2999 0
2998 -2401 -2956 0
-2998 -2401 2956 0
-2998 2401 2999 0
-2999 -2404 2947 0
-2999 4633 2404 0
2999 -2404 -2947 0
2999 -4633 2404 0
3000 2407 -3001 0
3000 -2407 -2956 0
-3000 -2407 2956 0
-3000 2407 3001 0
-3001 -2410 2947 0
-3001 4641 2410 0
3001 -2410 -2947 0
3001 -4641 2410 0
3002 2413 -3003 0
3002 -2413 -3017 0
3002 2413 -3014 0
-3002 -2413 3017 0
-3002 2413 3003 3014 0
3003 2432 -3011 0
3003 2432 2434 -3004 0
-3003 -2432 0
-3003 -2434 3011 0
-3003 3004 3011 0
-3004 2453 3005 3008 0
-3004 3005 3007 3008 0
3004 -3008 0
3004 -3005 0
3004 -2453 -3007 0
3005 -2447 -3006 0
-3005 2447 0
-3005 3006 0
3006 2450 -2969 0
-3006 -2450 0
-3006 2969 0
3007 2455 -2968 0
-3007 -2455 0
-3007 2968 0
3008 2448 -2458 -3010 0
3008 2448 2458 -3009 0
-3008 -2448 0
-3008 -2458 3010 0
-3008 2458 3009 0
3009 2463 -2973 0
-3009 -2463 0
-3009 2973 0
3010 2460 -2971 0
-3010 -2460 0
-3010 2971 0
-3011 3012 3013 0
-3011 2433 2442 0
-3011 2442 3013 0
-3011 2433 3012 0
3011 -2442 -3012 0
3011 -2433 -3013 0
3012 2445 -2976 0
-3012 -2445 0
-3012 2976 0
3013 2437 -2975 0
-3013 -2437 0
-3013 2975 0
-3014 2432 0
-3014 2414 3015 0
-3014 -2414 3016 0
3014 -2432 -2414 -3016 0
3014 -2432 2414 -3015 0
3015 2469 -2978 0
-3015 -2469 0
-3015 2978 0
3016 2466 -2979 0
-3016 -2466 0
-3016 2979 0
3017 2472 -2957 0
-3017 -2472 0
-3017 2957 0
3018 2476 -2536 0
-3018 -2476 0
-3018 2536 0
3019 3020 3422 3447 -3602 0
-3019 3602 0
-3019 -3020 0
-3019 -3447 0
-3019 -3422 0
-3020 3021 3303 3367 3391 0
3020 -3391 0
3020 -3021 0
3020 -3367 0
3020 -3303 0
-3021 3022 3111 3145 3228 0
3021 -3228 0
3021 -3022 0
3021 -3145 0
3021 -3111 0
-3022 -4732 4740 3023 -3102 0
-3022 -4732 -4740 -3023 -3102 0
-3022 4732 4740 3023 3102 0
-3022 4732 -4740 -3023 3102 0
3022 4732 -3102 0
3022 -4732 3102 0
3022 -4740 3023 0
3022 4740 -3023 0
3023 -3024 -3086 0
3023 3024 -3068 0
-3023 3024 3068 0
-3023 -3024 3086 0
3024 -4708 -3025 0
-3024 4708 0
-3024 3025 0
3025 3026 -3064 0
-3025 -3026 0
-3025 3064 0
-3026 3027 3034 0
3026 -3027 0
3026 -3034 0
3027 -3028 3032 0
3027 3028 -3032 0
-3027 3028 3032 0
-3027 -3028 -3032 0
3028 -4706 -3029 -3030 0
-3028 4706 0
-3028 3029 0
-3028 3030 0
3029 -4705 224 0
3029 4705 -224 0
-3029 4705 224 0
-3029 -4705 -224 0
-3030 -4536 -3031 0
-3030 3031 2197 0
3030 4536 -3031 0
3030 3031 -2197 0
3031 -4705 224 0
-3031 4705 0
-3031 -224 0
-3032 -2195 -3033 0
-3032 2195 3033 0
3032 2195 -3033 0
3032 -2195 3033 0
3033 4536 -3031 0
-3033 -4536 0
-3033 3031 0
-3034 3035 3063 0
3034 -3035 0
3034 -3063 0
-3035 3036 3060 3061 3062 0
3035 -3062 0
3035 -3061 0
3035 -3036 0
3035 -3060 0
3036 -3037 3056 0
3036 3037 -3056 0
-3036 3037 3056 0
-3036 -3037 -3056 0
3037 -3038 -3052 0
-3037 3038 0
-3037 3052 0
3038 -3039 -3046 0
-3038 3039 0
-3038 3046 0
-3039 -3040 -3043 0
-3039 3040 3043 0
3039 3040 -3043 0
3039 -3040 3043 0
-3040 -4532 -3041 0
-3040 4532 3041 0
3040 4532 -3041 0
3040 -4532 3041 0
3041 4533 -3042 0
-3041 -4533 0
-3041 3042 0
3042 4534 -2193 0
-3042 -4534 0
-3042 2193 0
3043 4533 -3044 0
-3043 -4533 0
-3043 3044 0
3044 2192 -3045 0
-3044 -2192 0
-3044 3045 0
3045 -3031 2194 0
-3045 3031 0
-3045 -2194 0
3046 -3047 -3049 0
-3046 3047 0
-3046 3049 0
-3047 4533 3048 0
-3047 -4533 -3048 0
3047 -4533 3048 0
3047 4533 -3048 0
-3048 3042 3044 0
3048 -3042 0
3048 -3044 0
3049 -3050 -3051 0
-3049 3050 0
-3049 3051 0
3050 -3028 -3032 0
-3050 3028 0
-3050 3032 0
-3051 -2192 -3045 0
-3051 2192 3045 0
3051 2192 -3045 0
3051 -2192 3045 0
-3052 4531 3053 0
-3052 -4531 -3053 0
3052 -4531 3053 0
3052 4531 -3053 0
-3053 3054 3055 0
3053 -3054 0
3053 -3055 0
3054 4532 -3041 0
-3054 -4532 0
-3054 3041 0
3055 3040 -3043 0
-3055 -3040 0
-3055 3043 0
-3056 3057 3058 0
-3056 -3057 -3058 0
3056 -3057 3058 0
3056 3057 -3058 0
3057 4531 -3055 0
-3057 -4531 0
-3057 3055 0
-3058 -4530 -3059 0
-3058 4530 3059 0
3058 4530 -3059 0
3058 -4530 3059 0
3059 4531 4532 -3041 0
-3059 3041 0
-3059 -4532 0
-3059 -4531 0
3060 -3038 3052 0
3060 3038 -3052 0
-3060 3038 3052 0
-3060 -3038 -3052 0
3061 3047 -3049 0
3061 -3047 3049 0
-3061 -3047 -3049 0
-3061 3047 3049 0
3062 3039 -3046 0
3062 -3039 3046 0
-3062 -3039 -3046 0
-3062 3039 3046 0
3063 -3050 3051 0
3063 3050 -3051 0
-3063 3050 3051 0
-3063 -3050 -3051 0
3064 -3065 -3066 0
-3064 3065 0
-3064 3066 0
-3065 -4706 -3029 0
-3065 4706 3029 0
3065 4706 -3029 0
3065 -4706 3029 0
3066 -4706 -3067 0
3066 4706 -3030 0
-3066 4706 3030 0
-3066 -4706 3067 0
-3067 2197 3029 0
3067 -2197 0
3067 -3029 0
-3068 3069 -3085 0
-3068 -3069 3075 0
-3068 4488 3069 0
3068 -3069 -3075 0
3068 -4488 3069 3085 0
3069 -4706 -3070 0
-3069 4706 0
-3069 3070 0
3070 -3029 -3071 0
-3070 3029 0
-3070 3071 0
3071 -3030 3072 0
-3071 3030 0
-3071 -3072 0
-3072 3051 3073 0
3072 -3051 0
3072 -3073 0
-3073 3032 3074 0
3073 -3032 0
3073 -3074 0
-3074 3040 3047 3052 3056 0
3074 -3056 0
3074 -3040 0
3074 -3052 0
3074 -3047 0
-3075 2880 3076 0
-3075 2264 3076 0
3075 -3076 0
3075 -2264 -2880 0
3076 2264 2470 -3077 0
3076 2264 -2470 -2901 0
-3076 -2264 0
-3076 -2470 2901 0
-3076 2470 3077 0
3077 2467 -3084 0
3077 -2467 -2902 0
3077 2467 -3078 0
-3077 -2467 2902 0
-3077 2467 3078 3084 0
3078 -2898 -3079 3083 0
3078 3079 -3080 3083 0
-3078 -3083 0
-3078 3079 3080 0
-3078 2898 -3079 0
3079 -420 -2438 0
-3079 420 0
-3079 2438 0
3080 -2456 -2891 0
3080 2456 -3081 0
-3080 -2456 2891 0
-3080 2456 3081 0
3081 -2451 -2892 0
3081 2451 -3082 0
-3081 -2451 2892 0
-3081 2451 3082 0
3082 2461 -2896 0
3082 -2461 -2894 0
-3082 -2461 2894 0
-3082 2461 2896 0
3083 420 -2438 0
-3083 -420 0
-3083 2438 0
3084 -2899 -3083 0
-3084 2899 0
-3084 3083 0
-3085 4705 2721 0
-3085 2229 2721 0
3085 -2721 0
3085 -4705 -2229 0
3086 -2171 -2866 0
3086 2171 -3101 0
3086 2171 -3087 0
-3086 -2171 2866 0
-3086 2171 3087 3101 0
3087 3088 -3092 0
3087 -2910 3088 -3089 0
-3087 -3088 0
-3087 2910 3092 0
-3087 3089 3092 0
3088 -2141 2172 0
-3088 2141 0
-3088 -2172 0
3089 2144 -3090 0
-3089 -2144 0
-3089 3090 0
3090 2141 -3091 0
-3090 -2141 0
-3090 3091 0
3091 -2138 2173 0
-3091 2138 0
-3091 -2173 0
-3092 2924 3094 0
-3092 3093 3094 0
3092 -3094 0
3092 -2924 -3093 0
3093 -2144 -3090 0
-3093 2144 0
-3093 3090 0
3094 3090 3095 -3097 0
3094 -2920 3090 -3095 0
-3094 -3090 0
-3094 3095 3097 0
-3094 2920 -3095 0
3095 2144 -3096 0
-3095 -2144 0
-3095 3096 0
3096 -2141 -3091 0
-3096 2141 0
-3096 3091 0
3097 -2922 -3098 0
3097 3096 -3098 0
-3097 3098 0
-3097 2922 -3096 0
-3098 2917 3099 3100 0
-3098 2914 -3099 3100 0
3098 -3100 0
3098 -2917 3099 0
3098 -2914 -3099 0
3099 2144 -2373 0
-3099 -2144 0
-3099 2373 0
3100 -2144 -3096 0
-3100 2144 0
-3100 3096 0
-3101 3088 0
-3101 -2144 2907 0
-3101 2144 2904 0
3101 2144 -2904 -3088 0
3101 -2144 -2907 -3088 0
3102 -3086 -3103 0
3102 3103 -3106 0
-3102 3086 -3103 0
-3102 3103 3106 0
3103 -4708 -3104 0
-3103 4708 0
-3103 3104 0
3104 3026 3065 -3105 0
-3104 -3026 0
-3104 -3065 0
-3104 3105 0
3105 3028 -3066 0
-3105 -3028 0
-3105 3066 0
-3106 3075 -3107 0
-3106 3107 -3109 0
-3106 4480 3107 0
3106 -3075 -3107 0
3106 -4480 3107 3109 0
3107 -4706 -3108 0
-3107 4706 0
-3107 3108 0
3108 3029 -3071 0
-3108 -3029 0
-3108 3071 0
-3109 2877 3110 0
-3109 2203 2877 0
3109 -2877 0
3109 -2203 -3110 0
3110 -4705 -224 0
-3110 4705 0
-3110 224 0
-3111 4773 3112 3117 0
-3111 3112 3117 -3135 0
3111 -3112 0
3111 -3117 0
3111 -4773 3135 0
-3112 -4814 4820 0
-3112 3113 -3116 0
-3112 -4814 -3116 0
-3112 4820 3113 0
3112 4814 -3113 0
3112 -4820 3116 0
-3113 2128 -3114 0
-3113 2444 3114 0
3113 -2444 3114 0
3113 -2128 -3114 0
3114 -4709 -3115 0
-3114 4709 0
-3114 3115 0
3115 -2432 -2414 0
-3115 2432 0
-3115 2414 0
-3116 2865 -3114 0
-3116 2933 3114 0
3116 -2933 3114 0
3116 -2865 -3114 0
3117 4733 -3118 0
-3117 -4733 0
-3117 3118 0
3118 -3103 -3128 0
3118 3103 -3119 0
-3118 3103 3119 0
-3118 -3103 3128 0
-3119 3107 -3109 0
-3119 -3107 3120 0
-3119 4481 3107 0
3119 -3107 -3120 0
3119 -4481 3107 3109 0
-3120 2957 3121 0
-3120 2264 3121 0
3120 -3121 0
3120 -2264 -2957 0
3121 2264 2470 -3122 0
3121 2264 -2470 -2978 0
-3121 -2264 0
-3121 -2470 2978 0
-3121 2470 3122 0
3122 2467 -3127 0
3122 -2467 -2979 0
3122 2467 -3123 0
-3122 -2467 2979 0
-3122 2467 3123 3127 0
3123 3079 3083 -3124 0
3123 -2975 -3079 3083 0
-3123 -3083 0
-3123 3079 3124 0
-3123 2975 -3079 0
3124 -2456 -2968 0
3124 2456 -3125 0
-3124 -2456 2968 0
-3124 2456 3125 0
3125 -2451 -2969 0
3125 2451 -3126 0
-3125 -2451 2969 0
-3125 2451 3126 0
3126 2461 -2973 0
3126 -2461 -2971 0
-3126 -2461 2971 0
-3126 2461 2973 0
3127 -2976 -3083 0
-3127 2976 0
-3127 3083 0
3128 -2171 -2945 0
3128 2171 -3134 0
3128 2171 -3129 0
-3128 -2171 2945 0
-3128 2171 3129 3134 0
3129 3088 -3130 0
3129 -2981 3088 -3089 0
-3129 -3088 0
-3129 2981 3130 0
-3129 3089 3130 0
-3130 2995 3131 0
-3130 3093 3131 0
3130 -3131 0
3130 -2995 -3093 0
3131 3090 3095 -3132 0
3131 -2991 3090 -3095 0
-3131 -3090 0
-3131 3095 3132 0
-3131 2991 -3095 0
3132 -2993 -3133 0
3132 3096 -3133 0
-3132 3133 0
-3132 2993 -3096 0
-3133 2988 3099 3100 0
-3133 2985 -3099 3100 0
3133 -3100 0
3133 -2988 3099 0
3133 -2985 -3099 0
-3134 3088 0
-3134 -2144 3000 0
-3134 2144 2998 0
3134 2144 -2998 -3088 0
3134 -2144 -3000 -3088 0
3135 -3128 -3136 0
3135 3136 -3140 0
-3135 3128 -3136 0
-3135 3136 3140 0
3136 -3137 -3138 0
-3136 3137 0
-3136 3138 0
3137 -3027 3034 0
-3137 3027 0
-3137 -3034 0
3138 -3066 -3139 0
-3138 3066 0
-3138 3139 0
3139 -4708 -3065 0
-3139 4708 0
-3139 3065 0
-3140 3120 -3141 0
-3140 3141 3143 0
3140 -3120 -3141 0
3140 3141 -3143 0
3141 -3028 -3142 0
-3141 3028 0
-3141 3142 0
3142 -3032 3051 3074 0
-3142 -3074 0
-3142 -3051 0
-3142 3032 0
3143 -4521 2226 3144 0
-3143 4521 0
-3143 -3144 0
-3143 -2226 0
3144 -4705 -2219 0
-3144 4705 0
-3144 2219 0
-3145 4817 3146 3147 3183 0
-3145 -4817 -3146 3147 3183 0
3145 -3183 0
3145 4817 -3146 0
3145 -3147 0
3145 -4817 3146 0
-3146 2630 -3114 0
-3146 2695 3114 0
3146 -2695 3114 0
3146 -2630 -3114 0
-3147 4775 3148 3152 3177 0
-3147 -4775 3148 -3152 3177 0
3147 -3177 0
3147 4775 -3152 0
3147 -3148 0
3147 -4775 3152 0
3148 4807 -3149 0
-3148 -4807 0
-3148 3149 0
-3149 2476 -3150 0
-3149 2549 3150 0
3149 -2549 3150 0
3149 -2476 -3150 0
3150 -4709 -3151 0
-3150 4709 0
-3150 3151 0
3151 -2432 2414 0
-3151 2432 0
-3151 -2414 0
3152 -3153 -3170 0
3152 3153 -3157 0
-3152 3153 3157 0
-3152 -3153 3170 0
3153 -4708 -3154 0
-3153 4708 0
-3153 3154 0
3154 3035 3155 -3156 0
-3154 -3035 0
-3154 -3155 0
-3154 3156 0
-3155 3065 3105 0
3155 -3065 0
3155 -3105 0
3156 3027 -3063 0
-3156 -3027 0
-3156 3063 0
-3157 3158 -3166 0
-3157 3166 3168 0
3157 -3158 -3166 0
3157 3166 -3168 0
-3158 2480 3159 0
-3158 2264 3159 0
3158 -3159 0
3158 -2264 -2480 0
3159 2264 2470 -3160 0
3159 2264 -2501 -2470 0
-3159 -2264 0
-3159 2501 -2470 0
-3159 2470 3160 0
3160 -2502 -2467 0
3160 2467 -3165 0
3160 2467 -3161 0
-3160 2502 -2467 0
-3160 2467 3161 3165 0
3161 3079 3083 -3162 0
3161 -2498 -3079 3083 0
-3161 -3083 0
-3161 3079 3162 0
-3161 2498 -3079 0
3162 -2495 -2456 0
3162 2456 -3164 0
3162 2456 -3163 0
-3162 2495 -2456 0
-3162 2456 3163 3164 0
3163 -2491 2451 -2461 0
3163 -2493 2451 2461 0
-3163 -2451 0
-3163 2493 2461 0
-3163 2491 -2461 0
3164 -2496 -2451 0
-3164 2496 0
-3164 2451 0
3165 -2499 -3083 0
-3165 2499 0
-3165 3083 0
3166 -4706 -3167 0
-3166 4706 0
-3166 3167 0
3167 -3051 3067 3073 0
-3167 -3073 0
-3167 -3067 0
-3167 3051 0
3168 -4523 2223 3169 0
-3168 4523 0
-3168 -3169 0
-3168 -2223 0
3169 -2220 -3110 0
-3169 2220 0
-3169 3110 0
3170 -2171 -2478 0
3170 2171 -3176 0
3170 2171 -3171 0
-3170 -2171 2478 0
-3170 2171 3171 3176 0
3171 3088 -3172 0
3171 -2515 3088 -3089 0
-3171 -3088 0
-3171 2515 3172 0
-3171 3089 3172 0
-3172 2529 3173 0
-3172 3093 3173 0
3172 -3173 0
3172 -2529 -3093 0
3173 -2525 3090 -3174 0
3173 3090 3095 -3174 0
-3173 3174 0
-3173 -3090 0
-3173 2525 -3095 0
-3174 2527 3095 3175 0
-3174 3096 3095 3175 0
3174 -3175 0
3174 -3095 0
3174 -2527 -3096 0
3175 -2519 -3099 3100 0
3175 -2522 3099 3100 0
-3175 -3100 0
-3175 2522 3099 0
-3175 2519 -3099 0
-3176 3088 0
-3176 -2144 2534 0
-3176 2144 2532 0
3176 2144 -2532 -3088 0
3176 -2144 -2534 -3088 0
-3177 4791 -4823 -3178 3181 0
-3177 4791 4823 3178 3181 0
-3177 -4791 4823 3178 -3181 0
-3177 -4791 -4823 -3178 -3181 0
3177 -4791 3181 0
3177 4791 -3181 0
3177 -4823 3178 0
3177 4823 -3178 0
-3178 2476 -3179 0
-3178 2538 3179 0
3178 -2538 3179 0
3178 -2476 -3179 0
3179 -2434 -3180 0
-3179 2434 0
-3179 3180 0
3180 -4709 2414 0
-3180 4709 0
-3180 -2414 0
-3181 2476 -3182 0
-3181 2551 3182 0
3181 -2551 3182 0
3181 -2476 -3182 0
3182 2415 -3180 0
-3182 -2415 0
-3182 3180 0
-3183 4793 3184 3220 3227 0
-3183 -4793 3184 3220 -3227 0
3183 -3184 0
3183 -4793 3227 0
3183 -3220 0
3183 4793 -3227 0
-3184 4745 3185 3212 0
-3184 -4745 3185 -3212 0
3184 -3185 0
3184 -4745 3212 0
3184 4745 -3212 0
-3185 4737 4751 3203 0
-3185 -4751 -3186 -3203 0
-3185 4737 -4751 -3203 0
-3185 4751 -3186 3203 0
3185 4751 -3203 0
3185 -4751 3203 0
3185 -4737 3186 0
-3186 -3024 3187 0
-3186 3024 3194 0
3186 -3024 -3187 0
3186 3024 -3194 0
3187 -2171 -2631 0
3187 2171 -3193 0
3187 2171 -3188 0
-3187 -2171 2631 0
-3187 2171 3188 3193 0
3188 3088 -3189 0
3188 -2674 3088 -3089 0
-3188 -3088 0
-3188 2674 3189 0
-3188 3089 3189 0
-3189 2689 3190 0
-3189 3093 3190 0
3189 -3190 0
3189 -2689 -3093 0
3190 -2678 3090 -3191 0
3190 3090 3095 -3191 0
-3190 3191 0
-3190 -3090 0
-3190 2678 -3095 0
-3191 2687 3095 3192 0
-3191 3096 3095 3192 0
3191 -3192 0
3191 -3095 0
3191 -2687 -3096 0
3192 -2683 3099 3100 0
3192 -2681 -3099 3100 0
-3192 -3100 0
-3192 2683 3099 0
-3192 2681 -3099 0
-3193 3088 0
-3193 2144 2668 0
-3193 -2144 2671 0
3193 2144 -2668 -3088 0
3193 -2144 -2671 -3088 0
-3194 3069 -3085 0
-3194 -3069 3195 0
-3194 4485 3069 0
3194 -3069 -3195 0
3194 -4485 3069 3085 0
-3195 2633 3196 0
-3195 2264 3196 0
3195 -3196 0
3195 -2264 -2633 0
3196 2264 2470 -3197 0
3196 2264 -2470 -2654 0
-3196 -2264 0
-3196 -2470 2654 0
-3196 2470 3197 0
3197 2467 -3202 0
3197 -2467 -2655 0
3197 2467 -3198 0
-3197 -2467 2655 0
-3197 2467 3198 3202 0
3198 3079 3083 -3199 0
3198 -2648 -3079 3083 0
-3198 -3083 0
-3198 3079 3199 0
-3198 2648 -3079 0
3199 -2456 -2645 0
3199 2456 -3200 0
-3199 -2456 2645 0
-3199 2456 3200 0
3200 -2451 -2644 0
3200 2451 -3201 0
-3200 -2451 2644 0
-3200 2451 3201 0
3201 2461 -2652 0
3201 -2461 -2650 0
-3201 -2461 2650 0
-3201 2461 2652 0
3202 -2647 -3083 0
-3202 2647 0
-3202 3083 0
3203 -3170 -3204 0
3203 3204 -3206 0
-3203 3170 -3204 0
-3203 3204 3206 0
3204 -4708 -3205 0
-3204 4708 0
-3204 3205 0
3205 -3065 3105 -3137 0
-3205 3137 0
-3205 -3105 0
-3205 3065 0
-3206 3158 -3207 0
-3206 3207 -3210 0
-3206 4499 3207 0
3206 -3158 -3207 0
3206 -4499 3207 3210 0
3207 -4706 -3208 0
-3207 4706 0
-3207 3208 0
3208 -3029 -3209 0
-3208 3029 0
-3208 3209 0
3209 3030 -3142 0
-3209 -3030 0
-3209 3142 0
-3210 4705 3211 0
-3210 2208 3211 0
3210 -3211 0
3210 -4705 -2208 0
3211 -4704 -2217 0
-3211 4704 0
-3211 2217 0
-3212 3187 -3213 0
-3212 3213 3215 0
3212 -3187 -3213 0
3212 3213 -3215 0
3213 -4708 -3214 0
-3213 4708 0
-3213 3214 0
3214 -3137 3155 0
-3214 3137 0
-3214 -3155 0
-3215 3195 -3216 0
-3215 3216 -3218 0
-3215 4493 3216 0
3215 -3195 -3216 0
3215 -4493 3216 3218 0
3216 -4706 -3217 0
-3216 4706 0
-3216 3217 0
3217 3029 -3209 0
-3217 -3029 0
-3217 3209 0
-3218 2205 3219 0
-3218 224 3219 0
-3218 4705 3219 0
3218 -3219 0
3218 -4705 -224 -2205 0
3219 -4704 -2282 0
-3219 4704 0
-3219 2282 0
-3220 4777 3221 0
-3220 3221 -3224 0
3220 -3221 0
3220 -4777 3224 0
-3221 4818 -3222 3223 0
-3221 4815 -4818 -3223 0
-3221 4815 4818 3223 0
-3221 -4818 -3222 -3223 0
3221 4818 -3223 0
3221 -4818 3223 0
3221 -4815 3222 0
-3222 2476 -3114 0
-3222 2540 3114 0
3222 -2540 3114 0
3222 -2476 -3114 0
-3223 2708 -3114 0
-3223 2779 3114 0
3223 -2779 3114 0
3223 -2708 -3114 0
-3224 -3153 3187 0
-3224 3153 3225 0
3224 -3153 -3187 0
3224 3153 -3225 0
-3225 -3166 3195 0
-3225 3166 3226 0
3225 -3166 -3195 0
3225 3166 -3226 0
3226 -4525 2223 3169 0
-3226 4525 0
-3226 -3169 0
-3226 -2223 0
-3227 2630 -3182 0
-3227 2706 3182 0
3227 -2706 3182 0
3227 -2630 -3182 0
-3228 3229 3237 3272 3291 0
3228 -3291 0
3228 -3229 0
3228 -3272 0
3228 -3237 0
-3229 4799 3230 3231 3233 0
-3229 -4799 3230 -3231 3233 0
3229 -3230 0
3229 -4799 3231 0
3229 -3233 0
3229 4799 -3231 0
3230 4777 -3224 0
-3230 -4777 0
-3230 3224 0
3231 -2550 3232 0
3231 -2476 -3232 0
-3231 2476 -3232 0
-3231 2550 3232 0
3232 -4709 -2413 0
-3232 4709 0
-3232 2413 0
3233 -4769 3234 0
3233 4769 -3234 0
-3233 4769 3234 0
-3233 -4769 -3234 0
-3234 -3136 3187 0
-3234 3136 3235 0
3234 -3136 -3187 0
3234 3136 -3235 0
-3235 -3141 3195 0
-3235 3141 3236 0
3235 -3141 -3195 0
3235 3141 -3236 0
3236 -4517 2226 3144 0
-3236 4517 0
-3236 -3144 0
-3236 -2226 0
-3237 -4759 3238 3259 -3270 0
-3237 4759 3238 3259 3270 0
3237 -3238 0
3237 4759 -3270 0
3237 -3259 0
3237 -4759 3270 0
-3238 4729 3239 3257 0
-3238 -4729 3239 -3257 0
3238 -3239 0
3238 -4729 3257 0
3238 4729 -3257 0
-3239 4713 4719 3247 0
-3239 -4719 -3240 -3247 0
-3239 4713 -4719 -3247 0
-3239 4719 -3240 3247 0
3239 4719 -3247 0
3239 -4719 3247 0
3239 -4713 3240 0
-3240 3187 -3241 0
-3240 3241 3242 0
3240 -3187 -3241 0
3240 3241 -3242 0
3241 -4708 3026 3155 0
-3241 4708 0
-3241 -3026 0
-3241 -3155 0
-3242 3195 -3243 0
-3242 3243 -3245 0
-3242 4461 3243 0
3242 -3195 -3243 0
3242 -4461 3243 3245 0
3243 -4706 3029 3244 0
-3243 4706 0
-3243 -3029 0
-3243 -3244 0
-3244 3030 3072 0
3244 -3030 0
3244 -3072 0
-3245 4705 3246 0
-3245 2189 3246 0
3245 -3246 0
3245 -4705 -2189 0
3246 -4704 -2199 0
-3246 4704 0
-3246 2199 0
3247 -3170 -3248 0
3247 3248 -3250 0
-3247 3170 -3248 0
-3247 3248 3250 0
3248 -3139 3249 0
-3248 3139 0
-3248 -3249 0
-3249 3026 3105 0
3249 -3026 0
3249 -3105 0
-3250 3158 -3251 0
-3250 3251 -3253 0
-3250 4467 3251 0
3250 -3158 -3251 0
3250 -4467 3251 3253 0
3251 -4706 -3252 0
-3251 4706 0
-3251 3252 0
3252 -3029 3244 0
-3252 3029 0
-3252 -3244 0
-3253 3254 3256 0
3253 -3254 0
3253 -3256 0
3254 -4704 -3255 0
-3254 4704 0
-3254 3255 0
3255 4537 -2278 0
-3255 -4537 0
-3255 2278 0
3256 -4705 224 -2203 0
-3256 4705 0
-3256 -224 0
-3256 2203 0
-3257 -3103 3187 0
-3257 3103 3258 0
3257 -3103 -3187 0
3257 3103 -3258 0
-3258 3107 -3109 0
-3258 -3107 3195 0
-3258 4477 3107 0
3258 -3107 -3195 0
3258 -4477 3107 3109 0
-3259 4743 -4761 3268 0
-3259 -4743 3260 -3268 0
-3259 -4743 -4761 -3268 0
-3259 4743 3260 3268 0
3259 4743 -3268 0
3259 -4743 3268 0
3259 4761 -3260 0
-3260 3187 -3261 0
-3260 3261 3263 0
3260 -3187 -3261 0
3260 3261 -3263 0
3261 -4708 -3262 0
-3261 4708 0
-3261 3262 0
3262 3065 -3105 -3137 0
-3262 -3065 0
-3262 3105 0
-3262 3137 0
-3263 3195 -3264 0
-3263 3264 -3267 0
-3263 4509 3264 0
3263 -3195 -3264 0
3263 -4509 3264 3267 0
3264 -4706 -3265 0
-3264 4706 0
-3264 3265 0
3265 3029 -3266 0
-3265 -3029 0
-3265 3266 0
3266 -3030 -3142 0
-3266 3030 0
-3266 3142 0
-3267 2212 3110 0
-3267 2209 2212 0
3267 -2212 0
3267 -2209 -3110 0
3268 -3170 -3213 0
3268 3213 -3269 0
-3268 3170 -3213 0
-3268 3213 3269 0
-3269 3158 -3216 0
-3269 3216 -3218 0
-3269 4491 3216 0
3269 -3158 -3216 0
3269 -4491 3216 3218 0
3270 -3170 -3261 0
3270 3261 -3271 0
-3270 3170 -3261 0
-3270 3261 3271 0
-3271 3158 -3264 0
-3271 3264 -3267 0
-3271 4507 3264 0
3271 -3158 -3264 0
3271 -4507 3264 3267 0
-3272 4809 3273 3274 3276 0
-3272 -4809 -3273 3274 3276 0
3272 -3276 0
3272 4809 -3273 0
3272 -3274 0
3272 -4809 3273 0
-3273 2630 -3150 0
-3273 2704 3150 0
3273 -2704 3150 0
3273 -2630 -3150 0
-3274 4802 -3149 3275 0
-3274 -4802 4807 -3275 0
-3274 4802 4807 3275 0
-3274 -4802 -3149 -3275 0
3274 -4802 3275 0
3274 4802 -3275 0
3274 -4807 3149 0
-3275 2708 -3232 0
-3275 2783 3232 0
3275 -2783 3232 0
3275 -2708 -3232 0
-3276 3277 3280 3285 3287 0
3276 -3287 0
3276 -3277 0
3276 -3285 0
3276 -3280 0
-3277 -4713 4735 3278 0
-3277 -4735 3240 -3278 0
-3277 -4713 -4735 -3278 0
-3277 4735 3240 3278 0
3277 4735 -3278 0
3277 -4735 3278 0
3277 4713 -3240 0
3278 -3024 -3170 0
3278 3024 -3279 0
-3278 -3024 3170 0
-3278 3024 3279 0
-3279 3069 -3085 0
-3279 -3069 3158 0
-3279 4483 3069 0
3279 -3069 -3158 0
3279 -4483 3069 3085 0
-3280 -4711 4727 3281 -3283 0
-3280 -4711 -4727 -3281 -3283 0
-3280 4711 4727 3281 3283 0
-3280 4711 -4727 -3281 3283 0
3280 4711 -3283 0
3280 -4711 3283 0
3280 -4727 3281 0
3280 4727 -3281 0
3281 -3103 -3170 0
3281 3103 -3282 0
-3281 -3103 3170 0
-3281 3103 3282 0
-3282 3107 -3109 0
-3282 -3107 3158 0
-3282 4475 3107 0
3282 -3107 -3158 0
3282 -4475 3107 3109 0
3283 -3170 -3241 0
3283 3241 -3284 0
-3283 3170 -3241 0
-3283 3241 3284 0
-3284 3158 -3243 0
-3284 3243 -3245 0
-3284 4459 3243 0
3284 -3158 -3243 0
3284 -4459 3243 3245 0
-3285 -4810 3222 -3286 0
-3285 4810 3222 3286 0
-3285 4810 -4815 3286 0
-3285 -4810 -4815 -3286 0
3285 -4810 3286 0
3285 4810 -3286 0
3285 4815 -3222 0
-3286 2708 -3150 0
-3286 2782 3150 0
3286 -2782 3150 0
3286 -2708 -3150 0
-3287 4761 4767 3288 0
-3287 -4767 -3260 -3288 0
-3287 4761 -4767 -3288 0
-3287 4767 -3260 3288 0
3287 4767 -3288 0
3287 -4767 3288 0
3287 -4761 3260 0
3288 -3136 -3170 0
3288 3136 -3289 0
-3288 -3136 3170 0
-3288 3136 3289 0
-3289 -3141 3158 0
-3289 3141 3290 0
3289 -3141 -3158 0
3289 3141 -3290 0
3290 -4515 2226 3144 0
-3290 4515 0
-3290 -3144 0
-3290 -2226 0
-3291 4772 3292 3294 3297 0
-3291 -4772 3292 -3294 3297 0
3291 -3297 0
3291 -4772 3294 0
3291 -3292 0
3291 4772 -3294 0
-3292 -4820 4827 0
-3292 3116 -3293 0
-3292 -4820 -3293 0
-3292 4827 3116 0
3292 4820 -3116 0
3292 -4827 3293 0
-3293 2786 -3179 0
-3293 2859 3179 0
3293 -2859 3179 0
3293 -2786 -3179 0
3294 -3086 -3136 0
3294 3136 -3295 0
-3294 3086 -3136 0
-3294 3136 3295 0
-3295 3075 -3141 0
-3295 3141 3296 0
3295 -3075 -3141 0
3295 3141 -3296 0
3296 -4520 2226 3144 0
-3296 4520 0
-3296 -3144 0
-3296 -2226 0
-3297 -4741 4749 0
-3297 -3298 3300 0
-3297 4749 3300 0
-3297 -4741 -3298 0
3297 -4749 3298 0
3297 4741 -3300 0
3298 -3128 -3213 0
3298 3213 -3299 0
-3298 3128 -3213 0
-3298 3213 3299 0
-3299 3120 -3216 0
-3299 3216 -3218 0
-3299 4497 3216 0
3299 -3120 -3216 0
3299 -4497 3216 3218 0
3300 -3024 -3128 0
3300 3024 -3301 0
-3300 -3024 3128 0
-3300 3024 3301 0
-3301 -3069 3120 0
-3301 3069 3302 0
3301 -3069 -3120 0
3301 3069 -3302 0
3302 -4489 4705 2721 0
3302 -4489 2229 2721 0
-3302 4489 0
-3302 -2721 0
-3302 -4705 -2229 0
-3303 4758 3304 3339 3341 0
-3303 -4758 3304 -3339 3341 0
3303 -3341 0
3303 -4758 3339 0
3303 -3304 0
3303 4758 -3339 0
-3304 -4750 -3322 0
-3304 4762 3305 0
-3304 3305 -3322 0
-3304 -4750 4762 0
3304 -4762 3322 0
3304 4750 -3305 0
3305 -3204 -3315 0
3305 3204 -3306 0
-3305 3204 3306 0
-3305 -3204 3315 0
-3306 3207 -3210 0
-3306 -3207 3307 0
-3306 4498 3207 0
3306 -3207 -3307 0
3306 -4498 3207 3210 0
-3307 2270 3308 0
-3307 2264 3308 0
3307 -3308 0
3307 -2264 -2270 0
3308 2264 2470 -3309 0
3308 2264 -2470 -2297 0
-3308 -2264 0
-3308 -2470 2297 0
-3308 2470 3309 0
3309 2467 -3314 0
3309 -2467 -2293 0
3309 2467 -3310 0
-3309 -2467 2293 0
-3309 2467 3310 3314 0
3310 3079 3083 -3311 0
3310 -2329 -3079 3083 0
-3310 -3083 0
-3310 3079 3311 0
-3310 2329 -3079 0
3311 -2456 -2305 0
3311 2456 -3312 0
-3311 -2456 2305 0
-3311 2456 3312 0
3312 -2451 -2310 0
3312 2451 -3313 0
-3312 -2451 2310 0
-3312 2451 3313 0
3313 2461 -2323 0
3313 -2461 -2316 0
-3313 -2461 2316 0
-3313 2461 2323 0
3314 -2332 -3083 0
-3314 2332 0
-3314 3083 0
3315 -2171 -2176 0
3315 2171 -3321 0
3315 2171 -3316 0
-3315 -2171 2176 0
-3315 2171 3316 3321 0
3316 3088 -3317 0
3316 -2344 3088 -3089 0
-3316 -3088 0
-3316 2344 3317 0
-3316 3089 3317 0
-3317 2394 3318 0
-3317 3093 3318 0
3317 -3318 0
3317 -2394 -3093 0
3318 -2381 3090 -3319 0
3318 3090 3095 -3319 0
-3318 3319 0
-3318 -3090 0
-3318 2381 -3095 0
-3319 2388 3095 3320 0
-3319 3096 3095 3320 0
3319 -3320 0
3319 -3095 0
3319 -2388 -3096 0
3320 -2360 -3099 3100 0
3320 -2374 3099 3100 0
-3320 -3100 0
-3320 2374 3099 0
-3320 2360 -3099 0
-3321 3088 0
-3321 -2144 2406 0
-3321 2144 2400 0
3321 2144 -2400 -3088 0
3321 -2144 -2406 -3088 0
3322 -3261 -3332 0
3322 3261 -3323 0
-3322 3261 3323 0
-3322 -3261 3332 0
-3323 3264 -3267 0
-3323 -3264 3324 0
-3323 4510 3264 0
3323 -3264 -3324 0
3323 -4510 3264 3267 0
-3324 2724 3325 0
-3324 2264 3325 0
3324 -3325 0
3324 -2264 -2724 0
3325 2264 2470 -3326 0
3325 2264 -2470 -2745 0
-3325 -2264 0
-3325 -2470 2745 0
-3325 2470 3326 0
3326 2467 -3331 0
3326 -2467 -2746 0
3326 2467 -3327 0
-3326 -2467 2746 0
-3326 2467 3327 3331 0
3327 3079 3083 -3328 0
3327 -2742 -3079 3083 0
-3327 -3083 0
-3327 3079 3328 0
-3327 2742 -3079 0
3328 2456 -3330 0
3328 -2456 -2739 0
3328 2456 -3329 0
-3328 -2456 2739 0
-3328 2456 3329 3330 0
3329 2451 -2461 -2735 0
3329 2451 2461 -2737 0
-3329 -2451 0
-3329 -2461 2735 0
-3329 2461 2737 0
3330 -2451 -2740 0
-3330 2451 0
-3330 2740 0
3331 -2743 -3083 0
-3331 2743 0
-3331 3083 0
3332 -2171 -2710 0
3332 2171 -3338 0
3332 2171 -3333 0
-3332 -2171 2710 0
-3332 2171 3333 3338 0
3333 3088 -3334 0
3333 -2748 3088 -3089 0
-3333 -3088 0
-3333 2748 3334 0
-3333 3089 3334 0
-3334 2762 3335 0
-3334 3093 3335 0
3334 -3335 0
3334 -2762 -3093 0
3335 3090 3095 -3336 0
3335 -2758 3090 -3095 0
-3335 -3090 0
-3335 3095 3336 0
-3335 2758 -3095 0
3336 -2760 -3337 0
3336 3096 -3337 0
-3336 3337 0
-3336 2760 -3096 0
-3337 2755 3099 3100 0
-3337 2752 -3099 3100 0
3337 -3100 0
3337 -2755 3099 0
3337 -2752 -3099 0
-3338 3088 0
-3338 -2144 2767 0
-3338 2144 2765 0
3338 2144 -2765 -3088 0
3338 -2144 -2767 -3088 0
3339 -3261 -3315 0
3339 3261 -3340 0
-3339 -3261 3315 0
-3339 3261 3340 0
-3340 3264 -3267 0
-3340 -3264 3307 0
-3340 4506 3264 0
3340 -3264 -3307 0
3340 -4506 3264 3267 0
-3341 4766 3342 3361 3364 0
-3341 -4766 3342 -3361 3364 0
3341 -3342 0
3341 -4766 3361 0
3341 -3364 0
3341 4766 -3361 0
3342 4779 -3343 0
-3342 -4779 0
-3342 3343 0
3343 -3153 -3354 0
3343 3153 -3344 0
-3343 3153 3344 0
-3343 -3153 3354 0
-3344 -3166 3345 0
-3344 3166 3353 0
3344 -3166 -3345 0
3344 3166 -3353 0
-3345 2800 3346 0
-3345 2264 3346 0
3345 -3346 0
3345 -2264 -2800 0
3346 2264 2470 -3347 0
3346 2264 -2470 -2810 0
-3346 -2264 0
-3346 -2470 2810 0
-3346 2470 3347 0
3347 2467 -3352 0
3347 -2467 -2812 0
3347 2467 -3348 0
-3347 -2467 2812 0
-3347 2467 3348 3352 0
3348 3079 3083 -3349 0
3348 -2822 -3079 3083 0
-3348 -3083 0
-3348 3079 3349 0
-3348 2822 -3079 0
3349 2456 -3351 0
3349 -2456 -2819 0
3349 2456 -3350 0
-3349 -2456 2819 0
-3349 2456 3350 3351 0
3350 2451 -2461 -2815 0
3350 2451 2461 -2817 0
-3350 -2451 0
-3350 -2461 2815 0
-3350 2461 2817 0
3351 -2451 -2820 0
-3351 2451 0
-3351 2820 0
3352 -2823 -3083 0
-3352 2823 0
-3352 3083 0
3353 -4527 2223 3169 0
-3353 4527 0
-3353 -3169 0
-3353 -2223 0
3354 -2171 -2787 0
3354 2171 -3360 0
3354 2171 -3355 0
-3354 -2171 2787 0
-3354 2171 3355 3360 0
3355 3088 -3356 0
3355 -2831 3088 -3089 0
-3355 -3088 0
-3355 2831 3356 0
-3355 3089 3356 0
-3356 2845 3357 0
-3356 3093 3357 0
3356 -3357 0
3356 -2845 -3093 0
3357 3090 3095 -3358 0
3357 -2835 3090 -3095 0
-3357 -3090 0
-3357 3095 3358 0
-3357 2835 -3095 0
3358 -2843 -3359 0
3358 3096 -3359 0
-3358 3359 0
-3358 2843 -3096 0
-3359 2840 3099 3100 0
-3359 2838 -3099 3100 0
3359 -3100 0
3359 -2840 3099 0
3359 -2838 -3099 0
-3360 3088 0
-3360 -2144 2828 0
-3360 2144 2825 0
3360 2144 -2825 -3088 0
3360 -2144 -2828 -3088 0
3361 -3136 -3315 0
3361 3136 -3362 0
-3361 -3136 3315 0
-3361 3136 3362 0
-3362 -3141 3307 0
-3362 3141 3363 0
3362 -3141 -3307 0
3362 3141 -3363 0
3363 -4514 2226 3144 0
-3363 4514 0
-3363 -3144 0
-3363 -2226 0
3364 4755 -3365 0
3364 -4755 3365 0
-3364 -4755 -3365 0
-3364 4755 3365 0
3365 -3204 -3354 0
3365 3204 -3366 0
-3365 -3204 3354 0
-3365 3204 3366 0
-3366 3207 -3210 0
-3366 -3207 3345 0
-3366 4503 3207 0
3366 -3207 -3345 0
3366 -4503 3207 3210 0
-3367 4837 3368 3370 3378 0
-3367 -4837 -3368 3370 3378 0
3367 -3378 0
3367 4837 -3368 0
3367 -3370 0
3367 -4837 3368 0
-3368 2943 -3369 0
-3368 3007 3369 0
3368 -3007 3369 0
3368 -2943 -3369 0
3369 -4709 -2433 0
-3369 4709 0
-3369 2433 0
-3370 -3371 3372 0
-3370 4824 3372 0
3370 -3372 0
3370 -4824 3371 0
-3371 2553 -3179 0
-3371 2615 3179 0
3371 -2615 3179 0
3371 -2553 -3179 0
-3372 -4840 4848 0
-3372 3373 -3375 0
-3372 -4840 -3375 0
-3372 4848 3373 0
3372 4840 -3373 0
3372 -4848 3375 0
-3373 2553 -3374 0
-3373 2619 3374 0
3373 -2619 3374 0
3373 -2553 -3374 0
3374 -4709 -2453 0
-3374 4709 0
-3374 2453 0
-3375 2553 -3376 0
-3375 2624 3376 0
3375 -2624 3376 0
3375 -2553 -3376 0
3376 -2435 -3377 0
-3376 2435 0
-3376 3377 0
3377 -4709 -2416 -2414 0
-3377 4709 0
-3377 2414 0
-3377 2416 0
-3378 4778 3379 3384 0
-3378 3379 3384 -3388 0
3378 -3379 0
3378 -3384 0
3378 -4778 3388 0
-3379 4754 4763 3382 0
-3379 -4763 -3380 -3382 0
-3379 4754 -4763 -3382 0
-3379 4763 -3380 3382 0
3379 4763 -3382 0
3379 -4763 3382 0
3379 -4754 3380 0
3380 -3204 -3332 0
3380 3204 -3381 0
-3380 -3204 3332 0
-3380 3204 3381 0
-3381 3207 -3210 0
-3381 -3207 3324 0
-3381 4502 3207 0
3381 -3207 -3324 0
3381 -4502 3207 3210 0
3382 -3261 -3354 0
3382 3261 -3383 0
-3382 -3261 3354 0
-3382 3261 3383 0
-3383 3264 -3267 0
-3383 -3264 3345 0
-3383 4511 3264 0
3383 -3264 -3345 0
3383 -4511 3264 3267 0
3384 4770 -3385 0
-3384 -4770 0
-3384 3385 0
3385 -3136 -3332 0
3385 3136 -3386 0
-3385 -3136 3332 0
-3385 3136 3386 0
-3386 -3141 3324 0
-3386 3141 3387 0
3386 -3141 -3324 0
3386 3141 -3387 0
3387 -4518 2226 3144 0
-3387 4518 0
-3387 -3144 0
-3387 -2226 0
3388 -3153 -3332 0
3388 3153 -3389 0
-3388 -3153 3332 0
-3388 3153 3389 0
-3389 -3166 3324 0
-3389 3166 3390 0
3389 -3166 -3324 0
3389 3166 -3390 0
3390 -4526 2223 3169 0
-3390 4526 0
-3390 -3169 0
-3390 -2223 0
-3391 4730 3392 3415 3417 0
-3391 -4730 3392 -3415 3417 0
3391 -3417 0
3391 -4730 3415 0
3391 -3392 0
3391 4730 -3415 0
-3392 -4744 -3393 3410 0
-3392 4744 3393 3410 0
3392 -3410 0
3392 -4744 3393 0
3392 4744 -3393 0
3393 -3213 -3403 0
3393 3213 -3394 0
-3393 3213 3394 0
-3393 -3213 3403 0
-3394 3216 -3218 0
-3394 -3216 3395 0
-3394 4492 3216 0
3394 -3216 -3395 0
3394 -4492 3216 3218 0
-3395 2568 3396 0
-3395 2264 3396 0
3395 -3396 0
3395 -2264 -2568 0
3396 2264 2470 -3397 0
3396 2264 -2470 -2589 0
-3396 -2264 0
-3396 -2470 2589 0
-3396 2470 3397 0
3397 2467 -3402 0
3397 -2467 -2590 0
3397 2467 -3398 0
-3397 -2467 2590 0
-3397 2467 3398 3402 0
3398 3079 3083 -3399 0
3398 -2586 -3079 3083 0
-3398 -3083 0
-3398 3079 3399 0
-3398 2586 -3079 0
3399 2456 -3401 0
3399 -2456 -2583 0
3399 2456 -3400 0
-3399 -2456 2583 0
-3399 2456 3400 3401 0
3400 2451 -2461 -2579 0
3400 2451 2461 -2581 0
-3400 -2451 0
-3400 -2461 2579 0
-3400 2461 2581 0
3401 -2451 -2584 0
-3401 2451 0
-3401 2584 0
3402 -2587 -3083 0
-3402 2587 0
-3402 3083 0
3403 -2171 -2555 0
3403 2171 -3409 0
3403 2171 -3404 0
-3403 -2171 2555 0
-3403 2171 3404 3409 0
3404 3088 -3405 0
3404 -2592 3088 -3089 0
-3404 -3088 0
-3404 2592 3405 0
-3404 3089 3405 0
-3405 2606 3406 0
-3405 3093 3406 0
3405 -3406 0
3405 -2606 -3093 0
3406 3090 3095 -3407 0
3406 -2602 3090 -3095 0
-3406 -3090 0
-3406 3095 3407 0
-3406 2602 -3095 0
3407 -2604 -3408 0
3407 3096 -3408 0
-3407 3408 0
-3407 2604 -3096 0
-3408 2599 3099 3100 0
-3408 2596 -3099 3100 0
3408 -3100 0
3408 -2599 3099 0
3408 -2596 -3099 0
-3409 3088 0
-3409 -2144 2611 0
-3409 2144 2609 0
3409 2144 -2609 -3088 0
3409 -2144 -2611 -3088 0
-3410 -4718 -3413 0
-3410 4726 3411 0
-3410 3411 -3413 0
-3410 -4718 4726 0
3410 -4726 3413 0
3410 4718 -3411 0
3411 -3248 -3315 0
3411 3248 -3412 0
-3411 -3248 3315 0
-3411 3248 3412 0
-3412 3251 -3253 0
-3412 -3251 3307 0
-3412 4466 3251 0
3412 -3251 -3307 0
3412 -4466 3251 3253 0
3413 -3103 -3315 0
3413 3103 -3414 0
-3413 -3103 3315 0
-3413 3103 3414 0
-3414 3107 -3109 0
-3414 -3107 3307 0
-3414 4474 3107 0
3414 -3107 -3307 0
3414 -4474 3107 3109 0
3415 -3103 -3332 0
3415 3103 -3416 0
-3415 -3103 3332 0
-3415 3103 3416 0
-3416 3107 -3109 0
-3416 -3107 3324 0
-3416 4478 3107 0
3416 -3107 -3324 0
3416 -4478 3107 3109 0
-3417 -4736 -3420 0
-3417 4739 3418 0
-3417 3418 -3420 0
-3417 -4736 4739 0
3417 -4739 3420 0
3417 4736 -3418 0
3418 -3024 -3403 0
3418 3024 -3419 0
-3418 -3024 3403 0
-3418 3024 3419 0
-3419 3069 -3085 0
-3419 -3069 3395 0
-3419 4484 3069 0
3419 -3069 -3395 0
3419 -4484 3069 3085 0
3420 -3024 -3354 0
3420 3024 -3421 0
-3420 -3024 3354 0
-3420 3024 3421 0
-3421 3069 -3085 0
-3421 -3069 3345 0
-3421 4487 3069 0
3421 -3069 -3345 0
3421 -4487 3069 3085 0
-3422 4801 3423 3424 3433 0
-3422 -4801 -3423 3424 3433 0
3422 -3433 0
3422 4801 -3423 0
3422 -3424 0
3422 -4801 3423 0
-3423 2630 -3232 0
-3423 2705 3232 0
3423 -2705 3232 0
3423 -2630 -3232 0
-3424 4746 3425 3428 3431 0
-3424 -4746 3425 3428 -3431 0
3424 -3425 0
3424 4746 -3431 0
3424 -3428 0
3424 -4746 3431 0
3425 4722 -3426 0
-3425 -4722 0
-3425 3426 0
3426 -3248 -3332 0
3426 3248 -3427 0
-3426 -3248 3332 0
-3426 3248 3427 0
-3427 3251 -3253 0
-3427 -3251 3324 0
-3427 4470 3251 0
3427 -3251 -3324 0
3427 -4470 3251 3253 0
-3428 -4742 4750 0
-3428 -3305 3429 0
-3428 4750 3429 0
-3428 -4742 -3305 0
3428 -4750 3305 0
3428 4742 -3429 0
3429 -3213 -3315 0
3429 3213 -3430 0
-3429 -3213 3315 0
-3429 3213 3430 0
-3430 3216 -3218 0
-3430 -3216 3307 0
-3430 4490 3216 0
3430 -3216 -3307 0
3430 -4490 3216 3218 0
3431 -3213 -3332 0
3431 3213 -3432 0
-3431 -3213 3332 0
-3431 3213 3432 0
-3432 3216 -3218 0
-3432 -3216 3324 0
-3432 4494 3216 0
3432 -3216 -3324 0
3432 -4494 3216 3218 0
-3433 4724 3434 3436 3442 0
-3433 -4724 -3434 3436 3442 0
3433 -3442 0
3433 -4724 3434 0
3433 -3436 0
3433 4724 -3434 0
3434 -3086 -3248 0
3434 3248 -3435 0
-3434 3086 -3248 0
-3434 3248 3435 0
-3435 3075 -3251 0
-3435 3251 -3253 0
-3435 4472 3251 0
3435 -3075 -3251 0
3435 -4472 3251 3253 0
-3436 3437 3439 0
-3436 -4856 3439 0
3436 -3439 0
3436 4856 -3437 0
-3437 2553 -3438 0
-3437 2623 3438 0
3437 -2623 3438 0
3437 -2553 -3438 0
3438 -4709 -2458 0
-3438 4709 0
-3438 2458 0
-3439 -4790 3440 -3441 0
-3439 4790 3440 3441 0
-3439 4790 -4795 3441 0
-3439 -4790 -4795 -3441 0
3439 -4790 3441 0
3439 4790 -3441 0
3439 4795 -3440 0
-3440 2786 -3182 0
-3440 2863 3182 0
3440 -2863 3182 0
3440 -2786 -3182 0
-3441 2128 -3182 0
-3441 2471 3182 0
3441 -2471 3182 0
3441 -2128 -3182 0
-3442 4798 3443 3444 3446 0
-3442 -4798 -3443 3444 3446 0
3442 -3444 0
3442 4798 -3443 0
3442 -3446 0
3442 -4798 3443 0
-3443 2128 -3232 0
-3443 2468 3232 0
3443 -2468 3232 0
3443 -2128 -3232 0
3444 -4804 3445 0
-3444 4804 0
-3444 -3445 0
-3445 2865 -3232 0
-3445 2939 3232 0
3445 -2939 3232 0
3445 -2865 -3232 0
3446 -4795 3440 0
-3446 4795 0
-3446 -3440 0
-3447 3448 3455 3461 3477 0
3447 -3477 0
3447 -3448 0
3447 -3461 0
3447 -3455 0
-3448 -4768 4776 -3449 3452 0
-3448 4768 -4776 3449 -3452 0
-3448 4768 4776 3449 3452 0
-3448 -4768 -4776 -3449 -3452 0
3448 -4768 3449 0
3448 4768 -3449 0
3448 4776 -3452 0
3448 -4776 3452 0
3449 -3136 -3403 0
3449 3136 -3450 0
-3449 -3136 3403 0
-3449 3136 3450 0
-3450 -3141 3395 0
-3450 3141 3451 0
3450 -3141 -3395 0
3450 3141 -3451 0
3451 -4516 2226 3144 0
-3451 4516 0
-3451 -3144 0
-3451 -2226 0
3452 -3153 -3403 0
3452 3153 -3453 0
-3452 -3153 3403 0
-3452 3153 3453 0
-3453 -3166 3395 0
-3453 3166 3454 0
3453 -3166 -3395 0
3453 3166 -3454 0
3454 -4524 2223 3169 0
-3454 4524 0
-3454 -3169 0
-3454 -2223 0
-3455 4829 3456 3457 3460 0
-3455 -4829 3456 3457 -3460 0
3455 -3456 0
3455 -4829 3460 0
3455 -3457 0
3455 4829 -3460 0
-3456 -4824 4856 0
-3456 3371 -3437 0
-3456 -4824 -3437 0
-3456 4856 3371 0
3456 4824 -3371 0
3456 -4856 3437 0
-3457 4813 -3458 3459 0
-3457 -4813 4816 -3459 0
-3457 4813 4816 3459 0
-3457 -4813 -3458 -3459 0
3457 -4813 3459 0
3457 4813 -3459 0
3457 -4816 3458 0
-3458 2553 -3114 0
-3458 2617 3114 0
3458 -2617 3114 0
3458 -2553 -3114 0
-3459 2943 -3150 0
-3459 3016 3150 0
3459 -3016 3150 0
3459 -2943 -3150 0
-3460 2943 -3179 0
-3460 3013 3179 0
3460 -3013 3179 0
3460 -2943 -3179 0
-3461 4845 3462 3463 3470 0
-3461 -4845 -3462 3463 3470 0
3461 -3470 0
3461 4845 -3462 0
3461 -3463 0
3461 -4845 3462 0
-3462 2943 -3374 0
-3462 3006 3374 0
3462 -3006 3374 0
3462 -2943 -3374 0
-3463 4821 3464 3467 3468 0
-3463 -4821 3464 -3467 3468 0
3463 -3468 0
3463 -4821 3467 0
3463 -3464 0
3463 4821 -3467 0
-3464 4797 -4805 -3465 3466 0
-3464 4797 4805 3465 3466 0
-3464 -4797 4805 3465 -3466 0
-3464 -4797 -4805 -3465 -3466 0
3464 -4797 3466 0
3464 4797 -3466 0
3464 -4805 3465 0
3464 4805 -3465 0
-3465 2943 -3232 0
-3465 3015 3232 0
3465 -3015 3232 0
3465 -2943 -3232 0
-3466 2943 -3182 0
-3466 3017 3182 0
3466 -3017 3182 0
3466 -2943 -3182 0
-3467 2943 -3114 0
-3467 3012 3114 0
3467 -3012 3114 0
3467 -2943 -3114 0
-3468 -4792 3458 0
-3468 -4816 3469 0
-3468 -4792 -4816 0
-3468 3458 3469 0
3468 4816 -3458 0
3468 4792 -3469 0
-3469 2553 -3182 0
-3469 2628 3182 0
3469 -2628 3182 0
3469 -2553 -3182 0
-3470 4760 3471 3472 3475 0
-3470 -4760 3471 3472 -3475 0
3470 -3471 0
3470 4760 -3475 0
3470 -3472 0
3470 -4760 3475 0
3471 -4840 3373 0
-3471 4840 0
-3471 -3373 0
-3472 -4832 -3474 0
-3472 4800 3473 0
-3472 4800 -4832 0
-3472 3473 -3474 0
3472 -4800 3474 0
3472 4832 -3473 0
-3473 2553 -3369 0
-3473 2621 3369 0
3473 -2621 3369 0
3473 -2553 -3369 0
-3474 2553 -3232 0
-3474 2626 3232 0
3474 -2626 3232 0
3474 -2553 -3232 0
3475 -3261 -3403 0
3475 3261 -3476 0
-3475 -3261 3403 0
-3475 3261 3476 0
-3476 3264 -3267 0
-3476 -3264 3395 0
-3476 4508 3264 0
3476 -3264 -3395 0
3476 -4508 3264 3267 0
-3477 4706 3478 3587 0
-3477 3478 -3484 3587 0
3477 -3587 0
3477 -3478 0
3477 -4706 3484 0
-3478 -4728 -3479 3481 0
-3478 4728 3479 3481 0
3478 -3481 0
3478 -4728 3479 0
3478 4728 -3479 0
3479 -3103 -3403 0
3479 3103 -3480 0
-3479 -3103 3403 0
-3479 3103 3480 0
-3480 3107 -3109 0
-3480 -3107 3395 0
-3480 4476 3107 0
3480 -3107 -3395 0
3480 -4476 3107 3109 0
-3481 -4734 4742 0
-3481 -3429 3482 0
-3481 4742 3482 0
-3481 -4734 -3429 0
3481 -4742 3429 0
3481 4734 -3482 0
3482 -3024 -3315 0
3482 3024 -3483 0
-3482 -3024 3315 0
-3482 3024 3483 0
-3483 3069 -3085 0
-3483 -3069 3307 0
-3483 4482 3069 0
3483 -3069 -3307 0
3483 -4482 3069 3085 0
3484 -4700 3307 -3498 0
3484 -4700 -3485 -3498 0
-3484 4700 0
-3484 3498 0
-3484 -3307 3485 0
-3485 3252 3486 0
-3485 -3245 -3252 0
-3485 4458 -3252 0
3485 3252 -3486 0
3485 -4458 3245 -3252 0
3486 3108 -3487 0
3486 -4466 -3108 3253 0
-3486 3108 3487 0
-3486 -3108 -3253 0
-3486 4466 -3108 0
3487 -3070 -3488 0
3487 3070 -3495 0
3487 3070 -3489 0
-3487 -3070 3488 0
-3487 3070 3489 3495 0
3488 -4474 3109 0
-3488 4474 0
-3488 -3109 0
3489 3209 -3492 0
3489 3209 -3490 -3491 0
-3489 -3209 0
-3489 3490 3492 0
-3489 3491 3492 0
3490 -4506 3267 0
-3490 4506 0
-3490 -3267 0
3491 -3029 -3266 0
-3491 3029 0
-3491 3266 0
-3492 -3210 3493 0
-3492 3265 3493 0
-3492 4498 3493 0
3492 -3493 0
3492 -4498 3210 -3265 0
3493 3167 3266 -3494 0
3493 -3167 3266 -3363 0
-3493 -3266 0
-3493 -3167 3363 0
-3493 3167 3494 0
3494 -4522 2223 3169 0
-3494 4522 0
-3494 -3169 0
-3494 -2223 0
-3495 3209 0
-3495 -3029 3496 0
-3495 3029 3497 0
3495 3029 -3209 -3497 0
3495 -3029 -3209 -3496 0
3496 -4490 3218 0
-3496 4490 0
-3496 -3218 0
3497 -4482 3085 0
-3497 4482 0
-3497 -3085 0
-3498 -3158 3499 3586 0
-3498 3499 3510 3586 0
-3498 -3158 3510 3586 0
3498 -3499 -3510 0
3498 3158 -3499 0
3498 -3586 0
3498 3158 -3510 0
-3499 3252 3500 0
-3499 -3245 -3252 0
-3499 4459 -3252 0
3499 3252 -3500 0
3499 -4459 3245 -3252 0
3500 3108 -3501 0
3500 -4467 -3108 3253 0
-3500 3108 3501 0
-3500 -3108 -3253 0
-3500 4467 -3108 0
3501 -3070 -3502 0
3501 3070 -3507 0
3501 3070 -3503 0
-3501 -3070 3502 0
-3501 3070 3503 3507 0
3502 -4475 3109 0
-3502 4475 0
-3502 -3109 0
3503 3209 -3505 0
3503 3209 -3504 -3265 0
-3503 -3209 0
-3503 3504 3505 0
-3503 3265 3505 0
3504 -4499 3210 0
-3504 4499 0
-3504 -3210 0
-3505 -3267 3506 0
-3505 3491 3506 0
-3505 4507 3506 0
3505 -3506 0
3505 -4507 3267 -3491 0
3506 3167 -3168 3266 0
3506 -3167 3266 -3290 0
-3506 -3266 0
-3506 -3167 3290 0
-3506 3167 3168 0
-3507 3209 0
-3507 -3029 3508 0
-3507 3029 3509 0
3507 3029 -3209 -3509 0
3507 -3029 -3209 -3508 0
3508 -4491 3218 0
-3508 4491 0
-3508 -3218 0
3509 -4483 3085 0
-3509 4483 0
-3509 -3085 0
-3510 -3395 3511 0
-3510 3511 3522 0
-3510 -3395 3522 0
3510 -3511 -3522 0
3510 3395 -3511 0
3510 3395 -3522 0
-3511 3252 3512 0
-3511 -3245 -3252 0
-3511 4460 -3252 0
3511 3252 -3512 0
3511 -4460 3245 -3252 0
3512 3108 -3513 0
3512 -4468 -3108 3253 0
-3512 3108 3513 0
-3512 -3108 -3253 0
-3512 4468 -3108 0
3513 -3070 -3514 0
3513 3070 -3519 0
3513 3070 -3515 0
-3513 -3070 3514 0
-3513 3070 3515 3519 0
3514 -4476 3109 0
-3514 4476 0
-3514 -3109 0
3515 3209 -3517 0
3515 3209 -3265 -3516 0
-3515 -3209 0
-3515 3265 3517 0
-3515 3516 3517 0
3516 -4500 3210 0
-3516 4500 0
-3516 -3210 0
-3517 -3267 3518 0
-3517 3491 3518 0
-3517 4508 3518 0
3517 -3518 0
3517 -4508 3267 -3491 0
3518 3167 3266 -3454 0
3518 -3167 3266 -3451 0
-3518 -3266 0
-3518 -3167 3451 0
-3518 3167 3454 0
-3519 3209 0
-3519 -3029 3520 0
-3519 3029 3521 0
3519 3029 -3209 -3521 0
3519 -3029 -3209 -3520 0
3520 -4492 3218 0
-3520 4492 0
-3520 -3218 0
3521 -4484 3085 0
-3521 4484 0
-3521 -3085 0
-3522 -3195 3523 0
-3522 3523 3534 0
-3522 -3195 3534 0
3522 -3523 -3534 0
3522 3195 -3523 0
3522 3195 -3534 0
-3523 3252 3524 0
-3523 -3245 -3252 0
-3523 4461 -3252 0
3523 3252 -3524 0
3523 -4461 3245 -3252 0
3524 3108 -3525 0
3524 -4469 -3108 3253 0
-3524 4469 -3108 0
-3524 3108 3525 0
-3524 -3108 -3253 0
-3525 4477 -3070 0
-3525 3070 3526 0
-3525 -3070 -3109 0
3525 3070 -3526 0
3525 -4477 -3070 3109 0
-3526 -3209 3531 0
-3526 3527 3528 3531 0
3526 -3531 0
3526 3209 -3527 0
3526 3209 -3528 0
3527 3167 -3226 3266 0
3527 -3167 -3236 3266 0
-3527 -3266 0
-3527 -3167 3236 0
-3527 3167 3226 0
-3528 3266 0
-3528 -3029 3529 0
-3528 3029 3530 0
3528 3029 -3266 -3530 0
3528 -3029 -3266 -3529 0
3529 -4509 3267 0
-3529 4509 0
-3529 -3267 0
3530 -4501 3210 0
-3530 4501 0
-3530 -3210 0
-3531 3209 0
-3531 -3029 3533 0
-3531 3029 3532 0
3531 3029 -3532 -3209 0
3531 -3029 -3209 -3533 0
3532 -4485 3085 0
-3532 4485 0
-3532 -3085 0
3533 -4493 3218 0
-3533 4493 0
-3533 -3218 0
-3534 -3324 3535 0
-3534 3535 3546 0
-3534 -3324 3546 0
3534 -3535 -3546 0
3534 3324 -3535 0
3534 3324 -3546 0
-3535 3252 3536 0
-3535 -3245 -3252 0
-3535 4462 -3252 0
3535 3252 -3536 0
3535 -4462 3245 -3252 0
3536 3108 -3537 0
3536 -4470 -3108 3253 0
-3536 4470 -3108 0
-3536 3108 3537 0
-3536 -3108 -3253 0
-3537 4478 -3070 0
-3537 3070 3538 0
-3537 -3070 -3109 0
3537 3070 -3538 0
3537 -4478 -3070 3109 0
-3538 -3209 3543 0
-3538 3539 3540 3543 0
3538 -3543 0
3538 3209 -3539 0
3538 3209 -3540 0
3539 3167 3266 -3390 0
3539 -3167 3266 -3387 0
-3539 -3266 0
-3539 -3167 3387 0
-3539 3167 3390 0
-3540 3266 0
-3540 -3029 3541 0
-3540 3029 3542 0
3540 3029 -3266 -3542 0
3540 -3029 -3266 -3541 0
3541 -4510 3267 0
-3541 4510 0
-3541 -3267 0
3542 -4502 3210 0
-3542 4502 0
-3542 -3210 0
-3543 3209 0
-3543 -3029 3544 0
-3543 3029 3545 0
3543 3029 -3209 -3545 0
3543 -3029 -3209 -3544 0
3544 -4494 3218 0
-3544 4494 0
-3544 -3218 0
3545 -4486 3085 0
-3545 4486 0
-3545 -3085 0
-3546 3547 3560 0
-3546 -3345 3547 0
-3546 -3345 3560 0
3546 3345 -3547 0
3546 -3547 -3560 0
3546 3345 -3560 0
3547 3252 -3548 0
3547 -3252 -3559 0
3547 3252 -3556 0
-3547 -3252 3559 0
-3547 3252 3548 3556 0
3548 3071 -3553 0
3548 3071 3209 -3549 0
-3548 -3071 0
-3548 -3209 3553 0
-3548 3549 3553 0
-3549 -3210 3550 0
-3549 4503 3550 0
-3549 3265 3550 0
3549 -3550 0
3549 -4503 3210 -3265 0
-3550 -3267 3551 0
-3550 3491 3551 0
-3550 4511 3551 0
3550 -3551 0
3550 -4511 3267 -3491 0
3551 -3167 3266 -3552 0
3551 3167 3266 -3353 0
-3551 -3266 0
-3551 -3167 3552 0
-3551 3167 3353 0
3552 -4519 2226 3144 0
-3552 4519 0
-3552 -3144 0
-3552 -2226 0
-3553 3209 0
-3553 -3029 3555 0
-3553 3029 3554 0
3553 -3029 -3209 -3555 0
3553 3029 -3209 -3554 0
3554 -4487 3085 0
-3554 4487 0
-3554 -3085 0
3555 -4495 3218 0
-3555 4495 0
-3555 -3218 0
-3556 3108 3557 0
-3556 3070 3558 0
-3556 3557 3558 0
-3556 3070 3108 0
3556 -3070 -3557 0
3556 -3108 -3558 0
3557 -4479 3109 0
-3557 4479 0
-3557 -3109 0
3558 -4471 3253 0
-3558 4471 0
-3558 -3253 0
3559 -4463 3245 0
-3559 4463 0
-3559 -3245 0
-3560 -3075 3575 0
-3560 3561 3575 0
-3560 -3075 3561 0
-3560 3561 -3574 0
-3560 -3075 -3574 0
3560 3075 -3561 0
3560 3075 3574 -3575 0
3560 -3561 3574 -3575 0
-3561 3252 3562 0
-3561 -3245 -3252 0
-3561 4464 -3252 0
3561 3252 -3562 0
3561 -4464 3245 -3252 0
3562 3108 -3563 0
3562 -4472 -3108 3253 0
-3562 3108 3563 0
-3562 -3108 -3253 0
-3562 4472 -3108 0
3563 -3070 -3564 0
3563 3070 -3572 0
3563 3070 -3565 0
-3563 -3070 3564 0
-3563 3070 3565 3572 0
3564 -4480 3109 0
-3564 4480 0
-3564 -3109 0
-3565 3566 3569 0
-3565 -3209 3569 0
3565 -3569 0
3565 3209 -3566 0
-3566 3266 0
-3566 -3029 3568 0
-3566 3029 3567 0
3566 -3029 -3266 -3568 0
3566 3029 -3266 -3567 0
3567 -4504 3210 0
-3567 4504 0
-3567 -3210 0
3568 -4512 3267 0
-3568 4512 0
-3568 -3267 0
-3569 3209 0
-3569 -3029 3571 0
-3569 3029 3570 0
3569 3029 -3570 -3209 0
3569 -3029 -3209 -3571 0
3570 -4488 3085 0
-3570 4488 0
-3570 -3085 0
3571 -4496 3218 0
-3571 4496 0
-3571 -3218 0
3572 3142 3167 -3573 0
3572 3142 -3167 -3296 0
-3572 -3142 0
-3572 -3167 3296 0
-3572 3167 3573 0
3573 -4528 2223 3169 0
-3573 4528 0
-3573 -3169 0
-3573 -2223 0
-3574 3120 3252 0
-3574 -4465 3120 3245 0
3574 -3120 0
3574 4465 -3252 0
3574 -3245 -3252 0
-3575 3108 3252 3577 0
-3575 -3108 3252 3576 0
3575 -3252 0
3575 -3108 -3576 0
3575 3108 -3577 0
3576 -4473 3254 3256 0
-3576 4473 0
-3576 -3256 0
-3576 -3254 0
-3577 -3070 3578 0
-3577 3070 3579 3584 0
3577 -3070 -3578 0
3577 3070 -3584 0
3577 3070 -3579 0
3578 -4481 3109 0
-3578 4481 0
-3578 -3109 0
3579 3209 -3581 0
3579 3209 -3265 -3580 0
-3579 -3209 0
-3579 3265 3581 0
-3579 3580 3581 0
3580 -4505 3210 0
-3580 4505 0
-3580 -3210 0
-3581 -3267 3582 0
-3581 3491 3582 0
-3581 4513 3582 0
3581 -3582 0
3581 -4513 3267 -3491 0
3582 3167 3266 -3583 0
3582 -3143 -3167 3266 0
-3582 -3266 0
-3582 3167 3583 0
-3582 3143 -3167 0
3583 -4529 2223 3169 0
-3583 4529 0
-3583 -3169 0
-3583 -2223 0
-3584 3209 0
-3584 -3029 3585 0
-3584 3029 3302 0
3584 3029 -3209 -3302 0
3584 -3029 -3209 -3585 0
3585 -4497 3218 0
-3585 4497 0
-3585 -3218 0
3586 3307 -3485 0
-3586 -3307 0
-3586 3485 0
-3587 -4780 3588 3597 -3600 0
-3587 4780 3588 3597 3600 0
3587 -3588 0
3587 4780 -3600 0
3587 -3597 0
3587 -4780 3600 0
-3588 4819 3589 3594 3596 0
-3588 -4819 3589 3594 -3596 0
3588 -3589 0
3588 -4819 3596 0
3588 -3594 0
3588 4819 -3596 0
-3589 -4717 -3592 0
-3589 4725 3590 0
-3589 3590 -3592 0
-3589 -4717 4725 0
3589 -4725 3592 0
3589 4717 -3590 0
3590 -3128 -3241 0
3590 3241 -3591 0
-3590 3128 -3241 0
-3590 3241 3591 0
-3591 3120 -3243 0
-3591 3243 -3245 0
-3591 4465 3243 0
3591 -3120 -3243 0
3591 -4465 3243 3245 0
3592 -3128 -3248 0
3592 3248 -3593 0
-3592 3128 -3248 0
-3592 3248 3593 0
-3593 3120 -3251 0
-3593 3251 3576 0
3593 -3120 -3251 0
3593 3251 -3576 0
-3594 -4811 -3113 0
-3594 4814 3595 0
-3594 -3113 3595 0
-3594 -4811 4814 0
3594 -4814 3113 0
3594 4811 -3595 0
-3595 2786 -3150 0
-3595 2862 3150 0
3595 -2862 3150 0
3595 -2786 -3150 0
-3596 2786 -3114 0
-3596 2858 3114 0
3596 -2858 3114 0
3596 -2786 -3114 0
-3597 -4716 4717 0
-3597 -3590 3598 0
-3597 4717 3598 0
-3597 -4716 -3590 0
3597 -4717 3590 0
3597 4716 -3598 0
3598 -3086 -3241 0
3598 3241 -3599 0
-3598 3086 -3241 0
-3598 3241 3599 0
-3599 3075 -3243 0
-3599 3243 -3245 0
-3599 4464 3243 0
3599 -3075 -3243 0
3599 -4464 3243 3245 0
3600 -3086 -3153 0
3600 3153 -3601 0
-3600 3086 -3153 0
-3600 3153 3601 0
-3601 3075 -3166 0
-3601 3166 3573 0
3601 -3075 -3166 0
3601 3166 -3573 0
3602 3603 -3642 3715 3727 0
-3602 -3727 0
-3602 -3603 0
-3602 -3715 0
-3602 3642 0
-3603 3604 3613 3623 3634 0
3603 -3634 0
3603 -3604 0
3603 -3623 0
3603 -3613 0
-3604 -4771 3605 3610 -3611 0
-3604 4771 3605 3610 3611 0
3604 -3610 0
3604 4771 -3611 0
3604 -3605 0
3604 -4771 3611 0
-3605 4792 3606 3607 0
-3605 -3469 3606 3607 0
3605 -3607 0
3605 -3606 0
3605 -4792 3469 0
-3606 -4778 3380 0
-3606 -4754 3388 0
-3606 -4754 -4778 0
-3606 3380 3388 0
3606 4778 -3388 0
3606 4754 -3380 0
-3607 3375 3608 0
-3607 -4848 3608 0
3607 -3608 0
3607 4848 -3375 0
-3608 -4808 -3473 0
-3608 4832 3609 0
-3608 -3473 3609 0
-3608 -4808 4832 0
3608 -4832 3473 0
3608 4808 -3609 0
-3609 2553 -3150 0
-3609 2627 3150 0
3609 -2627 3150 0
3609 -2553 -3150 0
3610 -4770 3385 0
-3610 4770 0
-3610 -3385 0
3611 -3136 -3354 0
3611 3136 -3612 0
-3611 -3136 3354 0
-3611 3136 3612 0
-3612 -3141 3345 0
-3612 3141 3552 0
3612 -3141 -3345 0
3612 3141 -3552 0
-3613 4853 3614 3615 3616 0
-3613 -4853 -3614 3615 3616 0
3613 -3616 0
3613 4853 -3614 0
3613 -3615 0
3613 -4853 3614 0
-3614 2943 -3376 0
-3614 3010 3376 0
3614 -3010 3376 0
3614 -2943 -3376 0
-3615 -4800 4808 0
-3615 3474 -3609 0
-3615 -4800 -3609 0
-3615 4808 3474 0
3615 4800 -3474 0
3615 -4808 3609 0
-3616 -4762 3617 3620 0
-3616 3322 3617 3620 0
3616 -3620 0
3616 -3617 0
3616 4762 -3322 0
-3617 -4752 -3618 0
-3617 4752 3618 0
3617 4752 -3618 0
3617 -4752 3618 0
3618 -3204 -3403 0
3618 3204 -3619 0
-3618 -3204 3403 0
-3618 3204 3619 0
-3619 3207 -3210 0
-3619 -3207 3395 0
-3619 4500 3207 0
3619 -3207 -3395 0
3619 -4500 3207 3210 0
-3620 -4774 4779 -3621 0
-3620 4774 -3343 3621 0
-3620 4774 4779 3621 0
-3620 -4774 -3343 -3621 0
3620 4774 -3621 0
3620 -4774 3621 0
3620 -4779 3343 0
3621 -3153 -3315 0
3621 3153 -3622 0
-3621 -3153 3315 0
-3621 3153 3622 0
-3622 -3166 3307 0
-3622 3166 3494 0
3622 -3166 -3307 0
3622 3166 -3494 0
-3623 4722 3624 3629 0
-3623 -3426 3624 3629 0
3623 -3629 0
3623 -3624 0
3623 -4722 3426 0
-3624 -4720 -3627 0
-3624 4723 3625 0
-3624 3625 -3627 0
-3624 -4720 4723 0
3624 -4723 3627 0
3624 4720 -3625 0
3625 -3248 -3403 0
3625 3248 -3626 0
-3625 -3248 3403 0
-3625 3248 3626 0
-3626 3251 -3253 0
-3626 -3251 3395 0
-3626 4468 3251 0
3626 -3251 -3395 0
3626 -4468 3251 3253 0
3627 -3248 -3354 0
3627 3248 -3628 0
-3627 -3248 3354 0
-3627 3248 3628 0
-3628 3251 -3253 0
-3628 -3251 3345 0
-3628 4471 3251 0
3628 -3251 -3345 0
3628 -4471 3251 3253 0
-3629 -4731 3630 3631 -3632 0
-3629 4731 3630 3631 3632 0
3629 -3630 0
3629 4731 -3632 0
3629 -3631 0
3629 -4731 3632 0
-3630 -4739 -3418 0
-3630 4736 3420 0
-3630 4736 -4739 0
-3630 -3418 3420 0
3630 -4736 3418 0
3630 4739 -3420 0
-3631 -4723 -3625 0
-3631 4720 3627 0
-3631 4720 -4723 0
-3631 -3625 3627 0
3631 -4720 3625 0
3631 4723 -3627 0
3632 -3103 -3354 0
3632 3103 -3633 0
-3632 -3103 3354 0
-3632 3103 3633 0
-3633 3107 -3109 0
-3633 -3107 3345 0
-3633 4479 3107 0
3633 -3107 -3345 0
3633 -4479 3107 3109 0
-3634 -4738 3635 3636 -3640 0
-3634 4738 3635 3636 3640 0
3634 -3635 0
3634 4738 -3640 0
3634 -3636 0
3634 -4738 3640 0
-3635 -4726 -3482 0
-3635 4734 3413 0
-3635 3413 -3482 0
-3635 -4726 4734 0
3635 -4734 3482 0
3635 4726 -3413 0
-3636 -4747 4794 3637 -3638 0
-3636 -4747 -4794 -3637 -3638 0
-3636 4747 4794 3637 3638 0
-3636 4747 -4794 -3637 3638 0
3636 -4794 3637 0
3636 4794 -3637 0
3636 4747 -3638 0
3636 -4747 3638 0
-3637 2708 -3182 0
-3637 2784 3182 0
3637 -2784 3182 0
3637 -2708 -3182 0
3638 -3213 -3354 0
3638 3213 -3639 0
-3638 -3213 3354 0
-3638 3213 3639 0
-3639 3216 -3218 0
-3639 -3216 3345 0
-3639 4495 3216 0
3639 -3216 -3345 0
3639 -4495 3216 3218 0
3640 -3024 -3332 0
3640 3024 -3641 0
-3640 -3024 3332 0
-3640 3024 3641 0
-3641 3069 -3085 0
-3641 -3069 3324 0
-3641 4486 3069 0
3641 -3069 -3324 0
3641 -4486 3069 3085 0
3642 4707 -4956 0
3642 -4956 -3643 0
-3642 4956 0
-3642 -4707 3643 0
3643 -4701 2233 -3652 0
3643 -4701 -3644 -3652 0
-3643 4701 0
-3643 3652 0
-3643 -2233 3644 0
-3644 2183 3645 0
-3644 2402 3645 0
3644 -3645 0
3644 -2402 -2183 0
3645 2402 2408 -3646 0
3645 2402 -2408 -2403 0
-3645 -2402 0
-3645 -2408 2403 0
-3645 2408 3646 0
3646 2346 -3651 0
3646 -2346 -2409 0
3646 2346 -3647 0
-3646 -2346 2409 0
-3646 2346 3647 3651 0
3647 2383 2396 -3648 0
3647 -2383 2396 -2397 0
-3647 -2396 0
-3647 -2383 2397 0
-3647 2383 3648 0
3648 2390 -3650 0
3648 -2390 -2385 0
3648 2390 -3649 0
-3648 -2390 2385 0
-3648 2390 3649 3650 0
3649 2362 -2376 -2365 0
3649 2362 2376 -2378 0
-3649 -2362 0
-3649 -2376 2365 0
-3649 2376 2378 0
3650 -2362 -2391 0
-3650 2362 0
-3650 2391 0
3651 -2396 -2348 0
-3651 2396 0
-3651 2348 0
-3652 -2479 3653 3714 0
-3652 3653 3661 3714 0
-3652 -2479 3661 3714 0
3652 -3653 -3661 0
3652 2479 -3653 0
3652 -3714 0
3652 2479 -3661 0
-3653 2503 3654 0
-3653 2402 3654 0
3653 -3654 0
3653 -2503 -2402 0
3654 2402 2408 -3655 0
3654 2402 -2533 -2408 0
-3654 -2402 0
-3654 2533 -2408 0
-3654 2408 3655 0
3655 2346 -3660 0
3655 -2346 -2535 0
3655 2346 -3656 0
-3655 -2346 2535 0
-3655 2346 3656 3660 0
3656 2383 2396 -3657 0
3656 -2383 2396 -2530 0
-3656 -2396 0
-3656 -2383 2530 0
-3656 2383 3657 0
3657 -2526 -2390 0
3657 2390 -3659 0
3657 2390 -3658 0
-3657 2526 -2390 0
-3657 2390 3658 3659 0
3658 2362 2376 -2523 0
3658 2362 -2520 -2376 0
-3658 -2362 0
-3658 2520 -2376 0
-3658 2376 2523 0
3659 -2362 -2528 0
-3659 2362 0
-3659 2528 0
3660 -2516 -2396 0
-3660 2516 0
-3660 2396 0
-3661 -2567 3662 0
-3661 3662 3670 0
-3661 -2567 3670 0
3661 -3662 -3670 0
3661 2567 -3662 0
3661 2567 -3670 0
-3662 2556 3663 0
-3662 2402 3663 0
3662 -3663 0
3662 -2402 -2556 0
3663 2402 2408 -3664 0
3663 2402 -2408 -2610 0
-3663 -2402 0
-3663 -2408 2610 0
-3663 2408 3664 0
3664 2346 -3669 0
3664 -2346 -2612 0
3664 2346 -3665 0
-3664 -2346 2612 0
-3664 2346 3665 3669 0
3665 2383 2396 -3666 0
3665 -2383 2396 -2607 0
-3665 -2396 0
-3665 -2383 2607 0
-3665 2383 3666 0
3666 2390 -3668 0
3666 -2390 -2603 0
3666 2390 -3667 0
-3666 -2390 2603 0
-3666 2390 3667 3668 0
3667 2362 -2376 -2597 0
3667 2362 2376 -2600 0
-3667 -2362 0
-3667 -2376 2597 0
-3667 2376 2600 0
3668 -2362 -2605 0
-3668 2362 0
-3668 2605 0
3669 -2396 -2593 0
-3669 2396 0
-3669 2593 0
-3670 -2632 3671 0
-3670 3671 3679 0
-3670 -2632 3679 0
3670 -3671 -3679 0
3670 2632 -3671 0
3670 2632 -3679 0
-3671 2656 3672 0
-3671 2402 3672 0
3671 -3672 0
3671 -2402 -2656 0
3672 2402 2408 -3673 0
3672 2402 -2408 -2669 0
-3672 -2402 0
-3672 -2408 2669 0
-3672 2408 3673 0
3673 2346 -3678 0
3673 -2346 -2672 0
3673 2346 -3674 0
-3673 -2346 2672 0
-3673 2346 3674 3678 0
3674 2383 2396 -3675 0
3674 -2383 2396 -2690 0
-3674 -2396 0
-3674 -2383 2690 0
-3674 2383 3675 0
3675 2390 -3677 0
3675 -2390 -2679 0
3675 2390 -3676 0
-3675 -2390 2679 0
-3675 2390 3676 3677 0
3676 2362 -2376 -2682 0
3676 2362 2376 -2684 0
-3676 -2362 0
-3676 -2376 2682 0
-3676 2376 2684 0
3677 -2362 -2688 0
-3677 2362 0
-3677 2688 0
3678 -2396 -2675 0
-3678 2396 0
-3678 2675 0
-3679 -2723 3680 0
-3679 3680 3688 0
-3679 -2723 3688 0
3679 -3680 -3688 0
3679 2723 -3680 0
3679 2723 -3688 0
-3680 2711 3681 0
-3680 2402 3681 0
3680 -3681 0
3680 -2402 -2711 0
3681 2402 2408 -3682 0
3681 2402 -2408 -2766 0
-3681 -2402 0
-3681 -2408 2766 0
-3681 2408 3682 0
3682 2346 -3687 0
3682 -2346 -2768 0
3682 2346 -3683 0
-3682 -2346 2768 0
-3682 2346 3683 3687 0
3683 2383 2396 -3684 0
3683 -2383 2396 -2763 0
-3683 -2396 0
-3683 -2383 2763 0
-3683 2383 3684 0
3684 2390 -3686 0
3684 -2390 -2759 0
3684 2390 -3685 0
-3684 -2390 2759 0
-3684 2390 3685 3686 0
3685 2362 -2376 -2753 0
3685 2362 2376 -2756 0
-3685 -2362 0
-3685 -2376 2753 0
-3685 2376 2756 0
3686 -2362 -2761 0
-3686 2362 0
-3686 2761 0
3687 -2396 -2749 0
-3687 2396 0
-3687 2749 0
-3688 -2799 3689 0
-3688 3689 3697 0
-3688 -2799 3697 0
3688 -3689 -3697 0
3688 2799 -3689 0
3688 2799 -3697 0
-3689 2788 3690 0
-3689 2402 3690 0
3689 -3690 0
3689 -2402 -2788 0
3690 2402 2408 -3691 0
3690 2402 -2408 -2826 0
-3690 -2402 0
-3690 -2408 2826 0
-3690 2408 3691 0
3691 2346 -3696 0
3691 -2346 -2829 0
3691 2346 -3692 0
-3691 -2346 2829 0
-3691 2346 3692 3696 0
3692 2383 2396 -3693 0
3692 -2383 2396 -2846 0
-3692 -2396 0
-3692 -2383 2846 0
-3692 2383 3693 0
3693 2390 -3695 0
3693 -2390 -2836 0
3693 2390 -3694 0
-3693 -2390 2836 0
-3693 2390 3694 3695 0
3694 2362 -2376 -2839 0
3694 2362 2376 -2841 0
-3694 -2362 0
-3694 -2376 2839 0
-3694 2376 2841 0
3695 -2362 -2844 0
-3695 2362 0
-3695 2844 0
3696 -2396 -2832 0
-3696 2396 0
-3696 2832 0
-3697 3698 3706 0
-3697 -2879 3706 0
-3697 -2879 3698 0
3697 2879 -3706 0
3697 2879 -3698 0
3697 -3698 -3706 0
-3698 2867 3699 0
-3698 2402 3699 0
3698 -3699 0
3698 -2402 -2867 0
3699 2402 2408 -3700 0
3699 2402 -2408 -2905 0
-3699 -2402 0
-3699 -2408 2905 0
-3699 2408 3700 0
3700 2346 -3705 0
3700 -2346 -2908 0
3700 2346 -3701 0
-3700 -2346 2908 0
-3700 2346 3701 3705 0
3701 2383 2396 -3702 0
3701 -2383 2396 -2925 0
-3701 -2396 0
-3701 -2383 2925 0
-3701 2383 3702 0
3702 2390 -3704 0
3702 -2390 -2921 0
3702 2390 -3703 0
-3702 -2390 2921 0
-3702 2390 3703 3704 0
3703 2362 -2376 -2915 0
3703 2362 2376 -2918 0
-3703 -2362 0
-3703 -2376 2915 0
-3703 2376 2918 0
3704 -2362 -2923 0
-3704 2362 0
-3704 2923 0
3705 -2396 -2911 0
-3705 2396 0
-3705 2911 0
3706 2956 -3707 0
3706 -2402 -2946 2956 0
-3706 -2956 0
-3706 2946 3707 0
-3706 2402 3707 0
3707 2402 2408 -3708 0
3707 2402 -2408 -2999 0
-3707 -2402 0
-3707 -2408 2999 0
-3707 2408 3708 0
3708 2346 -3713 0
3708 -2346 -3001 0
3708 2346 -3709 0
-3708 -2346 3001 0
-3708 2346 3709 3713 0
3709 2383 2396 -3710 0
3709 -2383 2396 -2996 0
-3709 -2396 0
-3709 -2383 2996 0
-3709 2383 3710 0
3710 2390 -3712 0
3710 -2390 -2992 0
3710 2390 -3711 0
-3710 -2390 2992 0
-3710 2390 3711 3712 0
3711 2362 -2376 -2986 0
3711 2362 2376 -2989 0
-3711 -2362 0
-3711 -2376 2986 0
-3711 2376 2989 0
3712 -2362 -2994 0
-3712 2362 0
-3712 2994 0
3713 -2396 -2982 0
-3713 2396 0
-3713 2982 0
3714 2233 -3644 0
-3714 -2233 0
-3714 3644 0
-3715 4835 3716 3723 3726 0
-3715 -4835 3716 3723 -3726 0
3715 -3716 0
3715 -4835 3726 0
3715 -3723 0
3715 4835 -3726 0
-3716 4860 3717 3720 3722 0
-3716 -4860 3717 3720 -3722 0
3716 -3717 0
3716 -4860 3722 0
3716 -3720 0
3716 4860 -3722 0
-3717 -4843 4846 0
-3717 3718 -3719 0
-3717 -4843 -3719 0
-3717 4846 3718 0
3717 4843 -3718 0
3717 -4846 3719 0
-3718 2786 -3374 0
-3718 2851 3374 0
3718 -2851 3374 0
3718 -2786 -3374 0
-3719 2128 -3376 0
-3719 2459 3376 0
3719 -2459 3376 0
3719 -2128 -3376 0
-3720 -4836 -3718 0
-3720 4843 3721 0
-3720 -3718 3721 0
-3720 -4836 4843 0
3720 -4843 3718 0
3720 4836 -3721 0
-3721 2865 -3369 0
-3721 2930 3369 0
3721 -2930 3369 0
3721 -2865 -3369 0
-3722 2865 -3438 0
-3722 2937 3438 0
3722 -2937 3438 0
3722 -2865 -3438 0
-3723 -4828 3724 -3725 0
-3723 4828 3724 3725 0
-3723 4828 -4859 3725 0
-3723 -4828 -4859 -3725 0
3723 -4828 3725 0
3723 4828 -3725 0
3723 4859 -3724 0
-3724 2786 -3438 0
-3724 2854 3438 0
3724 -2854 3438 0
3724 -2786 -3438 0
-3725 2865 -3179 0
-3725 2934 3179 0
3725 -2934 3179 0
3725 -2865 -3179 0
-3726 2786 -3369 0
-3726 2852 3369 0
3726 -2852 3369 0
3726 -2786 -3369 0
-3727 4851 3728 3733 3734 0
-3727 -4851 3728 -3733 3734 0
3727 -3734 0
3727 -4851 3733 0
3727 -3728 0
3727 4851 -3733 0
-3728 4844 3729 3732 0
-3728 -4844 3729 -3732 0
3728 -3729 0
3728 -4844 3732 0
3728 4844 -3732 0
-3729 4838 -4854 -3730 3731 0
-3729 4838 4854 3730 3731 0
-3729 -4838 4854 3730 -3731 0
-3729 -4838 -4854 -3730 -3731 0
3729 -4838 3731 0
3729 4838 -3731 0
3729 -4854 3730 0
3729 4854 -3730 0
-3730 2128 -3438 0
-3730 2462 3438 0
3730 -2462 3438 0
3730 -2128 -3438 0
-3731 2128 -3374 0
-3731 2449 3374 0
3731 -2449 3374 0
3731 -2128 -3374 0
-3732 2865 -3374 0
-3732 2929 3374 0
3732 -2929 3374 0
3732 -2865 -3374 0
-3733 2786 -3376 0
-3733 2856 3376 0
3733 -2856 3376 0
3733 -2786 -3376 0
-3734 4852 3735 3738 3739 0
-3734 -4852 3735 3738 -3739 0
3734 -3735 0
3734 -4852 3739 0
3734 -3738 0
3734 4852 -3739 0
-3735 4830 3736 3737 0
-3735 -4830 3736 -3737 0
3735 -3736 0
3735 -4830 3737 0
3735 4830 -3737 0
-3736 -4827 4836 0
-3736 3293 -3721 0
-3736 -4827 -3721 0
-3736 4836 3293 0
3736 4827 -3293 0
3736 -4836 3721 0
-3737 2128 -3369 0
-3737 2454 3369 0
3737 -2454 3369 0
3737 -2128 -3369 0
-3738 -4846 4859 0
-3738 3719 -3724 0
-3738 -4846 -3724 0
-3738 4859 3719 0
3738 4846 -3719 0
3738 -4859 3724 0
-3739 2865 -3376 0
-3739 2936 3376 0
3739 -2936 3376 0
3739 -2865 -3376 0
3740 3741 -3776 4161 4172 0
-3740 -4172 0
-3740 -3741 0
-3740 -4161 0
-3740 3776 0
-3741 3742 3747 3754 3762 0
3741 -3762 0
3741 -3742 0
3741 -3754 0
3741 -3747 0
-3742 -4748 3743 -3745 0
-3742 4748 -4765 3745 0
-3742 -4748 -4765 -3745 0
-3742 4748 3743 3745 0
3742 4748 -3745 0
3742 -4748 3745 0
3742 4765 -3743 0
3743 -3128 -3261 0
3743 3261 -3744 0
-3743 3128 -3261 0
-3743 3261 3744 0
-3744 3120 -3264 0
-3744 3264 -3267 0
-3744 4513 3264 0
3744 -3120 -3264 0
3744 -4513 3264 3267 0
3745 -3086 -3213 0
3745 3213 -3746 0
-3745 3086 -3213 0
-3745 3213 3746 0
-3746 3075 -3216 0
-3746 3216 -3218 0
-3746 4496 3216 0
3746 -3075 -3216 0
3746 -4496 3216 3218 0
-3747 -4781 3748 3751 -3752 0
-3747 4781 3748 3751 3752 0
3747 -3751 0
3747 4781 -3752 0
3747 -3748 0
3747 -4781 3752 0
-3748 4806 -4812 -3749 3750 0
-3748 4806 4812 3749 3750 0
-3748 -4806 4812 3749 -3750 0
-3748 -4806 -4812 -3749 -3750 0
3748 -4806 3750 0
3748 4806 -3750 0
3748 -4812 3749 0
3748 4812 -3749 0
-3749 2865 -3150 0
-3749 2940 3150 0
3749 -2940 3150 0
3749 -2865 -3150 0
-3750 2128 -3150 0
-3750 2465 3150 0
3750 -2465 3150 0
3750 -2128 -3150 0
3751 -4741 3300 0
-3751 4741 0
-3751 -3300 0
3752 -3128 -3153 0
3752 3153 -3753 0
-3752 3128 -3153 0
-3752 3153 3753 0
-3753 3120 -3166 0
-3753 3166 3583 0
3753 -3120 -3166 0
3753 3166 -3583 0
-3754 -4773 3755 3759 0
-3754 3135 3755 3759 0
3754 -3759 0
3754 -3755 0
3754 4773 -3135 0
-3755 -4725 3756 0
-3755 3592 3756 0
3755 -3756 0
3755 4725 -3592 0
-3756 4796 -4803 -3757 3758 0
-3756 4796 4803 3757 3758 0
-3756 -4796 4803 3757 -3758 0
-3756 -4796 -4803 -3757 -3758 0
3756 -4796 3758 0
3756 4796 -3758 0
3756 -4803 3757 0
3756 4803 -3757 0
-3757 2786 -3232 0
-3757 2861 3232 0
3757 -2861 3232 0
3757 -2786 -3232 0
-3758 2865 -3182 0
-3758 2941 3182 0
3758 -2941 3182 0
3758 -2865 -3182 0
-3759 3445 3760 0
-3759 -4804 3760 0
3759 -3760 0
3759 4804 -3445 0
-3760 4822 -3595 3761 0
-3760 4811 -4822 -3761 0
-3760 4811 4822 3761 0
-3760 -4822 -3595 -3761 0
3760 4822 -3761 0
3760 -4822 3761 0
3760 -4811 3595 0
-3761 2128 -3179 0
-3761 2436 3179 0
3761 -2436 3179 0
3761 -2128 -3179 0
-3762 4861 3764 3768 0
-3762 -3763 3764 3768 0
3762 -3768 0
3762 -3764 0
3762 -4861 3763 0
-3763 2943 -3438 0
-3763 3009 3438 0
3763 -3009 3438 0
3763 -2943 -3438 0
-3764 -3598 3765 0
-3764 4716 3765 0
3764 -3765 0
3764 -4716 3598 0
-3765 -4757 4765 0
-3765 -3743 3766 0
-3765 4765 3766 0
-3765 -4757 -3743 0
3765 -4765 3743 0
3765 4757 -3766 0
3766 -3128 -3204 0
3766 3204 -3767 0
-3766 3128 -3204 0
-3766 3204 3767 0
-3767 3120 -3207 0
-3767 3207 -3210 0
-3767 4505 3207 0
3767 -3120 -3207 0
3767 -4505 3207 3210 0
-3768 -4764 3769 3773 -3774 0
-3768 4764 3769 3773 3774 0
3768 -3769 0
3768 4764 -3774 0
3768 -3773 0
3768 -4764 3774 0
-3769 4756 3770 3771 0
-3769 -4756 3770 -3771 0
3769 -3770 0
3769 -4756 3771 0
3769 4756 -3771 0
-3770 -4749 -3766 0
-3770 4757 3298 0
-3770 3298 -3766 0
-3770 -4749 4757 0
3770 -4757 3766 0
3770 4749 -3298 0
3771 -3086 -3204 0
3771 3204 -3772 0
-3771 3086 -3204 0
-3771 3204 3772 0
-3772 3075 -3207 0
-3772 3207 -3210 0
-3772 4504 3207 0
3772 -3075 -3207 0
3772 -4504 3207 3210 0
-3773 -4861 -3118 0
-3773 4733 3763 0
-3773 4733 -4861 0
-3773 -3118 3763 0
3773 4861 -3763 0
3773 -4733 3118 0
3774 -3086 -3261 0
3774 3261 -3775 0
-3774 3086 -3261 0
-3774 3261 3775 0
-3775 3075 -3264 0
-3775 3264 -3267 0
-3775 4512 3264 0
3775 -3075 -3264 0
3775 -4512 3264 3267 0
3776 4721 -3777 4156 4159 0
3776 -4721 -3777 4156 -4159 0
-3776 3777 0
-3776 -4721 4159 0
-3776 -4156 0
-3776 4721 -4159 0
3777 3778 3792 -3801 4017 0
-3777 -4017 0
-3777 -3778 0
-3777 3801 0
-3777 -3792 0
-3778 4893 3779 3784 3788 0
-3778 -4893 3779 -3784 3788 0
3778 -3788 0
3778 -4893 3784 0
3778 -3779 0
3778 4893 -3784 0
-3779 -4878 3780 -3783 0
-3779 4878 -4883 3783 0
-3779 -4878 -4883 -3783 0
-3779 4878 3780 3783 0
3779 4878 -3783 0
3779 -4878 3783 0
3779 4883 -3780 0
3780 -2825 3781 0
-3780 2825 0
-3780 -3781 0
-3781 2337 3088 0
-3781 2143 3782 0
-3781 3088 3782 0
-3781 2143 2337 0
3781 -2143 -3088 0
3781 -2337 -3782 0
3782 -4709 2341 0
-3782 4709 0
-3782 -2341 0
3783 -2400 3781 0
-3783 2400 0
-3783 -3781 0
3784 -3000 3785 0
-3784 3000 0
-3784 -3785 0
-3785 3786 3787 0
-3785 4708 4709 0
-3785 4709 3787 0
-3785 4708 3786 0
3785 -4709 -3786 0
3785 -4708 -3787 0
3786 -2341 -2337 0
-3786 2341 0
-3786 2337 0
3787 -2144 -3088 0
-3787 2144 0
-3787 3088 0
-3788 -4885 4896 3789 -3791 0
-3788 -4885 -4896 -3789 -3791 0
-3788 4885 4896 3789 3791 0
-3788 4885 -4896 -3789 3791 0
3788 4885 -3791 0
3788 -4885 3791 0
3788 -4896 3789 0
3788 4896 -3789 0
3789 -2592 3790 0
-3789 2592 0
-3789 -3790 0
-3790 2342 3091 0
-3790 2140 3782 0
-3790 3091 3782 0
-3790 2140 2342 0
3790 -2140 -3091 0
3790 -2342 -3782 0
3791 -2998 3781 0
-3791 2998 0
-3791 -3781 0
-3792 -4898 3793 3799 0
-3792 3793 3798 3799 0
3792 -3799 0
3792 -3793 0
3792 4898 -3798 0
-3793 -4906 -3796 0
-3793 4911 3794 0
-3793 3794 -3796 0
-3793 -4906 4911 0
3793 -4911 3796 0
3793 4906 -3794 0
3794 -2762 3795 0
-3794 2762 0
-3794 -3795 0
-3795 2353 3093 0
-3795 4708 4709 0
-3795 4709 3093 0
-3795 4708 2353 0
3795 -4709 -2353 0
3795 -4708 -3093 0
3796 -2525 3797 0
-3796 2525 0
-3796 -3797 0
-3797 2355 3096 0
-3797 2143 3782 0
-3797 3096 3782 0
-3797 2143 2355 0
3797 -2143 -3096 0
3797 -2355 -3782 0
3798 -2748 3790 0
-3798 2748 0
-3798 -3790 0
-3799 -4903 4906 -3800 0
-3799 4903 -3794 3800 0
-3799 4903 4906 3800 0
-3799 -4903 -3794 -3800 0
3799 4903 -3800 0
3799 -4903 3800 0
3799 -4906 3794 0
3800 -2529 3795 0
-3800 2529 0
-3800 -3795 0
3801 -3802 3922 3925 4007 0
-3801 -4007 0
-3801 3802 0
-3801 -3925 0
-3801 -3922 0
3802 4910 3803 3804 -3820 0
3802 -4910 -3803 3804 -3820 0
-3802 3820 0
-3802 -4910 3803 0
-3802 -3804 0
-3802 4910 -3803 0
3803 -2381 3797 0
-3803 2381 0
-3803 -3797 0
-3804 4915 3805 3816 3817 0
-3804 -4915 3805 -3816 3817 0
3804 -3817 0
3804 -4915 3816 0
3804 -3805 0
3804 4915 -3816 0
-3805 4940 3806 3811 3812 0
-3805 -4940 3806 -3811 3812 0
3805 -3812 0
3805 -4940 3811 0
3805 -3806 0
3805 4940 -3811 0
-3806 -4933 4936 -3807 3809 0
-3806 4933 -4936 3807 -3809 0
-3806 4933 4936 3807 3809 0
-3806 -4933 -4936 -3807 -3809 0
3806 -4933 3807 0
3806 4933 -3807 0
3806 4936 -3809 0
3806 -4936 3809 0
3807 -2985 3808 0
-3807 2985 0
-3807 -3808 0
-3808 -2144 3782 0
-3808 2357 2372 0
-3808 2372 3782 0
-3808 -2144 2357 0
3808 -2357 -3782 0
3808 2144 -2372 0
3809 -2599 3810 0
-3809 2599 0
-3809 -3810 0
-3810 2168 2371 0
-3810 2359 2371 0
-3810 4709 2371 0
3810 -2371 0
3810 -4709 -2168 -2359 0
3811 -2917 3810 0
-3811 2917 0
-3811 -3810 0
-3812 -4923 4928 3813 -3814 0
-3812 -4923 -4928 -3813 -3814 0
-3812 4923 4928 3813 3814 0
-3812 4923 -4928 -3813 3814 0
3812 4923 -3814 0
3812 -4923 3814 0
3812 -4928 3813 0
3812 4928 -3813 0
3813 -2596 3808 0
-3813 2596 0
-3813 -3808 0
3814 -2843 3815 0
-3814 2843 0
-3814 -3815 0
-3815 2686 3100 0
-3815 4708 4709 0
-3815 4709 3100 0
-3815 4708 2686 0
3815 -4709 -2686 0
3815 -4708 -3100 0
3816 -2835 3797 0
-3816 2835 0
-3816 -3797 0
-3817 -4909 4925 -3818 3819 0
-3817 4909 -4925 3818 -3819 0
-3817 4909 4925 3818 3819 0
-3817 -4909 -4925 -3818 -3819 0
3817 -4909 3818 0
3817 4909 -3818 0
3817 4925 -3819 0
3817 -4925 3819 0
3818 -2995 3795 0
-3818 2995 0
-3818 -3795 0
3819 -2993 3815 0
-3819 2993 0
-3819 -3815 0
3820 4918 3821 3822 -3825 0
3820 -4918 -3821 3822 -3825 0
-3820 3825 0
-3820 -4918 3821 0
-3820 -3822 0
-3820 4918 -3821 0
3821 -2388 3815 0
-3821 2388 0
-3821 -3815 0
-3822 -4912 4917 -3823 3824 0
-3822 4912 -4917 3823 -3824 0
-3822 4912 4917 3823 3824 0
-3822 -4912 -4917 -3823 -3824 0
3822 -4912 3823 0
3822 4912 -3823 0
3822 4917 -3824 0
3822 -4917 3824 0
3823 -2602 3797 0
-3823 2602 0
-3823 -3797 0
3824 -2991 3797 0
-3824 2991 0
-3824 -3797 0
3825 3826 3834 -3836 3919 0
-3825 -3919 0
-3825 -3826 0
-3825 3836 0
-3825 -3834 0
-3826 4922 3828 3831 0
-3826 -3827 3828 3831 0
3826 -3831 0
3826 -3828 0
3826 -4922 3827 0
3827 -2760 3815 0
-3827 2760 0
-3827 -3815 0
-3828 -4927 -3830 0
-3828 4930 3829 0
-3828 3829 -3830 0
-3828 -4927 4930 0
3828 -4930 3830 0
3828 4927 -3829 0
3829 -2519 3808 0
-3829 2519 0
-3829 -3808 0
3830 -2752 3808 0
-3830 2752 0
-3830 -3808 0
-3831 -4937 4938 3833 0
-3831 -4938 3832 -3833 0
-3831 -4937 -4938 -3833 0
-3831 4938 3832 3833 0
3831 4938 -3833 0
3831 -4938 3833 0
3831 4937 -3832 0
3832 -2683 3810 0
-3832 2683 0
-3832 -3810 0
3833 -2755 3810 0
-3833 2755 0
-3833 -3810 0
3834 4887 -3835 0
-3834 -4887 0
-3834 3835 0
3835 -2534 3785 0
-3835 2534 0
-3835 -3785 0
3836 4873 -3840 3885 0
3836 -3837 -3840 3885 0
-3836 -3885 0
-3836 3840 0
-3836 -4873 3837 0
3837 -2631 3838 0
-3837 2631 0
-3837 -3838 0
-3838 4709 3839 0
-3838 2129 3839 0
3838 -3839 0
3838 -4709 -2129 0
3839 -4708 -2171 0
-3839 4708 0
-3839 2171 0
3840 -4943 3841 -3857 0
3840 3841 3851 -3857 0
-3840 3857 0
-3840 -3841 0
-3840 4943 -3851 0
3841 -4862 3842 0
-3841 4862 0
-3841 -3842 0
3842 3843 -3849 0
3842 -3843 3849 0
-3842 -3843 -3849 0
-3842 3843 3849 0
3843 -2426 -3844 0
-3843 2426 0
-3843 3844 0
3844 -3845 -3848 0
-3844 3845 0
-3844 3848 0
3845 -2430 -3846 0
-3845 2430 0
-3845 3846 0
3846 -2419 -3847 0
-3846 2419 0
-3846 3847 0
3847 -2423 -3377 0
-3847 2423 0
-3847 3377 0
-3848 -2425 -2428 0
-3848 2425 2428 0
3848 2425 -2428 0
3848 -2425 2428 0
3849 2247 -3850 0
3849 -2247 3850 0
-3849 -2247 -3850 0
-3849 2247 3850 0
3850 2256 -2427 0
-3850 -2256 0
-3850 2427 0
-3851 -3852 -3853 0
-3851 3852 3853 0
3851 3852 -3853 0
3851 -3852 3853 0
-3852 -2146 -2158 0
-3852 2146 2158 0
3852 2146 -2158 0
3852 -2146 2158 0
3853 2175 -3854 0
-3853 -2175 0
-3853 3854 0
3854 2131 -3855 0
-3854 -2131 0
-3854 3855 0
3855 2339 -3856 0
-3855 -2339 0
-3855 3856 0
3856 2141 -3782 0
-3856 -2141 0
-3856 3782 0
3857 -4864 -3858 3882 0
3857 -3858 3881 3882 0
-3857 -3882 0
-3857 3858 0
-3857 4864 -3881 0
3858 -4865 -3859 -3860 0
3858 4865 3859 -3860 0
-3858 3860 0
-3858 -4865 3859 0
-3858 4865 -3859 0
3859 2430 -3846 0
3859 -2430 3846 0
-3859 -2430 -3846 0
-3859 2430 3846 0
3860 4786 3861 -3863 3879 0
3860 -4786 -3861 -3863 3879 0
-3860 -3879 0
-3860 -4786 3861 0
-3860 3863 0
-3860 4786 -3861 0
3861 3063 -3862 0
3861 -3063 3862 0
-3861 -3063 -3862 0
-3861 3063 3862 0
3862 -3027 -3138 0
-3862 3027 0
-3862 3138 0
3863 4868 3864 -3865 3877 0
3863 -4868 -3864 -3865 3877 0
-3863 -3877 0
-3863 -4868 3864 0
-3863 3865 0
-3863 4868 -3864 0
3864 4709 -2416 0
3864 -4709 2416 -2414 0
3864 -4709 -2237 2414 0
-3864 4709 2416 0
-3864 -4709 2237 2414 0
-3864 -4709 -2416 -2414 0
3865 4949 3866 -3867 -3872 0
3865 -4949 -3866 -3867 -3872 0
-3865 3872 0
-3865 4949 -3866 0
-3865 3867 0
-3865 -4949 3866 0
-3866 4709 2341 0
-3866 -4709 -2341 0
3866 -4709 2341 0
3866 4709 -2341 0
3867 -4950 -4957 -3868 -3870 0
-3867 3870 0
-3867 4950 0
-3867 3868 0
-3867 4957 0
3868 -4702 -4703 -4955 -3869 0
-3868 3869 0
-3868 4702 0
-3868 4955 0
-3868 4703 0
3869 -4698 -4951 0
-3869 4698 0
-3869 4951 0
3870 4702 -4953 4954 -3871 0
3870 -4702 -4953 -4954 -3871 0
-3870 3871 0
-3870 -4702 4954 0
-3870 4953 0
-3870 4702 -4954 0
3871 -4699 -4700 0
-3871 4699 0
-3871 4700 0
3872 -4701 2120 3873 -3875 0
-3872 -2120 0
-3872 3875 0
-3872 4701 0
-3872 -3873 0
3873 -4789 3874 0
-3873 4789 0
-3873 -3874 0
3874 -4708 3065 0
3874 4708 -3065 0
-3874 4708 3065 0
-3874 -4708 -3065 0
-3875 4705 4706 4709 3876 0
3875 -3876 0
3875 -4709 0
3875 -4705 0
3875 -4706 0
-3876 4704 4707 4708 0
3876 -4704 0
3876 -4708 0
3876 -4707 0
-3877 -4789 -4869 -3878 0
-3877 -4789 4869 3878 0
-3877 4869 3874 3878 0
-3877 -4869 3874 -3878 0
3877 4869 -3878 0
3877 -4869 3878 0
3877 4789 -3874 0
-3878 4709 2414 0
-3878 -4709 -2414 0
3878 -4709 2414 0
3878 4709 -2414 0
-3879 -2338 -3880 0
-3879 2338 3880 0
3879 2338 -3880 0
3879 -2338 3880 0
3880 4948 -3782 0
3880 -4948 3782 0
-3880 -4948 -3782 0
-3880 4948 3782 0
3881 -3845 3848 0
3881 3845 -3848 0
-3881 3845 3848 0
-3881 -3845 -3848 0
-3882 4946 -3854 3883 -3884 0
-3882 4946 3854 3883 3884 0
-3882 -4946 -3854 -3883 -3884 0
-3882 -4946 3854 -3883 3884 0
3882 -4946 3883 0
3882 4946 -3883 0
3882 3854 -3884 0
3882 -3854 3884 0
-3883 -2131 -3855 0
-3883 2131 3855 0
3883 2131 -3855 0
3883 -2131 3855 0
3884 -4945 2167 0
3884 4945 -2167 0
-3884 4945 2167 0
-3884 -4945 -2167 0
-3885 3886 3902 3909 3911 0
3885 -3911 0
3885 -3886 0
3885 -3909 0
3885 -3902 0
-3886 4863 3887 3888 3897 0
-3886 -4863 -3887 3888 3897 0
3886 -3897 0
3886 -4863 3887 0
3886 -3888 0
3886 4863 -3887 0
3887 2426 -3844 0
3887 -2426 3844 0
-3887 -2426 -3844 0
-3887 2426 3844 0
-3888 4784 3889 3892 3894 0
-3888 -4784 -3889 3892 3894 0
3888 -3894 0
3888 -4784 3889 0
3888 -3892 0
3888 4784 -3889 0
3889 3062 -3890 0
3889 -3062 3890 0
-3889 -3062 -3890 0
-3889 3062 3890 0
3890 -3047 -3891 0
-3890 3047 0
-3890 3891 0
3891 -3063 -3862 0
-3891 3063 0
-3891 3862 0
-3892 -4866 -3893 0
-3892 4866 3893 0
3892 4866 -3893 0
3892 -4866 3893 0
3893 2419 -3847 0
3893 -2419 3847 0
-3893 -2419 -3847 0
-3893 2419 3847 0
3894 -4785 3895 0
-3894 4785 0
-3894 -3895 0
3895 3890 -3896 0
-3895 -3890 0
-3895 3896 0
-3896 3061 3891 0
3896 -3061 0
3896 -3891 0
-3897 4783 4943 3898 0
-3897 -4783 4943 -3898 0
-3897 -4783 -3851 -3898 0
-3897 4783 -3851 3898 0
3897 4783 -3898 0
3897 -4783 3898 0
3897 -4943 3851 0
3898 3899 -3901 0
-3898 -3899 0
-3898 3901 0
3899 -3052 -3900 0
-3899 3052 0
-3899 3900 0
3900 -3062 -3890 0
-3900 3062 0
-3900 3890 0
-3901 3060 3900 0
3901 -3060 0
3901 -3900 0
-3902 3842 3903 3904 0
-3902 -4862 3903 3904 0
3902 -3904 0
3902 -3903 0
3902 4862 -3842 0
3903 -4864 3881 0
-3903 4864 0
-3903 -3881 0
-3904 -4942 3907 0
-3904 3905 3907 0
3904 -3907 0
3904 4942 -3905 0
3905 -2156 3906 0
3905 2163 -3906 0
-3905 2156 3906 0
-3905 -2163 -3906 0
3906 3852 -3853 0
-3906 -3852 0
-3906 3853 0
-3907 -4785 -4947 -3908 0
-3907 -4785 4947 3908 0
-3907 4947 3895 3908 0
-3907 -4947 3895 -3908 0
3907 4947 -3908 0
3907 -4947 3908 0
3907 4785 -3895 0
-3908 -2339 -3856 0
-3908 2339 3856 0
3908 2339 -3856 0
3908 -2339 3856 0
-3909 4782 3910 0
-3909 -4782 -3910 0
3909 -4782 3910 0
3909 4782 -3910 0
-3910 3036 3899 0
-3910 -3056 -3899 0
3910 -3036 3899 0
3910 3056 -3899 0
-3911 4787 3912 3915 3916 0
-3911 -4787 3912 -3915 3916 0
3911 -3916 0
3911 -4787 3915 0
3911 -3912 0
3911 4787 -3915 0
-3912 4867 3105 3913 3914 0
-3912 -4867 3105 -3913 3914 0
-3912 -4867 -3105 -3913 -3914 0
-3912 4867 -3105 3913 -3914 0
3912 -4867 3913 0
3912 4867 -3913 0
3912 3105 -3914 0
3912 -3105 3914 0
3913 2423 -3377 0
3913 -2423 3377 0
-3913 -2423 -3377 0
-3913 2423 3377 0
-3914 -4788 -3139 0
-3914 4788 3139 0
3914 4788 -3139 0
3914 -4788 3139 0
3915 3027 -3138 0
3915 -3027 3138 0
-3915 -3027 -3138 0
-3915 3027 3138 0
-3916 -3905 3917 3918 0
-3916 -3905 -3917 -3918 0
-3916 4942 3917 3918 0
-3916 4942 -3917 -3918 0
3916 3917 -3918 0
3916 -3917 3918 0
3916 -4942 3905 0
3917 -2160 2161 0
3917 2161 -3854 0
-3917 -2161 0
-3917 2160 3854 0
-3918 -4944 -2155 0
-3918 4944 2155 0
3918 4944 -2155 0
3918 -4944 2155 0
-3919 -4879 4882 -3920 0
-3919 4879 4882 3920 0
-3919 4879 3920 -3921 0
-3919 -4879 -3920 -3921 0
3919 -4879 3920 0
3919 4879 -3920 0
3919 -4882 3921 0
3920 -2532 3781 0
-3920 2532 0
-3920 -3781 0
3921 -2765 3781 0
-3921 2765 0
-3921 -3781 0
-3922 -4890 4897 -3923 3924 0
-3922 4890 -4897 3923 -3924 0
-3922 4890 4897 3923 3924 0
-3922 -4890 -4897 -3923 -3924 0
3922 -4890 3923 0
3922 4890 -3923 0
3922 4897 -3924 0
3922 -4897 3924 0
3923 -2767 3785 0
-3923 2767 0
-3923 -3785 0
3924 -2674 3790 0
-3924 2674 0
-3924 -3790 0
-3925 4887 3926 3927 0
-3925 -3835 3926 3927 0
3925 -3927 0
3925 -3926 0
3925 -4887 3835 0
3926 4882 -3921 0
-3926 -4882 0
-3926 3921 0
-3927 4881 3929 4004 0
-3927 -3928 3929 4004 0
3927 -4004 0
3927 -3929 0
3927 -4881 3928 0
3928 -2668 3781 0
-3928 2668 0
-3928 -3781 0
-3929 -3930 3931 0
-3929 4871 3931 0
3929 -3931 0
3929 -4871 3930 0
3930 -2478 3838 0
-3930 2478 0
-3930 -3838 0
3931 -4704 3940 0
3931 -4704 -2276 3932 0
-3931 4704 0
-3931 2276 -3940 0
-3931 -3932 -3940 0
3932 2299 -3939 0
3932 -4538 -2299 0
3932 2299 -3933 0
-3932 4538 -2299 0
-3932 2299 3933 3939 0
3933 2335 -3934 0
3933 2335 -3938 0
-3933 -2335 0
-3933 3934 3938 0
3934 2308 2312 -3935 0
3934 -4578 2308 -2312 0
-3934 -2308 0
-3934 2312 3935 0
-3934 4578 -2312 0
3935 -4586 -3936 0
3935 3936 -3937 0
-3935 4586 -3936 0
-3935 3936 3937 0
3936 -424 -2309 0
-3936 424 0
-3936 2309 0
-3937 4602 2325 0
-3937 4594 -2325 0
3937 -4602 2325 0
3937 -4594 -2325 0
-3938 2308 0
-3938 4562 4617 0
-3938 4570 -4617 0
3938 -4562 4617 -2308 0
3938 -4570 -4617 -2308 0
-3939 2334 2295 0
-3939 4546 4554 0
-3939 4554 2295 0
-3939 4546 2334 0
3939 -4554 -2334 0
3939 -4546 -2295 0
3940 -4698 -4003 0
3940 -4698 -3941 3994 0
-3940 4698 0
-3940 3941 4003 0
-3940 -3994 4003 0
-3941 -2634 3942 3985 0
-3941 -2634 3950 3985 0
-3941 3942 3950 3985 0
3941 -3942 -3950 0
3941 2634 -3950 0
3941 -3985 0
3941 2634 -3942 0
3942 -4541 -2299 0
3942 2299 -3949 0
3942 2299 -3943 0
-3942 4541 -2299 0
-3942 2299 3943 3949 0
-3943 4549 3944 0
-3943 2295 3944 0
3943 -3944 0
3943 -4549 -2295 0
3944 2335 -3945 0
3944 2335 -3948 0
-3944 -2335 0
-3944 3945 3948 0
3945 2308 2312 -3946 0
3945 -4581 2308 -2312 0
-3945 -2308 0
-3945 2312 3946 0
-3945 4581 -2312 0
3946 -4589 -3936 0
3946 3936 -3947 0
-3946 4589 -3936 0
-3946 3936 3947 0
-3947 4605 2325 0
-3947 4597 -2325 0
3947 -4605 2325 0
3947 -4597 -2325 0
-3948 2308 0
-3948 4565 4617 0
-3948 4573 -4617 0
3948 -4565 4617 -2308 0
3948 -4573 -4617 -2308 0
3949 -4557 -2334 0
-3949 4557 0
-3949 2334 0
-3950 3951 -3984 0
-3950 -2725 3959 0
-3950 -2725 3951 0
-3950 -2725 -3984 0
-3950 3951 3959 0
3950 2725 -3951 0
3950 2725 -3959 3984 0
3950 -3951 -3959 3984 0
3951 -4542 -2299 0
3951 2299 -3958 0
3951 2299 -3952 0
-3951 4542 -2299 0
-3951 2299 3952 3958 0
-3952 4550 3953 0
-3952 2295 3953 0
3952 -3953 0
3952 -4550 -2295 0
3953 2335 -3954 0
3953 2335 -3957 0
-3953 -2335 0
-3953 3954 3957 0
3954 2308 2312 -3955 0
3954 -4582 2308 -2312 0
-3954 -2308 0
-3954 2312 3955 0
-3954 4582 -2312 0
3955 -4590 -3936 0
3955 3936 -3956 0
-3955 4590 -3936 0
-3955 3936 3956 0
-3956 4606 2325 0
-3956 4598 -2325 0
3956 -4606 2325 0
3956 -4598 -2325 0
-3957 2308 0
-3957 4566 4617 0
-3957 4574 -4617 0
3957 -4566 4617 -2308 0
3957 -4574 -4617 -2308 0
3958 -4558 -2334 0
-3958 4558 0
-3958 2334 0
-3959 -2881 3960 3976 0
-3959 -2881 3968 3976 0
-3959 3960 3968 3976 0
3959 2881 -3960 0
3959 -3960 -3968 0
3959 -3976 0
3959 2881 -3968 0
3960 -4544 -2299 0
3960 2299 -3967 0
3960 2299 -3961 0
-3960 4544 -2299 0
-3960 2299 3961 3967 0
-3961 4552 3962 0
-3961 2295 3962 0
3961 -3962 0
3961 -4552 -2295 0
3962 2335 -3963 0
3962 2335 -3966 0
-3962 -2335 0
-3962 3963 3966 0
3963 2308 2312 -3964 0
3963 -4584 2308 -2312 0
-3963 -2308 0
-3963 2312 3964 0
-3963 4584 -2312 0
3964 -4592 -3936 0
3964 3936 -3965 0
-3964 4592 -3936 0
-3964 3936 3965 0
-3965 4608 2325 0
-3965 4600 -2325 0
3965 -4608 2325 0
3965 -4600 -2325 0
-3966 2308 0
-3966 4568 4617 0
-3966 4576 -4617 0
3966 -4568 4617 -2308 0
3966 -4576 -4617 -2308 0
3967 -4560 -2334 0
-3967 4560 0
-3967 2334 0
3968 -4545 2958 -3969 0
3968 2299 2958 -3969 0
-3968 3969 0
-3968 -2958 0
-3968 4545 -2299 0
-3969 2334 2299 3970 0
-3969 4561 2299 3970 0
3969 -3970 0
3969 -2299 0
3969 -4561 -2334 0
-3970 4553 3971 0
-3970 2295 3971 0
3970 -3971 0
3970 -4553 -2295 0
3971 2335 -3972 0
3971 2335 -3975 0
-3971 -2335 0
-3971 3972 3975 0
3972 2308 2312 -3973 0
3972 -4585 2308 -2312 0
-3972 -2308 0
-3972 2312 3973 0
-3972 4585 -2312 0
3973 -4593 -3936 0
3973 3936 -3974 0
-3973 4593 -3936 0
-3973 3936 3974 0
-3974 4609 2325 0
-3974 4601 -2325 0
3974 -4609 2325 0
3974 -4601 -2325 0
-3975 2308 0
-3975 4569 4617 0
-3975 4577 -4617 0
3975 -4569 4617 -2308 0
3975 -4577 -4617 -2308 0
3976 2801 -3977 0
-3976 -2801 0
-3976 3977 0
3977 2299 -3983 0
3977 -4543 -2299 0
3977 2299 -3978 0
-3977 4543 -2299 0
-3977 2299 3978 3983 0
3978 2335 -3979 0
3978 2335 -3982 0
-3978 -2335 0
-3978 3979 3982 0
3979 2308 2312 -3980 0
3979 -4583 2308 -2312 0
-3979 -2308 0
-3979 2312 3980 0
-3979 4583 -2312 0
3980 -4591 -3936 0
3980 3936 -3981 0
-3980 4591 -3936 0
-3980 3936 3981 0
-3981 4607 2325 0
-3981 4599 -2325 0
3981 -4607 2325 0
3981 -4599 -2325 0
-3982 2308 0
-3982 4567 4617 0
-3982 4575 -4617 0
3982 -4567 4617 -2308 0
3982 -4575 -4617 -2308 0
-3983 2334 2295 0
-3983 4551 4559 0
-3983 4559 2295 0
-3983 4551 2334 0
3983 -4559 -2334 0
3983 -4551 -2295 0
3984 -2801 3977 0
-3984 2801 0
-3984 -3977 0
3985 2569 -3986 0
-3985 -2569 0
-3985 3986 0
3986 -4540 -2299 0
3986 2299 -3993 0
3986 2299 -3987 0
-3986 4540 -2299 0
-3986 2299 3987 3993 0
-3987 4548 3988 0
-3987 2295 3988 0
3987 -3988 0
3987 -4548 -2295 0
3988 2335 -3989 0
3988 2335 -3992 0
-3988 -2335 0
-3988 3989 3992 0
3989 2308 2312 -3990 0
3989 -4580 2308 -2312 0
-3989 -2308 0
-3989 2312 3990 0
-3989 4580 -2312 0
3990 -4588 -3936 0
3990 3936 -3991 0
-3990 4588 -3936 0
-3990 3936 3991 0
-3991 4604 2325 0
-3991 4596 -2325 0
3991 -4604 2325 0
3991 -4596 -2325 0
-3992 2308 0
-3992 4564 4617 0
-3992 4572 -4617 0
3992 -4564 4617 -2308 0
3992 -4572 -4617 -2308 0
3993 -4556 -2334 0
-3993 4556 0
-3993 2334 0
-3994 2481 2569 0
-3994 -3986 -3995 0
-3994 2569 -3995 0
-3994 2481 -3986 0
3994 -2569 3986 0
3994 -2481 3995 0
3995 -4539 -2299 0
3995 2299 -4002 0
3995 2299 -3996 0
-3995 4539 -2299 0
-3995 2299 3996 4002 0
-3996 4547 3997 0
-3996 2295 3997 0
3996 -3997 0
3996 -4547 -2295 0
3997 2335 -3998 0
3997 2335 -4001 0
-3997 -2335 0
-3997 3998 4001 0
3998 2308 2312 -3999 0
3998 -4579 2308 -2312 0
-3998 -2308 0
-3998 2312 3999 0
-3998 4579 -2312 0
3999 -4587 -3936 0
3999 3936 -4000 0
-3999 4587 -3936 0
-3999 3936 4000 0
-4000 4603 2325 0
-4000 4595 -2325 0
4000 -4603 2325 0
4000 -4595 -2325 0
-4001 2308 0
-4001 4563 4617 0
-4001 4571 -4617 0
4001 -4563 4617 -2308 0
4001 -4571 -4617 -2308 0
4002 -4555 -2334 0
-4002 4555 0
-4002 2334 0
-4003 -2481 3932 0
-4003 -2276 3995 0
-4003 -2481 -2276 0
-4003 3932 3995 0
4003 2481 -3995 0
4003 2276 -3932 0
-4004 -4889 4895 0
-4004 -4005 4006 0
-4004 4895 4006 0
-4004 -4889 -4005 0
4004 -4895 4005 0
4004 4889 -4006 0
4005 -2515 3790 0
-4005 2515 0
-4005 -3790 0
4006 -2671 3785 0
-4006 2671 0
-4006 -3785 0
-4007 4008 4015 4016 0
-4007 -4874 4008 4015 0
4007 -4015 0
4007 -4008 0
4007 4874 -4016 0
-4008 4916 4009 4010 4013 0
-4008 -4916 -4009 4010 4013 0
4008 -4013 0
4008 -4916 4009 0
4008 -4010 0
4008 4916 -4009 0
4009 -2920 3797 0
-4009 2920 0
-4009 -3797 0
-4010 -4904 4908 4011 -4012 0
-4010 -4904 -4908 -4011 -4012 0
-4010 4904 4908 4011 4012 0
-4010 4904 -4908 -4011 4012 0
4010 4904 -4012 0
4010 -4904 4012 0
4010 -4908 4011 0
4010 4908 -4011 0
4011 -2924 3795 0
-4011 2924 0
-4011 -3795 0
4012 -2606 3795 0
-4012 2606 0
-4012 -3795 0
-4013 -4907 -4014 0
-4013 4907 4014 0
4013 4907 -4014 0
4013 -4907 4014 0
4014 -2845 3795 0
-4014 2845 0
-4014 -3795 0
-4015 -4895 4898 0
-4015 -3798 4005 0
-4015 4898 4005 0
-4015 -4895 -3798 0
4015 -4898 3798 0
4015 4895 -4005 0
4016 -2710 3838 0
-4016 2710 0
-4016 -3838 0
-4017 4018 4033 4130 4142 0
4017 -4142 0
4017 -4018 0
4017 -4130 0
4017 -4033 0
-4018 4931 4019 4027 0
-4018 4019 -4026 4027 0
4018 -4027 0
4018 -4019 0
4018 -4931 4026 0
-4019 -4934 4020 4023 -4025 0
-4019 4934 4020 4023 4025 0
4019 -4020 0
4019 4934 -4025 0
4019 -4023 0
4019 -4934 4025 0
-4020 -4924 4021 -4022 0
-4020 4924 -4926 4022 0
-4020 -4924 -4926 -4022 0
-4020 4924 4021 4022 0
4020 4924 -4022 0
4020 -4924 4022 0
4020 4926 -4021 0
4021 -2360 3808 0
-4021 2360 0
-4021 -3808 0
4022 -2922 3815 0
-4022 2922 0
-4022 -3815 0
-4023 -4920 4926 -4024 0
-4023 4920 -4021 4024 0
-4023 4920 4926 4024 0
-4023 -4920 -4021 -4024 0
4023 4920 -4024 0
4023 -4920 4024 0
4023 -4926 4021 0
4024 -2604 3815 0
-4024 2604 0
-4024 -3815 0
4025 -2374 3810 0
-4025 2374 0
-4025 -3810 0
4026 -2838 3808 0
-4026 2838 0
-4026 -3808 0
-4027 4932 4028 4029 4031 0
-4027 -4932 -4028 4029 4031 0
4027 -4031 0
4027 -4932 4028 0
4027 -4029 0
4027 4932 -4028 0
4028 -2914 3808 0
-4028 2914 0
-4028 -3808 0
-4029 -4941 -4030 0
-4029 4941 4030 0
4029 4941 -4030 0
4029 -4941 4030 0
4030 -2988 3810 0
-4030 2988 0
-4030 -3810 0
-4031 -4931 4939 4032 0
-4031 -4939 4026 -4032 0
-4031 -4931 -4939 -4032 0
-4031 4939 4026 4032 0
4031 4939 -4032 0
4031 -4939 4032 0
4031 4931 -4026 0
4032 -2840 3810 0
-4032 2840 0
-4032 -3810 0
-4033 4034 4044 4047 4053 0
4033 -4053 0
4033 -4034 0
4033 -4047 0
4033 -4044 0
-4034 4913 4035 4037 4038 0
-4034 -4913 4035 -4037 4038 0
4034 -4038 0
4034 -4913 4037 0
4034 -4035 0
4034 4913 -4037 0
-4035 -4930 -4036 0
-4035 4935 3830 0
-4035 3830 -4036 0
-4035 -4930 4935 0
4035 -4935 4036 0
4035 4930 -3830 0
4036 -2522 3810 0
-4036 2522 0
-4036 -3810 0
4037 -2678 3797 0
-4037 2678 0
-4037 -3797 0
-4038 -4922 4039 4042 0
-4038 3827 4039 4042 0
4038 -4042 0
4038 -4039 0
4038 4922 -3827 0
-4039 -4914 4919 4041 0
-4039 -4919 4040 -4041 0
-4039 -4914 -4919 -4041 0
-4039 4919 4040 4041 0
4039 4919 -4041 0
4039 -4919 4041 0
4039 4914 -4040 0
4040 -2758 3797 0
-4040 2758 0
-4040 -3797 0
4041 -2527 3815 0
-4041 2527 0
-4041 -3815 0
-4042 4921 4927 0
-4042 -3829 -4043 0
-4042 4927 -4043 0
-4042 4921 -3829 0
4042 -4927 3829 0
4042 -4921 4043 0
4043 -2687 3815 0
-4043 2687 0
-4043 -3815 0
-4044 -4875 4877 -4045 4046 0
-4044 4875 -4877 4045 -4046 0
-4044 4875 4877 4045 4046 0
-4044 -4875 -4877 -4045 -4046 0
4044 -4875 4045 0
4044 4875 -4045 0
4044 4877 -4046 0
4044 -4877 4046 0
4045 -2787 3838 0
-4045 2787 0
-4045 -3838 0
4046 -2945 3838 0
-4046 2945 0
-4046 -3838 0
-4047 4905 4048 4049 4050 0
-4047 -4905 4048 -4049 4050 0
4047 -4050 0
4047 4905 -4049 0
4047 -4048 0
4047 -4905 4049 0
4048 -4874 4016 0
-4048 4874 0
-4048 -4016 0
4049 -2689 3795 0
-4049 2689 0
-4049 -3795 0
-4050 -4871 4051 4052 0
-4050 3930 4051 4052 0
4050 -4051 0
4050 -4052 0
4050 4871 -3930 0
-4051 -4881 -4006 0
-4051 4889 3928 0
-4051 3928 -4006 0
-4051 -4881 4889 0
4051 -4889 4006 0
4051 4881 -3928 0
4052 4873 -3837 0
-4052 -4873 0
-4052 3837 0
-4053 -4054 4126 4128 0
-4053 4705 4126 4128 0
4053 -4126 0
4053 -4128 0
4053 -4705 4054 0
4054 -4699 -4055 -4066 0
4054 -4699 2188 -4066 0
-4054 4699 0
-4054 4066 0
-4054 -2188 4055 0
4055 -4618 -2405 0
4055 2405 -4065 0
4055 2405 -4056 0
-4055 4618 -2405 0
-4055 2405 4056 4065 0
-4056 -2351 2411 0
-4056 4626 4057 0
-4056 4626 -2351 0
-4056 2411 4057 0
4056 2351 -4057 0
4056 -4626 -2411 0
-4057 4650 4058 4063 0
-4057 2387 4058 4063 0
4057 -4063 0
4057 -4058 0
4057 -4650 -2387 0
4058 2393 4059 -4060 0
4058 -4658 -2393 4059 0
-4058 -4059 0
-4058 2393 4060 0
-4058 4658 -2393 0
4059 4696 -2368 0
-4059 -4696 0
-4059 2368 0
4060 -4666 -4061 0
4060 4061 -4062 0
-4060 4666 -4061 0
-4060 4061 4062 0
4061 -767 -2368 0
-4061 767 0
-4061 2368 0
4062 -4682 2123 0
4062 -4674 -2123 0
-4062 4682 2123 0
-4062 4674 -2123 0
4063 -4642 -4064 0
-4063 4642 0
-4063 4064 0
4064 4697 -4059 0
-4064 -4697 0
-4064 4059 0
4065 -4634 -2350 0
-4065 4634 0
-4065 2350 0
-4066 -2504 4067 4125 0
-4066 4067 4075 4125 0
-4066 -2504 4075 4125 0
4066 2504 -4067 0
4066 -4067 -4075 0
4066 -4125 0
4066 2504 -4075 0
4067 -4619 -2405 0
4067 2405 -4074 0
4067 2405 -4068 0
-4067 4619 -2405 0
-4067 2405 4068 4074 0
-4068 -2351 2411 0
-4068 4627 4069 0
-4068 4627 -2351 0
-4068 2411 4069 0
4068 2351 -4069 0
4068 -4627 -2411 0
-4069 4651 4070 4073 0
-4069 2387 4070 4073 0
4069 -4073 0
4069 -4070 0
4069 -4651 -2387 0
4070 -4659 -2393 4059 0
4070 2393 -4071 4059 0
-4070 -4059 0
-4070 4659 -2393 0
-4070 2393 4071 0
4071 -4667 -4061 0
4071 4061 -4072 0
-4071 4667 -4061 0
-4071 4061 4072 0
4072 -4683 2123 0
4072 -4675 -2123 0
-4072 4683 2123 0
-4072 4675 -2123 0
4073 -4643 -4064 0
-4073 4643 0
-4073 4064 0
4074 -4635 -2350 0
-4074 4635 0
-4074 2350 0
-4075 4076 4083 0
-4075 -2557 4076 0
-4075 -2557 4083 0
4075 2557 -4076 0
4075 -4076 -4083 0
4075 2557 -4083 0
4076 2405 -4082 0
4076 -4620 -2405 0
4076 2405 -4077 0
-4076 4620 -2405 0
-4076 2405 4077 4082 0
4077 2351 -4078 0
4077 2351 -4081 0
-4077 -2351 0
-4077 4078 4081 0
4078 2393 4059 -4079 0
4078 -4660 -2393 4059 0
-4078 -4059 0
-4078 2393 4079 0
-4078 4660 -2393 0
4079 -4668 -4061 0
4079 4061 -4080 0
-4079 4668 -4061 0
-4079 4061 4080 0
4080 -4684 2123 0
4080 -4676 -2123 0
-4080 4684 2123 0
-4080 4676 -2123 0
-4081 2387 4064 0
-4081 4644 4652 0
-4081 4652 4064 0
-4081 4644 2387 0
4081 -4652 -2387 0
4081 -4644 -4064 0
-4082 2350 2411 0
-4082 4628 4636 0
-4082 4636 2411 0
-4082 4628 2350 0
4082 -4636 -2350 0
4082 -4628 -2411 0
-4083 4084 4091 0
-4083 -2657 4084 0
-4083 -2657 4091 0
4083 2657 -4084 0
4083 -4084 -4091 0
4083 2657 -4091 0
4084 2405 -4090 0
4084 -4621 -2405 0
4084 2405 -4085 0
-4084 4621 -2405 0
-4084 2405 4085 4090 0
4085 2351 -4086 0
4085 2351 -4089 0
-4085 -2351 0
-4085 4086 4089 0
4086 2393 4059 -4087 0
4086 -4661 -2393 4059 0
-4086 -4059 0
-4086 2393 4087 0
-4086 4661 -2393 0
4087 -4669 -4061 0
4087 4061 -4088 0
-4087 4669 -4061 0
-4087 4061 4088 0
4088 -4685 2123 0
4088 -4677 -2123 0
-4088 4685 2123 0
-4088 4677 -2123 0
-4089 2387 4064 0
-4089 4645 4653 0
-4089 4653 4064 0
-4089 4645 2387 0
4089 -4653 -2387 0
4089 -4645 -4064 0
-4090 2350 2411 0
-4090 4629 4637 0
-4090 4637 2411 0
-4090 4629 2350 0
4090 -4637 -2350 0
4090 -4629 -2411 0
-4091 4092 4099 0
-4091 -2712 4092 0
-4091 -2712 4099 0
4091 2712 -4092 0
4091 -4092 -4099 0
4091 2712 -4099 0
4092 2405 -4098 0
4092 -4622 -2405 0
4092 2405 -4093 0
-4092 4622 -2405 0
-4092 2405 4093 4098 0
4093 2351 -4094 0
4093 2351 -4097 0
-4093 -2351 0
-4093 4094 4097 0
4094 2393 4059 -4095 0
4094 -4662 -2393 4059 0
-4094 -4059 0
-4094 2393 4095 0
-4094 4662 -2393 0
4095 -4670 -4061 0
4095 4061 -4096 0
-4095 4670 -4061 0
-4095 4061 4096 0
4096 -4686 2123 0
4096 -4678 -2123 0
-4096 4686 2123 0
-4096 4678 -2123 0
-4097 2387 4064 0
-4097 4646 4654 0
-4097 4654 4064 0
-4097 4646 2387 0
4097 -4654 -2387 0
4097 -4646 -4064 0
-4098 2350 2411 0
-4098 4630 4638 0
-4098 4638 2411 0
-4098 4630 2350 0
4098 -4638 -2350 0
4098 -4630 -2411 0
-4099 4100 4108 0
-4099 -2789 4100 0
-4099 -2789 4108 0
4099 2789 -4100 0
4099 -4100 -4108 0
4099 2789 -4108 0
4100 -4623 -2405 0
4100 2405 -4107 0
4100 2405 -4101 0
-4100 4623 -2405 0
-4100 2405 4101 4107 0
-4101 -2351 2411 0
-4101 4631 4102 0
-4101 4631 -2351 0
-4101 2411 4102 0
4101 2351 -4102 0
4101 -4631 -2411 0
-4102 4655 4103 4106 0
-4102 2387 4103 4106 0
4102 -4106 0
4102 -4103 0
4102 -4655 -2387 0
4103 2393 4059 -4104 0
4103 -4663 -2393 4059 0
-4103 -4059 0
-4103 2393 4104 0
-4103 4663 -2393 0
4104 -4671 -4061 0
4104 4061 -4105 0
-4104 4671 -4061 0
-4104 4061 4105 0
4105 -4687 2123 0
4105 -4679 -2123 0
-4105 4687 2123 0
-4105 4679 -2123 0
4106 -4647 -4064 0
-4106 4647 0
-4106 4064 0
4107 -4639 -2350 0
-4107 4639 0
-4107 2350 0
-4108 -2868 4117 0
-4108 4109 4117 0
-4108 -2868 4109 0
4108 2868 -4109 0
4108 -4109 -4117 0
4108 2868 -4117 0
4109 -4624 -2405 0
4109 2405 -4116 0
4109 2405 -4110 0
-4109 4624 -2405 0
-4109 2405 4110 4116 0
-4110 2351 4111 0
-4110 4697 -2351 0
-4110 4640 -2351 0
4110 2351 -4111 0
4110 -4640 -4697 -2351 0
-4111 4656 4112 4115 0
-4111 2387 4112 4115 0
4111 -4115 0
4111 -4112 0
4111 -4656 -2387 0
4112 2393 4059 -4113 0
4112 -4664 -2393 4059 0
-4112 -4059 0
-4112 2393 4113 0
-4112 4664 -2393 0
4113 -4672 -4061 0
4113 4061 -4114 0
-4113 4672 -4061 0
-4113 4061 4114 0
4114 -4688 2123 0
4114 -4680 -2123 0
-4114 4688 2123 0
-4114 4680 -2123 0
4115 -4648 -4064 0
-4115 4648 0
-4115 4064 0
4116 -4632 -2411 0
-4116 4632 0
-4116 2411 0
4117 2405 2947 -4118 0
4117 -4625 -2405 2947 0
-4117 -2947 0
-4117 4625 -2405 0
-4117 2405 4118 0
-4118 4633 4119 4124 0
-4118 2411 4119 4124 0
4118 -4124 0
4118 -4119 0
4118 -4633 -2411 0
4119 2351 -4120 0
4119 -4649 2351 -4064 0
-4119 -2351 0
-4119 4649 4120 0
-4119 4064 4120 0
-4120 4657 4121 0
-4120 2387 4121 0
4120 -4121 0
4120 -4657 -2387 0
4121 2393 4059 -4122 0
4121 -4665 -2393 4059 0
-4121 -4059 0
-4121 4665 -2393 0
-4121 2393 4122 0
-4122 4673 -4061 0
-4122 4061 4123 0
4122 -4673 -4061 0
4122 4061 -4123 0
4123 -4689 2123 0
4123 -4681 -2123 0
-4123 4689 2123 0
-4123 4681 -2123 0
4124 -4641 -2350 0
-4124 4641 0
-4124 2350 0
4125 2188 -4055 0
-4125 -2188 0
-4125 4055 0
-4126 -4872 4043 -4127 0
-4126 4872 -4921 4127 0
-4126 -4872 -4921 -4127 0
-4126 4872 4043 4127 0
4126 4872 -4127 0
4126 -4872 4127 0
4126 4921 -4043 0
4127 -2555 3838 0
-4127 2555 0
-4127 -3838 0
4128 4876 -4129 0
4128 -4876 4129 0
-4128 -4876 -4129 0
-4128 4876 4129 0
4129 -2866 3838 0
-4129 2866 0
-4129 -3838 0
-4130 4886 4131 4134 4135 0
-4130 -4886 4131 -4134 4135 0
4130 -4135 0
4130 -4886 4134 0
4130 -4131 0
4130 4886 -4134 0
-4131 -4894 4900 4133 0
-4131 -4900 4132 -4133 0
-4131 -4894 -4900 -4133 0
-4131 4900 4132 4133 0
4131 4900 -4133 0
4131 -4900 4133 0
4131 4894 -4132 0
4132 -2344 3790 0
-4132 2344 0
-4132 -3790 0
4133 -2910 3790 0
-4133 2910 0
-4133 -3790 0
4134 -2406 3785 0
-4134 2406 0
-4134 -3785 0
-4135 4884 4136 4138 4139 0
-4135 -4884 4136 -4138 4139 0
4135 -4139 0
4135 -4884 4138 0
4135 -4136 0
4135 4884 -4138 0
-4136 4894 4901 4137 0
-4136 -4901 -4132 -4137 0
-4136 4894 -4901 -4137 0
-4136 4901 -4132 4137 0
4136 4901 -4137 0
4136 -4901 4137 0
4136 -4894 4132 0
4137 -2981 3790 0
-4137 2981 0
-4137 -3790 0
4138 -2904 3781 0
-4138 2904 0
-4138 -3781 0
-4139 -4880 4899 -4140 4141 0
-4139 4880 -4899 4140 -4141 0
-4139 4880 4899 4140 4141 0
-4139 -4880 -4899 -4140 -4141 0
4139 -4880 4140 0
4139 4880 -4140 0
4139 4899 -4141 0
4139 -4899 4141 0
4140 -2609 3781 0
-4140 2609 0
-4140 -3781 0
4141 -2831 3790 0
-4141 2831 0
-4141 -3790 0
-4142 4870 4143 4144 4148 0
-4142 -4870 -4143 4144 4148 0
4142 -4148 0
4142 -4870 4143 0
4142 -4144 0
4142 4870 -4143 0
4143 -2176 3838 0
-4143 2176 0
-4143 -3838 0
-4144 -4935 4145 4146 0
-4144 4036 4145 4146 0
4144 -4146 0
4144 -4145 0
4144 4935 -4036 0
-4145 -4911 -4040 0
-4145 4914 3796 0
-4145 3796 -4040 0
-4145 -4911 4914 0
4145 -4914 4040 0
4145 4911 -3796 0
-4146 -4929 4937 -4147 0
-4146 4929 -3832 4147 0
-4146 4929 4937 4147 0
-4146 -4929 -3832 -4147 0
4146 4929 -4147 0
4146 -4929 4147 0
4146 -4937 3832 0
4147 -2681 3808 0
-4147 2681 0
-4147 -3808 0
-4148 4902 4149 4150 4154 0
-4148 -4902 -4149 4150 4154 0
4148 -4154 0
4148 -4902 4149 0
4148 -4150 0
4148 4902 -4149 0
4149 -2394 3795 0
-4149 2394 0
-4149 -3795 0
-4150 4891 4151 4153 0
-4150 -4891 4151 -4153 0
4150 -4151 0
4150 -4891 4153 0
4150 4891 -4153 0
-4151 4883 4888 4152 0
-4151 -4888 -3780 -4152 0
-4151 4883 -4888 -4152 0
-4151 4888 -3780 4152 0
4151 4888 -4152 0
4151 -4888 4152 0
4151 -4883 3780 0
4152 -2611 3785 0
-4152 2611 0
-4152 -3785 0
4153 -2828 3785 0
-4153 2828 0
-4153 -3785 0
4154 4892 -4155 0
4154 -4892 4155 0
-4154 -4892 -4155 0
-4154 4892 4155 0
4155 -2907 3785 0
-4155 2907 0
-4155 -3785 0
-4156 -4737 4753 4157 0
-4156 -4753 3186 -4157 0
-4156 -4737 -4753 -4157 0
-4156 4753 3186 4157 0
4156 4753 -4157 0
4156 -4753 4157 0
4156 4737 -3186 0
-4157 3187 -3204 0
-4157 3204 4158 0
4157 -3187 -3204 0
4157 3204 -4158 0
-4158 3195 -3207 0
-4158 3207 -3210 0
-4158 4501 3207 0
4158 -3195 -3207 0
4158 -4501 3207 3210 0
-4159 3187 -3248 0
-4159 3248 4160 0
4159 -3187 -3248 0
4159 3248 -4160 0
-4160 3195 -3251 0
-4160 3251 -3253 0
-4160 4469 3251 0
4160 -3195 -3251 0
4160 -4469 3251 3253 0
-4161 4712 4162 4165 4167 0
-4161 -4712 4162 -4165 4167 0
4161 -4167 0
4161 -4712 4165 0
4161 -4162 0
4161 4712 -4165 0
-4162 4825 -4163 4164 0
-4162 -4825 4839 -4164 0
-4162 4825 4839 4164 0
-4162 -4825 -4163 -4164 0
4162 -4825 4164 0
4162 4825 -4164 0
4162 -4839 4163 0
-4163 2476 -3374 0
-4163 2542 3374 0
4163 -2542 3374 0
4163 -2476 -3374 0
-4164 2630 -3179 0
-4164 2693 3179 0
4164 -2693 3179 0
4164 -2630 -3179 0
4165 -3241 -3403 0
4165 3241 -4166 0
-4165 -3241 3403 0
-4165 3241 4166 0
-4166 3243 -3245 0
-4166 -3243 3395 0
-4166 4460 3243 0
4166 -3243 -3395 0
4166 -4460 3243 3245 0
-4167 -4826 4168 0
-4167 4168 4171 0
4167 -4168 0
4167 4826 -4171 0
-4168 4850 -4855 4169 -4170 0
-4168 4850 4855 4169 4170 0
-4168 -4850 -4855 -4169 -4170 0
-4168 -4850 4855 -4169 4170 0
4168 -4850 4169 0
4168 4850 -4169 0
4168 4855 -4170 0
4168 -4855 4170 0
-4169 2708 -3376 0
-4169 2777 3376 0
4169 -2777 3376 0
4169 -2708 -3376 0
4170 -2546 3438 0
4170 -2476 -3438 0
-4170 2476 -3438 0
-4170 2546 3438 0
-4171 2708 -3179 0
-4171 2780 3179 0
4171 -2780 3179 0
4171 -2708 -3179 0
-4172 4173 4187 4195 4196 0
4172 -4196 0
4172 -4173 0
4172 -4195 0
4172 -4187 0
-4173 4849 4174 4180 4186 0
-4173 -4849 4174 4180 -4186 0
4173 -4174 0
4173 -4849 4186 0
4173 -4180 0
4173 4849 -4186 0
-4174 4175 4176 0
-4174 -4841 4176 0
4174 -4176 0
4174 4841 -4175 0
-4175 2630 -3374 0
-4175 2697 3374 0
4175 -2697 3374 0
4175 -2630 -3374 0
-4176 4710 4858 4179 0
-4176 -4858 -4177 -4179 0
-4176 4710 -4858 -4179 0
-4176 4858 -4177 4179 0
4176 4858 -4179 0
4176 -4858 4179 0
4176 -4710 4177 0
4177 -3241 -3315 0
4177 3241 -4178 0
-4177 -3241 3315 0
-4177 3241 4178 0
-4178 3243 -3245 0
-4178 -3243 3307 0
-4178 4458 3243 0
4178 -3243 -3307 0
4178 -4458 3243 3245 0
4179 -2776 3438 0
4179 -2708 -3438 0
-4179 2708 -3438 0
-4179 2776 3438 0
-4180 -4175 4181 4183 0
-4180 4841 4181 4183 0
4180 -4183 0
4180 -4181 0
4180 -4841 4175 0
4181 -4857 4182 0
4181 4857 -4182 0
-4181 4857 4182 0
-4181 -4857 -4182 0
-4182 2630 -3438 0
-4182 2701 3438 0
4182 -2701 3438 0
4182 -2630 -3438 0
-4183 4831 4842 4184 4185 0
-4183 -4831 4842 -4184 4185 0
-4183 -4831 -4842 -4184 -4185 0
-4183 4831 -4842 4184 -4185 0
4183 -4831 4184 0
4183 4831 -4184 0
4183 4842 -4185 0
4183 -4842 4185 0
4184 -2544 3369 0
4184 -2476 -3369 0
-4184 2476 -3369 0
-4184 2544 3369 0
-4185 2708 -3374 0
-4185 2773 3374 0
4185 -2773 3374 0
4185 -2708 -3374 0
-4186 2630 -3376 0
-4186 2702 3376 0
4186 -2702 3376 0
4186 -2630 -3376 0
-4187 -4714 4190 4191 0
-4187 4188 4190 4191 0
4187 -4191 0
4187 -4190 0
4187 4714 -4188 0
4188 -3241 -3332 0
4188 3241 -4189 0
-4188 -3241 3332 0
-4188 3241 4189 0
-4189 3243 -3245 0
-4189 -3243 3324 0
-4189 4462 3243 0
4189 -3243 -3324 0
4189 -4462 3243 3245 0
-4190 4718 4826 0
-4190 -3411 -4171 0
-4190 4826 -3411 0
-4190 4718 -4171 0
4190 -4718 3411 0
4190 -4826 4171 0
-4191 -4715 4833 4192 -4193 0
-4191 -4715 -4833 -4192 -4193 0
-4191 4715 4833 4192 4193 0
-4191 4715 -4833 -4192 4193 0
4191 -4833 4192 0
4191 4833 -4192 0
4191 4715 -4193 0
4191 -4715 4193 0
-4192 2630 -3369 0
-4192 2699 3369 0
4192 -2699 3369 0
4192 -2630 -3369 0
4193 -3241 -3354 0
4193 3241 -4194 0
-4193 -3241 3354 0
-4193 3241 4194 0
-4194 3243 -3245 0
-4194 -3243 3345 0
-4194 4463 3243 0
4194 -3243 -3345 0
4194 -4463 3243 3245 0
-4195 -4710 -4188 0
-4195 4714 4177 0
-4195 4177 -4188 0
-4195 -4710 4714 0
4195 -4714 4188 0
4195 4710 -4177 0
-4196 4847 4197 4199 0
-4196 -4847 4197 -4199 0
4196 -4197 0
4196 -4847 4199 0
4196 4847 -4199 0
-4197 -4834 4163 -4198 0
-4197 4834 4163 4198 0
-4197 4834 -4839 4198 0
-4197 -4834 -4839 -4198 0
4197 -4834 4198 0
4197 4834 -4198 0
4197 4839 -4163 0
-4198 2708 -3369 0
-4198 2774 3369 0
4198 -2774 3369 0
4198 -2708 -3369 0
-4199 2476 -3376 0
-4199 2547 3376 0
4199 -2547 3376 0
4199 -2476 -3376 0
4200 -4708 4201 4211 0
4200 -4708 -3315 4211 0
-4200 4708 0
-4200 -4211 0
-4200 3315 -4201 0
-4201 4178 4203 0
-4201 4202 4203 0
4201 -4203 0
4201 -4178 -4202 0
4202 -3065 3249 0
-4202 3065 0
-4202 -3249 0
4203 3104 4202 -4204 0
4203 -3104 -3412 4202 0
-4203 -4202 0
-4203 3104 4204 0
-4203 -3104 3412 0
4204 3025 -4210 0
4204 -3025 -3414 0
4204 3025 -4205 0
-4204 -3025 3414 0
-4204 3025 4205 4210 0
4205 3205 3214 -4206 0
4205 -3205 3214 -3430 0
-4205 -3214 0
-4205 -3205 3430 0
-4205 3205 4206 0
4206 3262 -4209 0
4206 -3262 -3306 0
4206 3262 -4207 0
-4206 -3262 3306 0
-4206 3262 4207 4209 0
4207 -3154 -3362 4208 0
4207 3154 -3622 4208 0
-4207 -4208 0
-4207 3154 3622 0
-4207 -3154 3362 0
4208 -3064 -3137 0
-4208 3064 0
-4208 3137 0
4209 -3340 -4208 0
-4209 3340 0
-4209 4208 0
4210 -3214 -3483 0
-4210 3214 0
-4210 3483 0
4211 4212 -4221 -4201 0
4211 3315 4212 -4221 0
-4211 4221 0
-4211 -4212 0
-4211 -3315 4201 0
4212 -3170 4213 0
-4212 3170 0
-4212 -4213 0
-4213 3284 4214 0
-4213 4202 4214 0
4213 -4214 0
4213 -3284 -4202 0
4214 3104 4202 -4215 0
4214 -3104 -3250 4202 0
-4214 -4202 0
-4214 3104 4215 0
-4214 -3104 3250 0
4215 3025 -4220 0
4215 -3025 -3282 0
4215 3025 -4216 0
-4215 -3025 3282 0
-4215 3025 4216 4220 0
4216 3205 3214 -4217 0
4216 -3205 3214 -3269 0
-4216 -3214 0
-4216 -3205 3269 0
-4216 3205 4217 0
4217 -3206 -3262 0
4217 3262 -4219 0
4217 3262 -4218 0
-4217 3206 -3262 0
-4217 3262 4218 4219 0
4218 3154 -3157 4208 0
4218 -3154 -3289 4208 0
-4218 -4208 0
-4218 3154 3157 0
-4218 -3154 3289 0
4219 -3271 -4208 0
-4219 3271 0
-4219 4208 0
4220 -3214 -3279 0
-4220 3214 0
-4220 3279 0
-4221 -3403 4230 4274 0
-4221 -3403 4222 4274 0
-4221 4222 4230 4274 0
4221 3403 -4230 0
4221 -4222 -4230 0
4221 -4274 0
4221 3403 -4222 0
-4222 4166 4223 0
-4222 4202 4223 0
4222 -4223 0
4222 -4166 -4202 0
4223 3104 4202 -4224 0
4223 -3104 -3626 4202 0
-4223 -4202 0
-4223 3104 4224 0
-4223 -3104 3626 0
4224 3025 -4229 0
4224 -3025 -3480 0
4224 3025 -4225 0
-4224 -3025 3480 0
-4224 3025 4225 4229 0
4225 3205 3214 -4226 0
4225 -3205 3214 -3394 0
-4225 -3214 0
-4225 -3205 3394 0
-4225 3205 4226 0
4226 3262 -4228 0
4226 -3262 -3619 0
4226 3262 -4227 0
-4226 -3262 3619 0
-4226 3262 4227 4228 0
4227 -3154 -3450 4208 0
4227 3154 -3453 4208 0
-4227 -4208 0
-4227 3154 3453 0
-4227 -3154 3450 0
4228 -3476 -4208 0
-4228 3476 0
-4228 4208 0
4229 -3214 -3419 0
-4229 3214 0
-4229 3419 0
-4230 -3187 4231 0
-4230 4231 4239 0
-4230 -3187 4239 0
4230 3187 -4239 0
4230 -4231 -4239 0
4230 3187 -4231 0
-4231 3242 4232 0
-4231 4202 4232 0
4231 -4232 0
4231 -3242 -4202 0
4232 3104 4202 -4233 0
4232 -3104 -4160 4202 0
-4232 -4202 0
-4232 3104 4233 0
-4232 -3104 4160 0
4233 3025 -4238 0
4233 -3025 -3258 0
4233 3025 -4234 0
-4233 -3025 3258 0
-4233 3025 4234 4238 0
4234 3205 3214 -4235 0
4234 -3205 3214 -3215 0
-4234 -3214 0
-4234 -3205 3215 0
-4234 3205 4235 0
4235 3262 -4237 0
4235 -3262 -4158 0
4235 3262 -4236 0
-4235 -3262 4158 0
-4235 3262 4236 4237 0
4236 3154 -3225 4208 0
4236 -3154 -3235 4208 0
-4236 -4208 0
-4236 3154 3225 0
-4236 -3154 3235 0
4237 -3263 -4208 0
-4237 3263 0
-4237 4208 0
4238 -3194 -3214 0
-4238 3194 0
-4238 3214 0
-4239 -3332 4240 0
-4239 4240 4248 0
-4239 -3332 4248 0
4239 3332 -4248 0
4239 -4240 -4248 0
4239 3332 -4240 0
-4240 4189 4241 0
-4240 4202 4241 0
4240 -4241 0
4240 -4189 -4202 0
4241 3104 4202 -4242 0
4241 -3104 -3427 4202 0
-4241 -4202 0
-4241 3104 4242 0
-4241 -3104 3427 0
4242 3025 -4247 0
4242 -3025 -3416 0
4242 3025 -4243 0
-4242 -3025 3416 0
-4242 3025 4243 4247 0
4243 3205 3214 -4244 0
4243 -3205 3214 -3432 0
-4243 -3214 0
-4243 -3205 3432 0
-4243 3205 4244 0
4244 3262 -4246 0
4244 -3262 -3381 0
4244 3262 -4245 0
-4244 -3262 3381 0
-4244 3262 4245 4246 0
4245 -3154 -3386 4208 0
4245 3154 -3389 4208 0
-4245 -4208 0
-4245 3154 3389 0
-4245 -3154 3386 0
4246 -3323 -4208 0
-4246 3323 0
-4246 4208 0
4247 -3214 -3641 0
-4247 3214 0
-4247 3641 0
-4248 -3354 4249 0
-4248 4249 4257 0
-4248 -3354 4257 0
4248 3354 -4257 0
4248 -4249 -4257 0
4248 3354 -4249 0
-4249 4194 4250 0
-4249 4202 4250 0
4249 -4250 0
4249 -4194 -4202 0
4250 3104 4202 -4251 0
4250 -3104 -3628 4202 0
-4250 -4202 0
-4250 3104 4251 0
-4250 -3104 3628 0
4251 3025 -4256 0
4251 -3025 -3633 0
4251 3025 -4252 0
-4251 -3025 3633 0
-4251 3025 4252 4256 0
4252 3205 3214 -4253 0
4252 -3205 3214 -3639 0
-4252 -3214 0
-4252 -3205 3639 0
-4252 3205 4253 0
4253 3262 -4255 0
4253 -3262 -3366 0
4253 3262 -4254 0
-4253 -3262 3366 0
-4253 3262 4254 4255 0
4254 3154 -3344 4208 0
4254 -3154 -3612 4208 0
-4254 -4208 0
-4254 3154 3344 0
-4254 -3154 3612 0
4255 -3383 -4208 0
-4255 3383 0
-4255 4208 0
4256 -3214 -3421 0
-4256 3214 0
-4256 3421 0
-4257 -3086 4258 0
-4257 4258 4266 0
-4257 -3086 4266 0
4257 -4258 -4266 0
4257 3086 -4258 0
4257 3086 -4266 0
-4258 3599 4259 0
-4258 4202 4259 0
4258 -4259 0
4258 -3599 -4202 0
4259 3104 4202 -4260 0
4259 -3104 -3435 4202 0
-4259 -4202 0
-4259 3104 4260 0
-4259 -3104 3435 0
4260 3025 -4265 0
4260 -3025 -3106 0
4260 3025 -4261 0
-4260 -3025 3106 0
-4260 3025 4261 4265 0
4261 3205 3214 -4262 0
4261 -3205 3214 -3746 0
-4261 -3214 0
-4261 -3205 3746 0
-4261 3205 4262 0
4262 3262 -4264 0
4262 -3262 -3772 0
4262 3262 -4263 0
-4262 -3262 3772 0
-4262 3262 4263 4264 0
4263 -3154 -3295 4208 0
4263 3154 -3601 4208 0
-4263 -4208 0
-4263 3154 3601 0
-4263 -3154 3295 0
4264 -3775 -4208 0
-4264 3775 0
-4264 4208 0
4265 -3068 -3214 0
-4265 3068 0
-4265 3214 0
4266 3128 -3591 -4267 0
4266 3128 4202 -4267 0
-4266 -3128 0
-4266 4267 0
-4266 3591 -4202 0
-4267 3104 4202 4268 0
-4267 3593 4202 4268 0
4267 -4268 0
4267 -4202 0
4267 -3104 -3593 0
4268 3025 3104 -4269 0
4268 3104 -3119 -4269 0
-4268 4269 0
-4268 -3104 0
-4268 -3025 3119 0
-4269 3025 3214 4270 0
-4269 3025 3301 4270 0
4269 -3025 0
4269 -4270 0
4269 -3214 -3301 0
4270 3205 3214 -4271 0
4270 -3205 3214 -3299 0
-4270 -3214 0
-4270 -3205 3299 0
-4270 3205 4271 0
4271 3262 -4273 0
4271 -3262 -3767 0
4271 3262 -4272 0
-4271 -3262 3767 0
-4271 3262 4272 4273 0
4272 -3140 -3154 4208 0
4272 3154 -3753 4208 0
-4272 -4208 0
-4272 3154 3753 0
-4272 3140 -3154 0
4273 -3744 -4208 0
-4273 3744 0
-4273 4208 0
4274 3170 -4213 0
-4274 -3170 0
-4274 4213 0
4275 -4949 -4957 -4276 4365 0
-4275 -4365 0
-4275 4949 0
-4275 4276 0
-4275 4957 0
4276 4940 4941 -4277 4363 0
-4276 -4940 0
-4276 -4363 0
-4276 4277 0
-4276 -4941 0
4277 4932 4933 -4278 4361 0
-4277 -4932 0
-4277 -4361 0
-4277 4278 0
-4277 -4933 0
4278 4924 4925 -4279 4359 0
-4278 -4924 0
-4278 -4359 0
-4278 4279 0
-4278 -4925 0
4279 4916 4917 -4280 4357 0
-4279 -4916 0
-4279 -4357 0
-4279 4280 0
-4279 -4917 0
4280 4908 4909 -4281 4355 0
-4280 -4908 0
-4280 -4355 0
-4280 4281 0
-4280 -4909 0
4281 4900 4901 -4282 4353 0
-4281 -4900 0
-4281 -4353 0
-4281 4282 0
-4281 -4901 0
4282 4892 4893 -4283 4351 0
-4282 -4892 0
-4282 -4351 0
-4282 4283 0
-4282 -4893 0
4283 4884 4885 -4284 4349 0
-4283 -4884 0
-4283 -4349 0
-4283 4284 0
-4283 -4885 0
4284 4876 4877 -4285 -4347 0
-4284 -4876 0
-4284 4347 0
-4284 4285 0
-4284 -4877 0
4285 4868 -4869 -4286 4345 0
-4285 -4868 0
-4285 -4345 0
-4285 4286 0
-4285 4869 0
4286 4860 4861 -4287 4343 0
-4286 -4860 0
-4286 -4343 0
-4286 4287 0
-4286 -4861 0
4287 4852 4853 -4288 4341 0
-4287 -4852 0
-4287 -4341 0
-4287 4288 0
-4287 -4853 0
4288 4844 4845 -4289 4339 0
-4288 -4844 0
-4288 -4339 0
-4288 4289 0
-4288 -4845 0
4289 4836 4837 -4290 4337 0
-4289 -4836 0
-4289 -4337 0
-4289 4290 0
-4289 -4837 0
4290 4828 4829 -4291 4335 0
-4290 -4828 0
-4290 -4335 0
-4290 4291 0
-4290 -4829 0
4291 4820 4821 -4292 4333 0
-4291 -4820 0
-4291 -4333 0
-4291 4292 0
-4291 -4821 0
4292 4812 4813 -4293 4331 0
-4292 -4812 0
-4292 -4331 0
-4292 4293 0
-4292 -4813 0
4293 4804 4805 -4294 4329 0
-4293 -4804 0
-4293 -4329 0
-4293 4294 0
-4293 -4805 0
4294 4796 4797 -4295 -4327 0
-4294 -4796 0
-4294 4327 0
-4294 4295 0
-4294 -4797 0
4295 4788 -4789 -4296 -4325 0
-4295 -4788 0
-4295 4325 0
-4295 4296 0
-4295 4789 0
4296 4780 -4781 -4297 4323 0
-4296 -4780 0
-4296 -4323 0
-4296 4297 0
-4296 4781 0
4297 -4772 4773 -4298 4321 0
-4297 -4321 0
-4297 4772 0
-4297 4298 0
-4297 -4773 0
4298 -4764 -4765 -4299 4319 0
-4298 -4319 0
-4298 4764 0
-4298 4299 0
-4298 4765 0
4299 4756 4757 -4300 -4317 0
-4299 -4756 0
-4299 4317 0
-4299 4300 0
-4299 -4757 0
4300 4748 -4749 -4301 -4315 0
-4300 -4748 0
-4300 4315 0
-4300 4301 0
-4300 4749 0
4301 -4740 4741 -4302 -4313 0
-4301 4313 0
-4301 4740 0
-4301 4302 0
-4301 -4741 0
4302 -4732 -4733 -4303 -4311 0
-4302 4311 0
-4302 4732 0
-4302 4303 0
-4302 4733 0
4303 4724 4725 -4304 -4309 0
-4303 -4724 0
-4303 4309 0
-4303 4304 0
-4303 -4725 0
4304 4716 4717 -4305 -4307 0
-4304 -4716 0
-4304 4307 0
-4304 4305 0
-4304 -4717 0
4305 -4953 -4954 -4955 -4306 0
-4305 4306 0
-4305 4953 0
-4305 4955 0
-4305 4954 0
4306 -4950 -4951 -4952 0
-4306 4950 0
-4306 4951 0
-4306 4952 0
4307 4713 4714 -4715 -4308 0
-4307 -4713 0
-4307 4308 0
-4307 4715 0
-4307 -4714 0
4308 4710 -4711 -4712 0
-4308 4712 0
-4308 4711 0
-4308 -4710 0
4309 4721 -4722 4723 4310 0
-4309 4722 0
-4309 -4723 0
-4309 -4721 0
-4309 -4310 0
-4310 4718 4719 4720 0
4310 -4718 0
4310 -4720 0
4310 -4719 0
4311 4729 4730 -4731 4312 0
-4311 -4729 0
-4311 -4312 0
-4311 4731 0
-4311 -4730 0
-4312 4726 4727 4728 0
4312 -4726 0
4312 -4728 0
4312 -4727 0
4313 4737 4738 -4739 4314 0
-4313 -4737 0
-4313 -4314 0
-4313 4739 0
-4313 -4738 0
-4314 4734 4735 4736 0
4314 -4734 0
4314 -4736 0
4314 -4735 0
4315 4745 4746 -4747 4316 0
-4315 -4745 0
-4315 -4316 0
-4315 4747 0
-4315 -4746 0
-4316 4742 4743 4744 0
4316 -4742 0
4316 -4744 0
4316 -4743 0
4317 4753 4754 -4755 4318 0
-4317 -4753 0
-4317 -4318 0
-4317 4755 0
-4317 -4754 0
-4318 4750 4751 4752 0
4318 -4750 0
4318 -4752 0
4318 -4751 0
-4319 4761 4762 4763 4320 0
4319 -4320 0
4319 -4763 0
4319 -4761 0
4319 -4762 0
-4320 4758 4759 4760 0
4320 -4758 0
4320 -4760 0
4320 -4759 0
-4321 4769 4770 4771 4322 0
4321 -4322 0
4321 -4771 0
4321 -4769 0
4321 -4770 0
-4322 4766 4767 4768 0
4322 -4766 0
4322 -4768 0
4322 -4767 0
-4323 4777 4778 4779 4324 0
4323 -4324 0
4323 -4779 0
4323 -4777 0
4323 -4778 0
-4324 4774 4775 4776 0
4324 -4774 0
4324 -4776 0
4324 -4775 0
4325 4785 -4786 4787 4326 0
-4325 4786 0
-4325 -4787 0
-4325 -4785 0
-4325 -4326 0
-4326 4782 4783 4784 0
4326 -4782 0
4326 -4784 0
4326 -4783 0
4327 4793 4794 -4795 -4328 0
-4327 -4793 0
-4327 4328 0
-4327 4795 0
-4327 -4794 0
4328 4790 -4791 -4792 0
-4328 4792 0
-4328 4791 0
-4328 -4790 0
-4329 4801 4802 4803 4330 0
4329 -4330 0
4329 -4803 0
4329 -4801 0
4329 -4802 0
-4330 4798 4799 4800 0
4330 -4798 0
4330 -4800 0
4330 -4799 0
-4331 4809 4810 4811 4332 0
4331 -4332 0
4331 -4811 0
4331 -4809 0
4331 -4810 0
-4332 4806 4807 4808 0
4332 -4806 0
4332 -4808 0
4332 -4807 0
-4333 4817 4818 4819 4334 0
4333 -4334 0
4333 -4819 0
4333 -4817 0
4333 -4818 0
-4334 4814 4815 4816 0
4334 -4814 0
4334 -4816 0
4334 -4815 0
-4335 4825 4826 4827 4336 0
4335 -4336 0
4335 -4827 0
4335 -4825 0
4335 -4826 0
-4336 4822 4823 4824 0
4336 -4822 0
4336 -4824 0
4336 -4823 0
-4337 4833 4834 4835 4338 0
4337 -4338 0
4337 -4835 0
4337 -4833 0
4337 -4834 0
-4338 4830 4831 4832 0
4338 -4830 0
4338 -4832 0
4338 -4831 0
-4339 4841 4842 4843 4340 0
4339 -4340 0
4339 -4843 0
4339 -4841 0
4339 -4842 0
-4340 4838 4839 4840 0
4340 -4838 0
4340 -4840 0
4340 -4839 0
-4341 4849 4850 4851 4342 0
4341 -4342 0
4341 -4851 0
4341 -4849 0
4341 -4850 0
-4342 4846 4847 4848 0
4342 -4846 0
4342 -4848 0
4342 -4847 0
-4343 4857 4858 4859 4344 0
4343 -4344 0
4343 -4859 0
4343 -4857 0
4343 -4858 0
-4344 4854 4855 4856 0
4344 -4854 0
4344 -4856 0
4344 -4855 0
-4345 4865 4866 4867 4346 0
4345 -4346 0
4345 -4867 0
4345 -4865 0
4345 -4866 0
-4346 4862 4863 4864 0
4346 -4862 0
4346 -4864 0
4346 -4863 0
4347 4873 4874 -4875 -4348 0
-4347 -4873 0
-4347 4348 0
-4347 4875 0
-4347 -4874 0
4348 4870 -4871 -4872 0
-4348 4872 0
-4348 4871 0
-4348 -4870 0
-4349 4881 4882 4883 4350 0
4349 -4350 0
4349 -4883 0
4349 -4881 0
4349 -4882 0
-4350 4878 4879 4880 0
4350 -4878 0
4350 -4880 0
4350 -4879 0
-4351 4889 4890 4891 4352 0
4351 -4352 0
4351 -4891 0
4351 -4889 0
4351 -4890 0
-4352 4886 4887 4888 0
4352 -4886 0
4352 -4888 0
4352 -4887 0
-4353 4897 4898 4899 4354 0
4353 -4354 0
4353 -4899 0
4353 -4897 0
4353 -4898 0
-4354 4894 4895 4896 0
4354 -4894 0
4354 -4896 0
4354 -4895 0
-4355 4905 4906 4907 4356 0
4355 -4356 0
4355 -4907 0
4355 -4905 0
4355 -4906 0
-4356 4902 4903 4904 0
4356 -4902 0
4356 -4904 0
4356 -4903 0
-4357 4913 4914 4915 4358 0
4357 -4358 0
4357 -4915 0
4357 -4913 0
4357 -4914 0
-4358 4910 4911 4912 0
4358 -4910 0
4358 -4912 0
4358 -4911 0
-4359 4921 4922 4923 4360 0
4359 -4360 0
4359 -4923 0
4359 -4921 0
4359 -4922 0
-4360 4918 4919 4920 0
4360 -4918 0
4360 -4920 0
4360 -4919 0
-4361 4929 4930 4931 4362 0
4361 -4362 0
4361 -4931 0
4361 -4929 0
4361 -4930 0
-4362 4926 4927 4928 0
4362 -4926 0
4362 -4928 0
4362 -4927 0
-4363 4937 4938 4939 4364 0
4363 -4364 0
4363 -4939 0
4363 -4937 0
4363 -4938 0
-4364 4934 4935 4936 0
4364 -4934 0
4364 -4936 0
4364 -4935 0
-4365 4946 4947 4948 4366 0
4365 -4366 0
4365 -4948 0
4365 -4946 0
4365 -4947 0
-4366 4942 4943 4944 4945 0
4366 -4945 0
4366 -4944 0
4366 -4942 0
4366 -4943 0
4367 -4368 -4390 -4396 -4424 0
-4367 4424 0
-4367 4368 0
-4367 4396 0
-4367 4390 0
4368 -4369 -4373 -4377 -4380 0
-4368 4380 0
-4368 4369 0
-4368 4377 0
-4368 4373 0
4369 4750 4757 -4370 4372 0
-4369 -4750 0
-4369 -4372 0
-4369 4370 0
-4369 -4757 0
4370 4815 4818 4821 -4371 0
-4370 4371 0
-4370 -4821 0
-4370 -4815 0
-4370 -4818 0
4371 4767 -4791 -4792 0
-4371 4792 0
-4371 4791 0
-4371 -4767 0
-4372 4753 4759 4760 0
4372 -4753 0
4372 -4760 0
4372 -4759 0
4373 -4722 4724 -4374 4376 0
-4373 -4376 0
-4373 4722 0
-4373 4374 0
-4373 -4724 0
4374 4808 4819 -4375 0
-4374 4375 0
-4374 -4819 0
-4374 -4808 0
4375 4780 -4781 4807 4820 0
-4375 4781 0
-4375 -4820 0
-4375 -4780 0
-4375 -4807 0
-4376 4721 4723 4756 0
4376 -4721 0
4376 -4756 0
4376 -4723 0
4377 4768 4778 4779 -4378 0
-4377 4378 0
-4377 -4779 0
-4377 -4768 0
-4377 -4778 0
4378 4719 4720 -4379 0
-4378 4379 0
-4378 -4720 0
-4378 -4719 0
4379 4718 4725 -4764 -4765 0
-4379 -4718 0
-4379 4765 0
-4379 4764 0
-4379 -4725 0
4380 4814 4816 4381 -4383 0
-4380 -4814 0
-4380 4383 0
-4380 -4381 0
-4380 -4816 0
-4381 4802 4803 4817 4382 0
4381 -4382 0
4381 -4817 0
4381 -4802 0
4381 -4803 0
-4382 4774 4777 4794 4797 0
4382 -4797 0
4382 -4794 0
4382 -4774 0
4382 -4777 0
4383 4850 4852 4384 -4386 0
-4383 -4850 0
-4383 4386 0
-4383 -4384 0
-4383 -4852 0
-4384 4887 4889 4890 4385 0
4384 -4385 0
4384 -4890 0
4384 -4887 0
4384 -4889 0
-4385 4854 4858 4859 4860 0
4385 -4860 0
4385 -4859 0
4385 -4854 0
4385 -4858 0
4386 -4871 4888 -4387 4388 0
-4386 -4388 0
-4386 4871 0
-4386 4387 0
-4386 -4888 0
4387 -4872 4886 0
-4387 4872 0
-4387 -4886 0
-4388 4891 4892 4893 4389 0
4388 -4389 0
4388 -4893 0
4388 -4891 0
4388 -4892 0
-4389 4851 4853 4857 4861 0
4389 -4861 0
4389 -4857 0
4389 -4851 0
4389 -4853 0
4390 4713 4716 4717 -4391 0
-4390 4391 0
-4390 -4717 0
-4390 -4713 0
-4390 -4716 0
4391 4742 -4747 -4392 4395 0
-4391 -4742 0
-4391 -4395 0
-4391 4392 0
-4391 4747 0
4392 4710 4714 -4715 -4393 0
-4392 -4710 0
-4392 4393 0
-4392 4715 0
-4392 -4714 0
4393 4734 4737 4744 -4394 0
-4393 4394 0
-4393 -4744 0
-4393 -4734 0
-4393 -4737 0
4394 -4711 -4712 4730 -4732 0
-4394 4732 0
-4394 4711 0
-4394 4712 0
-4394 -4730 0
-4395 4738 4745 4746 4748 0
4395 -4748 0
4395 -4746 0
4395 -4738 0
4395 -4745 0
4396 -4954 4397 4399 -4400 0
-4396 4400 0
-4396 4954 0
-4396 -4399 0
-4396 -4397 0
-4397 4905 4906 4398 0
4397 -4398 0
4397 -4906 0
4397 -4905 0
-4398 4895 4896 4902 4907 0
4398 -4907 0
4398 -4902 0
4398 -4895 0
4398 -4896 0
-4399 4908 4909 4914 4915 0
4399 -4915 0
4399 -4914 0
4399 -4908 0
4399 -4909 0
4400 -4401 4414 -4420 4422 0
-4400 -4422 0
-4400 4401 0
-4400 4420 0
-4400 -4414 0
4401 4402 -4403 -4405 -4408 0
-4401 4408 0
-4401 -4402 0
-4401 4405 0
-4401 4403 0
-4402 4812 4813 4823 4824 0
4402 -4824 0
4402 -4823 0
4402 -4812 0
4402 -4813 0
4403 4822 4826 4827 -4404 0
-4403 4404 0
-4403 -4827 0
-4403 -4822 0
-4403 -4826 0
4404 4784 4787 -4789 0
-4404 4789 0
-4404 -4787 0
-4404 -4784 0
4405 4870 -4875 4406 4407 0
-4405 -4870 0
-4405 -4407 0
-4405 -4406 0
-4405 4875 0
-4406 4839 4840 0
4406 -4839 0
4406 -4840 0
-4407 4863 4864 4873 4874 0
4407 -4874 0
4407 -4873 0
4407 -4863 0
4407 -4864 0
4408 4928 4409 -4410 4411 0
-4408 -4928 0
-4408 -4411 0
-4408 4410 0
-4408 -4409 0
-4409 4930 4931 4932 4933 0
4409 -4933 0
4409 -4932 0
4409 -4930 0
4409 -4931 0
4410 4927 -4951 -4957 0
-4410 4957 0
-4410 4951 0
-4410 -4927 0
-4411 4881 4883 4884 4412 0
4411 -4412 0
4411 -4884 0
4411 -4881 0
4411 -4883 0
-4412 4832 4834 4413 0
4412 -4413 0
4412 -4834 0
4412 -4832 0
-4413 4831 4835 4836 4837 0
4413 -4837 0
4413 -4836 0
4413 -4831 0
4413 -4835 0
-4414 4921 4925 4415 4416 0
4414 -4921 0
4414 -4416 0
4414 -4415 0
4414 -4925 0
-4415 4918 4923 4924 0
4415 -4918 0
4415 -4924 0
4415 -4923 0
-4416 4846 4849 4856 4417 0
4416 -4417 0
4416 -4856 0
4416 -4846 0
4416 -4849 0
-4417 4897 4900 4418 4419 0
4417 -4897 0
4417 -4419 0
4417 -4418 0
4417 -4900 0
-4418 4894 4901 4911 4912 0
4418 -4912 0
4418 -4911 0
4418 -4894 0
4418 -4901 0
-4419 4898 4899 0
4419 -4898 0
4419 -4899 0
4420 4736 -4740 -4749 -4421 0
-4420 -4736 0
-4420 4421 0
-4420 4749 0
-4420 4740 0
4421 4735 -4739 4741 4743 0
-4421 4739 0
-4421 -4743 0
-4421 -4735 0
-4421 -4741 0
-4422 4877 4878 4423 0
4422 -4423 0
4422 -4878 0
4422 -4877 0
-4423 4830 4833 4876 4879 0
4423 -4879 0
4423 -4876 0
4423 -4830 0
4423 -4833 0
4424 -4425 4427 -4431 -4440 0
-4424 4440 0
-4424 4425 0
-4424 4431 0
-4424 -4427 0
4425 4847 4848 4855 -4426 0
-4425 4426 0
-4425 -4855 0
-4425 -4847 0
-4425 -4848 0
4426 4862 4866 4867 -4869 0
-4426 4869 0
-4426 -4867 0
-4426 -4862 0
-4426 -4866 0
-4427 4936 4938 4428 4429 0
4427 -4936 0
4427 -4429 0
4427 -4428 0
4427 -4938 0
-4428 4903 4904 4935 4939 0
4428 -4939 0
4428 -4935 0
4428 -4903 0
4428 -4904 0
-4429 4934 4937 4940 4430 0
4429 -4430 0
4429 -4940 0
4429 -4934 0
4429 -4937 0
-4430 4865 4868 4922 4941 0
4430 -4941 0
4430 -4922 0
4430 -4865 0
4430 -4868 0
4431 4769 4773 -4432 -4437 0
-4431 -4769 0
-4431 4437 0
-4431 4432 0
-4431 -4773 0
4432 4801 4804 -4433 4436 0
-4432 -4801 0
-4432 -4436 0
-4432 4433 0
-4432 -4804 0
4433 4758 4763 -4434 -4435 0
-4433 -4758 0
-4433 4435 0
-4433 4434 0
-4433 -4763 0
4434 -4795 4796 4798 4805 0
-4434 -4805 0
-4434 -4798 0
-4434 4795 0
-4434 -4796 0
4435 4754 -4755 0
-4435 -4754 0
-4435 4755 0
-4436 4751 4752 4761 4762 0
4436 -4762 0
4436 -4761 0
4436 -4751 0
4436 -4752 0
4437 4775 4776 -4438 4439 0
-4437 -4775 0
-4437 -4439 0
-4437 4438 0
-4437 -4776 0
4438 4766 4770 4771 -4772 0
-4438 4772 0
-4438 -4771 0
-4438 -4766 0
-4438 -4770 0
-4439 4825 4828 4829 0
4439 -4825 0
4439 -4829 0
4439 -4828 0
4440 -4441 -4451 4453 -4454 0
-4440 4454 0
-4440 4441 0
-4440 -4453 0
-4440 4451 0
4441 4944 4946 -4442 -4443 0
-4441 -4944 0
-4441 4443 0
-4441 4442 0
-4441 -4946 0
4442 4942 4943 4945 -4949 0
-4442 4949 0
-4442 -4945 0
-4442 -4942 0
-4442 -4943 0
4443 -4950 -4444 4448 4450 0
-4443 -4450 0
-4443 4950 0
-4443 -4448 0
-4443 4444 0
4444 4809 4810 -4445 4447 0
-4444 -4809 0
-4444 -4447 0
-4444 4445 0
-4444 -4810 0
4445 4785 -4786 4790 4446 0
-4445 4786 0
-4445 -4790 0
-4445 -4785 0
-4445 -4446 0
-4446 4799 4800 4806 4811 0
4446 -4811 0
4446 -4806 0
4446 -4799 0
4446 -4800 0
-4447 4782 4783 4788 4793 0
4447 -4793 0
4447 -4788 0
4447 -4782 0
4447 -4783 0
-4448 4913 4919 4920 4449 0
4448 -4449 0
4448 -4920 0
4448 -4913 0
4448 -4919 0
-4449 4910 4916 4917 0
4449 -4910 0
4449 -4917 0
4449 -4916 0
-4450 4926 4929 0
4450 -4926 0
4450 -4929 0
4451 4727 -4733 -4452 0
-4451 4452 0
-4451 4733 0
-4451 -4727 0
4452 4726 4728 4729 -4731 0
-4452 4731 0
-4452 -4729 0
-4452 -4726 0
-4452 -4728 0
-4453 4841 4844 4845 4880 0
4453 -4880 0
4453 -4845 0
4453 -4841 0
4453 -4844 0
4454 4882 4885 -4455 4457 0
-4454 -4882 0
-4454 -4457 0
-4454 4455 0
-4454 -4885 0
4455 4947 4948 -4953 -4456 0
-4455 -4947 0
-4455 4456 0
-4455 4953 0
-4455 -4948 0
4456 -4952 -4955 0
-4456 4952 0
-4456 4955 0
-4457 4838 4842 4843 0
4457 -4838 0
4457 -4843 0
4457 -4842 0
-4958 0
2 0
-2855 0

