c Result of efficient AIG-to-CNF conversion using package CNF
p cnf 5035 21068
-2 3 2990 0
-2 -3 -2990 0
2 -3 2990 0
2 3 -2990 0
-3 4 2881 0
-3 -4 -2881 0
3 -4 2881 0
3 4 -2881 0
-4 5 921 0
-4 -5 -921 0
4 -5 921 0
4 5 -921 0
-5 6 340 0
-5 -6 -340 0
5 -6 340 0
5 6 -340 0
-6 -7 -275 0
-6 7 275 0
6 7 -275 0
6 -7 275 0
-7 -8 -212 0
-7 8 212 0
7 8 -212 0
7 -8 212 0
-8 9 155 0
-8 -9 -155 0
8 -9 155 0
8 9 -155 0
-9 10 154 0
-9 -10 -154 0
9 -10 154 0
9 10 -154 0
-10 11 106 0
-10 -11 -106 0
10 -11 106 0
10 11 -106 0
-11 12 88 0
-11 -12 -88 0
11 -12 88 0
11 12 -88 0
-12 13 59 0
-12 -13 -59 0
12 -13 59 0
12 13 -59 0
-13 14 22 0
-13 -14 -22 0
13 -14 22 0
13 14 -22 0
-14 15 18 0
-14 -15 -18 0
14 -15 18 0
14 15 -18 0
-15 -16 -17 0
-15 16 17 0
15 16 -17 0
15 -16 17 0
16 -4972 -4979 0
-16 4972 0
-16 4979 0
17 -4978 -4987 0
-17 4978 0
-17 4987 0
-18 19 21 0
-18 20 21 0
-18 19 20 0
18 -19 -20 0
18 -20 -21 0
18 -19 -21 0
19 -4972 -4980 0
-19 4972 0
-19 4980 0
20 -4979 -4987 0
-20 4979 0
-20 4987 0
21 -4963 -4978 0
-21 4963 0
-21 4978 0
-22 23 47 0
-22 -23 -47 0
22 -23 47 0
22 23 -47 0
-23 24 31 0
-23 -24 -31 0
23 -24 31 0
23 24 -31 0
24 -25 -27 0
-24 25 0
-24 27 0
-25 21 26 0
-25 -21 -26 0
25 -21 26 0
25 21 -26 0
-26 -19 -20 0
-26 19 20 0
26 19 -20 0
26 -19 20 0
-27 28 30 0
-27 29 30 0
-27 28 29 0
27 -28 -29 0
27 -29 -30 0
27 -28 -30 0
28 -4980 -4987 0
-28 4980 0
-28 4987 0
29 -4963 -4979 0
-29 4963 0
-29 4979 0
30 -4978 -5002 0
-30 4978 0
-30 5002 0
-31 32 42 0
-31 -32 -42 0
31 -32 42 0
31 32 -42 0
-32 33 38 0
-32 -33 -38 0
32 -33 38 0
32 33 -38 0
-33 -34 -37 0
-33 34 37 0
33 34 -37 0
33 -34 37 0
-34 -35 -36 0
-34 35 36 0
34 35 -36 0
34 -35 36 0
35 -4963 -4976 0
-35 4963 0
-35 4976 0
36 -4957 -5002 0
-36 4957 0
-36 5002 0
37 -4964 -4995 0
-37 4964 0
-37 4995 0
-38 39 41 0
-38 40 41 0
-38 39 40 0
38 -39 -40 0
38 -40 -41 0
38 -39 -41 0
39 -4976 -5002 0
-39 4976 0
-39 5002 0
40 -4957 -4995 0
-40 4957 0
-40 4995 0
41 -4964 -4991 0
-41 4964 0
-41 4991 0
-42 -43 -46 0
-42 43 46 0
42 43 -46 0
42 -43 46 0
-43 -44 -45 0
-43 44 45 0
43 44 -45 0
43 -44 45 0
44 -4969 -4991 0
-44 4969 0
-44 4991 0
45 -4966 -4967 0
-45 4966 0
-45 4967 0
46 -4965 -5005 0
-46 4965 0
-46 5005 0
-47 48 50 0
-47 50 54 0
-47 48 54 0
47 -48 -54 0
47 -50 -54 0
47 -48 -50 0
-48 41 49 0
-48 -41 -49 0
48 -41 49 0
48 41 -49 0
-49 -39 -40 0
-49 39 40 0
49 39 -40 0
49 -39 40 0
-50 51 53 0
-50 52 53 0
-50 51 52 0
50 -51 -52 0
50 -52 -53 0
50 -51 -53 0
51 -4976 -4995 0
-51 4976 0
-51 4995 0
52 -4957 -4991 0
-52 4957 0
-52 4991 0
53 -4964 -4967 0
-53 4964 0
-53 4967 0
-54 -55 -58 0
-54 55 58 0
54 55 -58 0
54 -55 58 0
-55 -56 -57 0
-55 56 57 0
55 56 -57 0
55 -56 57 0
56 -4967 -4969 0
-56 4967 0
-56 4969 0
57 -4965 -4966 0
-57 4965 0
-57 4966 0
58 -4970 -5005 0
-58 4970 0
-58 5005 0
-59 60 71 0
-59 60 61 0
-59 61 71 0
59 -61 -71 0
59 -60 -71 0
59 -60 -61 0
-60 25 27 0
-60 -25 -27 0
60 -25 27 0
60 25 -27 0
61 -4959 -4972 -62 0
-61 4959 0
-61 4972 0
-61 62 0
-62 63 67 0
-62 -63 -67 0
62 -63 67 0
62 63 -67 0
-63 64 65 0
-63 -64 -65 0
63 -64 65 0
63 64 -65 0
64 -4959 -4971 -4972 -4987 0
-64 4987 0
-64 4959 0
-64 4972 0
-64 4971 0
-65 30 66 0
-65 -30 -66 0
65 -30 66 0
65 30 -66 0
-66 -28 -29 0
-66 28 29 0
66 28 -29 0
66 -28 29 0
-67 68 70 0
-67 69 70 0
-67 68 69 0
67 -68 -69 0
67 -69 -70 0
67 -68 -70 0
68 -4963 -4980 0
-68 4963 0
-68 4980 0
69 -4979 -5002 0
-69 4979 0
-69 5002 0
70 -4978 -4995 0
-70 4978 0
-70 4995 0
-71 72 76 0
-71 -72 -76 0
71 -72 76 0
71 72 -76 0
-72 73 74 0
-72 -73 -74 0
72 -73 74 0
72 73 -74 0
-73 64 65 0
-73 65 67 0
-73 64 67 0
73 -65 -67 0
73 -64 -65 0
73 -64 -67 0
-74 54 75 0
-74 -54 -75 0
74 -54 75 0
74 54 -75 0
-75 48 50 0
-75 -48 -50 0
75 -48 50 0
75 48 -50 0
-76 77 79 0
-76 79 83 0
-76 77 83 0
76 -77 -83 0
76 -79 -83 0
76 -77 -79 0
-77 53 78 0
-77 -53 -78 0
77 -53 78 0
77 53 -78 0
-78 -51 -52 0
-78 51 52 0
78 51 -52 0
78 -51 52 0
-79 80 82 0
-79 81 82 0
-79 80 81 0
79 -80 -81 0
79 -81 -82 0
79 -80 -82 0
80 -4976 -4991 0
-80 4976 0
-80 4991 0
81 -4957 -4967 0
-81 4957 0
-81 4967 0
82 -4964 -4965 0
-82 4964 0
-82 4965 0
-83 -84 -87 0
-83 84 87 0
83 84 -87 0
83 -84 87 0
-84 -85 -86 0
-84 85 86 0
84 85 -86 0
84 -85 86 0
85 -4965 -4969 0
-85 4965 0
-85 4969 0
86 -4966 -4970 0
-86 4966 0
-86 4970 0
87 -5005 -5033 0
-87 5005 0
-87 5033 0
-88 -89 -98 0
-88 89 98 0
88 89 -98 0
88 -89 98 0
-89 90 91 0
-89 -90 -91 0
89 -90 91 0
89 90 -91 0
-90 73 74 0
-90 74 76 0
-90 73 76 0
90 -73 -76 0
90 -74 -76 0
90 -73 -74 0
-91 -92 -95 0
-91 92 95 0
91 92 -95 0
91 -92 95 0
-92 -93 -94 0
-92 93 94 0
92 93 -94 0
92 -93 94 0
-93 56 58 0
-93 57 58 0
-93 56 57 0
93 -56 -57 0
93 -57 -58 0
93 -56 -58 0
94 -4970 -5003 0
-94 4970 0
-94 5003 0
95 -96 -97 0
-95 96 0
-95 97 0
96 -5003 -5033 0
-96 5003 0
-96 5033 0
-97 85 87 0
-97 86 87 0
-97 85 86 0
97 -85 -86 0
97 -86 -87 0
97 -85 -87 0
98 -99 -100 0
-98 99 0
-98 100 0
-99 96 97 0
-99 -96 -97 0
99 -96 97 0
99 96 -97 0
100 -101 -102 0
-100 101 0
-100 102 0
101 -4975 -5003 0
-101 4975 0
-101 5003 0
-102 103 105 0
-102 104 105 0
-102 103 104 0
102 -103 -104 0
102 -104 -105 0
102 -103 -105 0
103 -4969 -4970 0
-103 4969 0
-103 4970 0
104 -4966 -5033 0
-104 4966 0
-104 5033 0
105 -4975 -5005 0
-105 4975 0
-105 5005 0
-106 107 109 0
-106 109 142 0
-106 107 142 0
106 -107 -142 0
106 -109 -142 0
106 -107 -109 0
-107 71 108 0
-107 -71 -108 0
107 -71 108 0
107 71 -108 0
-108 -60 -61 0
-108 60 61 0
108 60 -61 0
108 -60 61 0
-109 110 128 0
-109 110 112 0
-109 112 128 0
109 -112 -128 0
109 -110 -128 0
109 -110 -112 0
-110 111 62 0
-110 -111 -62 0
110 -111 62 0
110 111 -62 0
111 -4959 -4972 0
-111 4959 0
-111 4972 0
112 -113 -116 0
-112 113 0
-112 116 0
-113 -114 -115 0
-113 114 115 0
113 114 -115 0
113 -114 115 0
114 -4971 -4972 0
-114 4971 0
-114 4972 0
115 -4959 -4987 0
-115 4959 0
-115 4987 0
-116 117 124 0
-116 -117 -124 0
116 -117 124 0
116 117 -124 0
-117 118 122 0
-117 -118 -122 0
117 -118 122 0
117 118 -122 0
-118 119 121 0
-118 120 121 0
-118 119 120 0
118 -119 -120 0
118 -120 -121 0
118 -119 -121 0
119 -4961 -4972 0
-119 4961 0
-119 4972 0
120 -4971 -4987 0
-120 4971 0
-120 4987 0
121 -4959 -4963 0
-121 4959 0
-121 4963 0
-122 70 123 0
-122 -70 -123 0
122 -70 123 0
122 70 -123 0
-123 -68 -69 0
-123 68 69 0
123 68 -69 0
123 -68 69 0
-124 125 127 0
-124 126 127 0
-124 125 126 0
124 -125 -126 0
124 -126 -127 0
124 -125 -127 0
125 -4980 -5002 0
-125 4980 0
-125 5002 0
126 -4979 -4995 0
-126 4979 0
-126 4995 0
127 -4978 -4991 0
-127 4978 0
-127 4991 0
-128 129 133 0
-128 -129 -133 0
128 -129 133 0
128 129 -133 0
-129 130 131 0
-129 -130 -131 0
129 -130 131 0
129 130 -131 0
-130 118 122 0
-130 122 124 0
-130 118 124 0
130 -118 -124 0
130 -122 -124 0
130 -118 -122 0
-131 83 132 0
-131 -83 -132 0
131 -83 132 0
131 83 -132 0
-132 77 79 0
-132 -77 -79 0
132 -77 79 0
132 77 -79 0
-133 134 136 0
-133 136 140 0
-133 134 140 0
133 -134 -140 0
133 -136 -140 0
133 -134 -136 0
-134 82 135 0
-134 -82 -135 0
134 -82 135 0
134 82 -135 0
-135 -80 -81 0
-135 80 81 0
135 80 -81 0
135 -80 81 0
-136 137 139 0
-136 138 139 0
-136 137 138 0
136 -137 -138 0
136 -138 -139 0
136 -137 -139 0
137 -4967 -4976 0
-137 4967 0
-137 4976 0
138 -4957 -4965 0
-138 4957 0
-138 4965 0
139 -4964 -4970 0
-139 4964 0
-139 4970 0
-140 105 141 0
-140 -105 -141 0
140 -105 141 0
140 105 -141 0
-141 -103 -104 0
-141 103 104 0
141 103 -104 0
141 -103 104 0
-142 -143 -146 0
-142 143 146 0
142 143 -146 0
142 -143 146 0
-143 144 145 0
-143 -144 -145 0
143 -144 145 0
143 144 -145 0
-144 -99 -100 0
-144 99 100 0
144 99 -100 0
144 -99 100 0
-145 130 131 0
-145 131 133 0
-145 130 133 0
145 -130 -133 0
145 -131 -133 0
145 -130 -131 0
146 -147 -148 0
-146 147 0
-146 148 0
-147 101 102 0
-147 -101 -102 0
147 -101 102 0
147 101 -102 0
148 -149 -150 0
-148 149 0
-148 150 0
149 -5003 -5006 0
-149 5003 0
-149 5006 0
-150 151 153 0
-150 152 153 0
-150 151 152 0
150 -151 -152 0
150 -152 -153 0
150 -151 -153 0
151 -4969 -5033 0
-151 4969 0
-151 5033 0
152 -4966 -4975 0
-152 4966 0
-152 4975 0
153 -5005 -5006 0
-153 5005 0
-153 5006 0
-154 144 145 0
-154 145 146 0
-154 144 146 0
154 -145 -146 0
154 -144 -145 0
154 -144 -146 0
-155 156 158 0
-155 158 211 0
-155 156 211 0
155 -156 -211 0
155 -158 -211 0
155 -156 -158 0
-156 142 157 0
-156 -142 -157 0
156 -142 157 0
156 142 -157 0
-157 107 109 0
-157 -107 -109 0
157 -107 109 0
157 107 -109 0
-158 159 161 0
-158 161 199 0
-158 159 199 0
158 -159 -199 0
158 -161 -199 0
158 -159 -161 0
-159 128 160 0
-159 -128 -160 0
159 -128 160 0
159 128 -160 0
-160 -110 -112 0
-160 110 112 0
160 110 -112 0
160 -110 112 0
-161 162 163 0
-161 163 185 0
-161 162 185 0
161 -162 -185 0
161 -163 -185 0
161 -162 -163 0
-162 113 116 0
-162 -113 -116 0
162 -113 116 0
162 113 -116 0
-163 164 166 0
-163 166 176 0
-163 164 176 0
163 -164 -176 0
163 -166 -176 0
163 -164 -166 0
-164 -165 -121 0
-164 165 121 0
164 165 -121 0
164 -165 121 0
-165 -119 -120 0
-165 119 120 0
165 119 -120 0
165 -119 120 0
-166 167 174 0
-166 168 169 0
-166 168 174 0
-166 167 169 0
166 -167 -168 0
166 -169 -174 0
167 -4972 -5009 0
-167 4972 0
-167 5009 0
168 -4972 -4974 -4987 -5009 0
-168 5009 0
-168 4972 0
-168 4987 0
-168 4974 0
-169 -170 -173 0
-169 170 173 0
169 170 -173 0
169 -170 173 0
-170 -171 -172 0
-170 171 172 0
170 171 -172 0
170 -171 172 0
171 -4961 -4987 0
-171 4961 0
-171 4987 0
172 -4963 -4971 0
-172 4963 0
-172 4971 0
173 -4959 -5002 0
-173 4959 0
-173 5002 0
-174 175 0
174 -175 0
175 -4972 4987 -5009 0
175 -4972 4974 -5009 0
-175 5009 0
-175 4972 0
-175 -4974 -4987 0
-176 177 181 0
-176 -177 -181 0
176 -177 181 0
176 177 -181 0
-177 178 179 0
-177 -178 -179 0
177 -178 179 0
177 178 -179 0
-178 171 173 0
-178 172 173 0
-178 171 172 0
178 -171 -172 0
178 -172 -173 0
178 -171 -173 0
-179 127 180 0
-179 -127 -180 0
179 -127 180 0
179 127 -180 0
-180 -125 -126 0
-180 125 126 0
180 125 -126 0
180 -125 126 0
-181 182 184 0
-181 183 184 0
-181 182 183 0
181 -182 -183 0
181 -183 -184 0
181 -182 -184 0
182 -4980 -4995 0
-182 4980 0
-182 4995 0
183 -4979 -4991 0
-183 4979 0
-183 4991 0
184 -4967 -4978 0
-184 4967 0
-184 4978 0
-185 186 190 0
-185 -186 -190 0
185 -186 190 0
185 186 -190 0
-186 187 188 0
-186 -187 -188 0
186 -187 188 0
186 187 -188 0
-187 178 179 0
-187 179 181 0
-187 178 181 0
187 -178 -181 0
187 -179 -181 0
187 -178 -179 0
-188 140 189 0
-188 -140 -189 0
188 -140 189 0
188 140 -189 0
-189 134 136 0
-189 -134 -136 0
189 -134 136 0
189 134 -136 0
-190 191 193 0
-190 193 197 0
-190 191 197 0
190 -191 -197 0
190 -193 -197 0
190 -191 -193 0
-191 139 192 0
-191 -139 -192 0
191 -139 192 0
191 139 -192 0
-192 -137 -138 0
-192 137 138 0
192 137 -138 0
192 -137 138 0
-193 194 196 0
-193 195 196 0
-193 194 195 0
193 -194 -195 0
193 -195 -196 0
193 -194 -196 0
194 -4965 -4976 0
-194 4965 0
-194 4976 0
195 -4957 -4970 0
-195 4957 0
-195 4970 0
196 -4964 -5033 0
-196 4964 0
-196 5033 0
-197 153 198 0
-197 -153 -198 0
197 -153 198 0
197 153 -198 0
-198 -151 -152 0
-198 151 152 0
198 151 -152 0
198 -151 152 0
-199 -200 -203 0
-199 200 203 0
199 200 -203 0
199 -200 203 0
-200 201 202 0
-200 -201 -202 0
200 -201 202 0
200 201 -202 0
-201 -147 -148 0
-201 147 148 0
201 147 -148 0
201 -147 148 0
-202 187 188 0
-202 188 190 0
-202 187 190 0
202 -187 -190 0
202 -188 -190 0
202 -187 -188 0
203 -204 -205 0
-203 204 0
-203 205 0
-204 149 150 0
-204 -149 -150 0
204 -149 150 0
204 149 -150 0
205 -206 -207 0
-205 206 0
-205 207 0
206 -4977 -5003 0
-206 4977 0
-206 5003 0
-207 208 210 0
-207 209 210 0
-207 208 209 0
207 -208 -209 0
207 -209 -210 0
207 -208 -210 0
208 -4969 -4975 0
-208 4969 0
-208 4975 0
209 -4966 -5006 0
-209 4966 0
-209 5006 0
210 -4977 -5005 0
-210 4977 0
-210 5005 0
-211 201 202 0
-211 202 203 0
-211 201 203 0
211 -202 -203 0
211 -201 -202 0
211 -201 -203 0
212 -213 -215 0
-212 213 0
-212 215 0
-213 211 214 0
-213 -211 -214 0
213 -211 214 0
213 211 -214 0
-214 156 158 0
-214 -156 -158 0
214 -156 158 0
214 156 -158 0
-215 216 218 0
-215 218 274 0
-215 216 274 0
215 -216 -274 0
215 -218 -274 0
215 -216 -218 0
-216 199 217 0
-216 -199 -217 0
216 -199 217 0
216 199 -217 0
-217 159 161 0
-217 -159 -161 0
217 -159 161 0
217 159 -161 0
-218 219 221 0
-218 221 262 0
-218 219 262 0
218 -219 -262 0
218 -221 -262 0
218 -219 -221 0
-219 185 220 0
-219 -185 -220 0
219 -185 220 0
219 185 -220 0
-220 162 163 0
-220 -162 -163 0
220 -162 163 0
220 162 -163 0
-221 222 224 0
-221 224 248 0
-221 222 248 0
221 -222 -248 0
221 -224 -248 0
221 -222 -224 0
-222 176 223 0
-222 -176 -223 0
222 -176 223 0
222 176 -223 0
-223 164 166 0
-223 -164 -166 0
223 -164 166 0
223 164 -166 0
-224 225 226 0
-224 226 239 0
-224 225 239 0
224 -225 -239 0
224 -226 -239 0
224 -225 -226 0
-225 169 174 0
-225 -169 -174 0
225 -169 174 0
225 169 -174 0
-226 227 230 0
-226 230 234 0
-226 227 234 0
226 -227 -234 0
226 -230 -234 0
226 -227 -230 0
-227 -228 -229 0
-227 228 229 0
227 228 -229 0
227 -228 229 0
228 -4972 -4974 0
-228 4972 0
-228 4974 0
229 -4987 -5009 0
-229 4987 0
-229 5009 0
-230 231 233 0
-230 232 233 0
-230 231 232 0
230 -231 -232 0
230 -232 -233 0
230 -231 -233 0
231 -4972 -5013 0
-231 4972 0
-231 5013 0
232 -4974 -4987 0
-232 4974 0
-232 4987 0
233 -4963 -5009 0
-233 4963 0
-233 5009 0
-234 -235 -238 0
-234 235 238 0
234 235 -238 0
234 -235 238 0
-235 -236 -237 0
-235 236 237 0
235 236 -237 0
235 -236 237 0
236 -4961 -4963 0
-236 4961 0
-236 4963 0
237 -4971 -5002 0
-237 4971 0
-237 5002 0
238 -4959 -4995 0
-238 4959 0
-238 4995 0
-239 240 244 0
-239 -240 -244 0
239 -240 244 0
239 240 -244 0
-240 241 242 0
-240 -241 -242 0
240 -241 242 0
240 241 -242 0
-241 236 238 0
-241 237 238 0
-241 236 237 0
241 -236 -237 0
241 -237 -238 0
241 -236 -238 0
-242 184 243 0
-242 -184 -243 0
242 -184 243 0
242 184 -243 0
-243 -182 -183 0
-243 182 183 0
243 182 -183 0
243 -182 183 0
-244 245 247 0
-244 246 247 0
-244 245 246 0
244 -245 -246 0
244 -246 -247 0
244 -245 -247 0
245 -4980 -4991 0
-245 4980 0
-245 4991 0
246 -4967 -4979 0
-246 4967 0
-246 4979 0
247 -4965 -4978 0
-247 4965 0
-247 4978 0
-248 249 253 0
-248 -249 -253 0
248 -249 253 0
248 249 -253 0
-249 250 251 0
-249 -250 -251 0
249 -250 251 0
249 250 -251 0
-250 241 242 0
-250 242 244 0
-250 241 244 0
250 -241 -244 0
250 -242 -244 0
250 -241 -242 0
-251 197 252 0
-251 -197 -252 0
251 -197 252 0
251 197 -252 0
-252 191 193 0
-252 -191 -193 0
252 -191 193 0
252 191 -193 0
-253 254 256 0
-253 256 260 0
-253 254 260 0
253 -254 -260 0
253 -256 -260 0
253 -254 -256 0
-254 196 255 0
-254 -196 -255 0
254 -196 255 0
254 196 -255 0
-255 -194 -195 0
-255 194 195 0
255 194 -195 0
255 -194 195 0
-256 257 259 0
-256 258 259 0
-256 257 258 0
256 -257 -258 0
256 -258 -259 0
256 -257 -259 0
257 -4970 -4976 0
-257 4970 0
-257 4976 0
258 -4957 -5033 0
-258 4957 0
-258 5033 0
259 -4964 -4975 0
-259 4964 0
-259 4975 0
-260 210 261 0
-260 -210 -261 0
260 -210 261 0
260 210 -261 0
-261 -208 -209 0
-261 208 209 0
261 208 -209 0
261 -208 209 0
-262 -263 -266 0
-262 263 266 0
262 263 -266 0
262 -263 266 0
-263 264 265 0
-263 -264 -265 0
263 -264 265 0
263 264 -265 0
-264 -204 -205 0
-264 204 205 0
264 204 -205 0
264 -204 205 0
-265 250 251 0
-265 251 253 0
-265 250 253 0
265 -250 -253 0
265 -251 -253 0
265 -250 -251 0
266 -267 -268 0
-266 267 0
-266 268 0
-267 206 207 0
-267 -206 -207 0
267 -206 207 0
267 206 -207 0
268 -269 -270 0
-268 269 0
-268 270 0
269 -4962 -5003 0
-269 4962 0
-269 5003 0
-270 271 273 0
-270 272 273 0
-270 271 272 0
270 -271 -272 0
270 -272 -273 0
270 -271 -273 0
271 -4969 -5006 0
-271 4969 0
-271 5006 0
272 -4966 -4977 0
-272 4966 0
-272 4977 0
273 -4962 -5005 0
-273 4962 0
-273 5005 0
-274 264 265 0
-274 265 266 0
-274 264 266 0
274 -265 -266 0
274 -264 -265 0
274 -264 -266 0
275 -276 -277 0
-275 276 0
-275 277 0
-276 213 215 0
-276 -213 -215 0
276 -213 215 0
276 213 -215 0
277 -278 -280 0
-277 278 0
-277 280 0
-278 274 279 0
-278 -274 -279 0
278 -274 279 0
278 274 -279 0
-279 216 218 0
-279 -216 -218 0
279 -216 218 0
279 216 -218 0
-280 281 283 0
-280 283 339 0
-280 281 339 0
280 -281 -339 0
280 -283 -339 0
280 -281 -283 0
-281 262 282 0
-281 -262 -282 0
281 -262 282 0
281 262 -282 0
-282 219 221 0
-282 -219 -221 0
282 -219 221 0
282 219 -221 0
-283 284 286 0
-283 286 327 0
-283 284 327 0
283 -284 -327 0
283 -286 -327 0
283 -284 -286 0
-284 248 285 0
-284 -248 -285 0
284 -248 285 0
284 248 -285 0
-285 222 224 0
-285 -222 -224 0
285 -222 224 0
285 222 -224 0
-286 287 289 0
-286 289 313 0
-286 287 313 0
286 -287 -313 0
286 -289 -313 0
286 -287 -289 0
-287 239 288 0
-287 -239 -288 0
287 -239 288 0
287 239 -288 0
-288 225 226 0
-288 -225 -226 0
288 -225 226 0
288 225 -226 0
-289 290 292 0
-289 292 304 0
-289 290 304 0
289 -290 -304 0
289 -292 -304 0
289 -290 -292 0
-290 234 291 0
-290 -234 -291 0
290 -234 291 0
290 234 -291 0
-291 227 230 0
-291 -227 -230 0
291 -227 230 0
291 227 -230 0
-292 293 295 0
-292 295 299 0
-292 293 299 0
292 -293 -299 0
292 -295 -299 0
292 -293 -295 0
-293 233 294 0
-293 -233 -294 0
293 -233 294 0
293 233 -294 0
-294 -231 -232 0
-294 231 232 0
294 231 -232 0
294 -231 232 0
-295 296 298 0
-295 297 298 0
-295 296 297 0
295 -296 -297 0
295 -297 -298 0
295 -296 -298 0
296 -4987 -5013 0
-296 4987 0
-296 5013 0
297 -4963 -4974 0
-297 4963 0
-297 4974 0
298 -5002 -5009 0
-298 5002 0
-298 5009 0
-299 -300 -303 0
-299 300 303 0
299 300 -303 0
299 -300 303 0
-300 -301 -302 0
-300 301 302 0
300 301 -302 0
300 -301 302 0
301 -4961 -5002 0
-301 4961 0
-301 5002 0
302 -4971 -4995 0
-302 4971 0
-302 4995 0
303 -4959 -4991 0
-303 4959 0
-303 4991 0
-304 305 309 0
-304 -305 -309 0
304 -305 309 0
304 305 -309 0
-305 306 307 0
-305 -306 -307 0
305 -306 307 0
305 306 -307 0
-306 301 303 0
-306 302 303 0
-306 301 302 0
306 -301 -302 0
306 -302 -303 0
306 -301 -303 0
-307 247 308 0
-307 -247 -308 0
307 -247 308 0
307 247 -308 0
-308 -245 -246 0
-308 245 246 0
308 245 -246 0
308 -245 246 0
-309 310 312 0
-309 311 312 0
-309 310 311 0
309 -310 -311 0
309 -311 -312 0
309 -310 -312 0
310 -4967 -4980 0
-310 4967 0
-310 4980 0
311 -4965 -4979 0
-311 4965 0
-311 4979 0
312 -4970 -4978 0
-312 4970 0
-312 4978 0
-313 314 318 0
-313 -314 -318 0
313 -314 318 0
313 314 -318 0
-314 315 316 0
-314 -315 -316 0
314 -315 316 0
314 315 -316 0
-315 306 307 0
-315 307 309 0
-315 306 309 0
315 -306 -309 0
315 -307 -309 0
315 -306 -307 0
-316 260 317 0
-316 -260 -317 0
316 -260 317 0
316 260 -317 0
-317 254 256 0
-317 -254 -256 0
317 -254 256 0
317 254 -256 0
-318 319 321 0
-318 321 325 0
-318 319 325 0
318 -319 -325 0
318 -321 -325 0
318 -319 -321 0
-319 259 320 0
-319 -259 -320 0
319 -259 320 0
319 259 -320 0
-320 -257 -258 0
-320 257 258 0
320 257 -258 0
320 -257 258 0
-321 322 324 0
-321 323 324 0
-321 322 323 0
321 -322 -323 0
321 -323 -324 0
321 -322 -324 0
322 -4976 -5033 0
-322 4976 0
-322 5033 0
323 -4957 -4975 0
-323 4957 0
-323 4975 0
324 -4964 -5006 0
-324 4964 0
-324 5006 0
-325 273 326 0
-325 -273 -326 0
325 -273 326 0
325 273 -326 0
-326 -271 -272 0
-326 271 272 0
326 271 -272 0
326 -271 272 0
-327 -328 -331 0
-327 328 331 0
327 328 -331 0
327 -328 331 0
-328 329 330 0
-328 -329 -330 0
328 -329 330 0
328 329 -330 0
-329 -267 -268 0
-329 267 268 0
329 267 -268 0
329 -267 268 0
-330 315 316 0
-330 316 318 0
-330 315 318 0
330 -315 -318 0
330 -316 -318 0
330 -315 -316 0
331 -332 -333 0
-331 332 0
-331 333 0
-332 269 270 0
-332 -269 -270 0
332 -269 270 0
332 269 -270 0
333 -334 -335 0
-333 334 0
-333 335 0
334 -4981 -5003 0
-334 4981 0
-334 5003 0
-335 336 338 0
-335 337 338 0
-335 336 337 0
335 -336 -337 0
335 -337 -338 0
335 -336 -338 0
336 -4969 -4977 0
-336 4969 0
-336 4977 0
337 -4962 -4966 0
-337 4962 0
-337 4966 0
338 -4981 -5005 0
-338 4981 0
-338 5005 0
-339 329 330 0
-339 330 331 0
-339 329 331 0
339 -330 -331 0
339 -329 -330 0
339 -329 -331 0
-340 341 408 0
-340 408 467 0
-340 408 468 0
340 -408 0
340 -341 -467 -468 0
-341 -342 -343 0
-341 342 343 0
341 342 -343 0
341 -342 343 0
-342 -276 -277 0
-342 276 277 0
342 276 -277 0
342 -276 277 0
343 -344 -345 0
-343 344 0
-343 345 0
-344 278 280 0
-344 -278 -280 0
344 -278 280 0
344 278 -280 0
345 -346 -348 0
-345 346 0
-345 348 0
-346 339 347 0
-346 -339 -347 0
346 -339 347 0
346 339 -347 0
-347 281 283 0
-347 -281 -283 0
347 -281 283 0
347 281 -283 0
-348 349 351 0
-348 351 407 0
-348 349 407 0
348 -349 -407 0
348 -351 -407 0
348 -349 -351 0
-349 327 350 0
-349 -327 -350 0
349 -327 350 0
349 327 -350 0
-350 284 286 0
-350 -284 -286 0
350 -284 286 0
350 284 -286 0
-351 352 354 0
-351 354 395 0
-351 352 395 0
351 -352 -395 0
351 -354 -395 0
351 -352 -354 0
-352 313 353 0
-352 -313 -353 0
352 -313 353 0
352 313 -353 0
-353 287 289 0
-353 -287 -289 0
353 -287 289 0
353 287 -289 0
-354 355 357 0
-354 357 381 0
-354 355 381 0
354 -355 -381 0
354 -357 -381 0
354 -355 -357 0
-355 304 356 0
-355 -304 -356 0
355 -304 356 0
355 304 -356 0
-356 290 292 0
-356 -290 -292 0
356 -290 292 0
356 290 -292 0
-357 358 360 0
-357 360 372 0
-357 358 372 0
357 -358 -372 0
357 -360 -372 0
357 -358 -360 0
-358 299 359 0
-358 -299 -359 0
358 -299 359 0
358 299 -359 0
-359 293 295 0
-359 -293 -295 0
359 -293 295 0
359 293 -295 0
-360 361 363 0
-360 363 367 0
-360 361 367 0
360 -361 -367 0
360 -363 -367 0
360 -361 -363 0
-361 298 362 0
-361 -298 -362 0
361 -298 362 0
361 298 -362 0
-362 -296 -297 0
-362 296 297 0
362 296 -297 0
362 -296 297 0
-363 364 366 0
-363 365 366 0
-363 364 365 0
363 -364 -365 0
363 -365 -366 0
363 -364 -366 0
364 -4963 -5013 0
-364 4963 0
-364 5013 0
365 -4974 -5002 0
-365 4974 0
-365 5002 0
366 -4995 -5009 0
-366 4995 0
-366 5009 0
-367 -368 -371 0
-367 368 371 0
367 368 -371 0
367 -368 371 0
-368 -369 -370 0
-368 369 370 0
368 369 -370 0
368 -369 370 0
369 -4961 -4995 0
-369 4961 0
-369 4995 0
370 -4971 -4991 0
-370 4971 0
-370 4991 0
371 -4959 -4967 0
-371 4959 0
-371 4967 0
-372 373 377 0
-372 -373 -377 0
372 -373 377 0
372 373 -377 0
-373 374 375 0
-373 -374 -375 0
373 -374 375 0
373 374 -375 0
-374 369 371 0
-374 370 371 0
-374 369 370 0
374 -369 -370 0
374 -370 -371 0
374 -369 -371 0
-375 312 376 0
-375 -312 -376 0
375 -312 376 0
375 312 -376 0
-376 -310 -311 0
-376 310 311 0
376 310 -311 0
376 -310 311 0
-377 378 380 0
-377 379 380 0
-377 378 379 0
377 -378 -379 0
377 -379 -380 0
377 -378 -380 0
378 -4965 -4980 0
-378 4965 0
-378 4980 0
379 -4970 -4979 0
-379 4970 0
-379 4979 0
380 -4978 -5033 0
-380 4978 0
-380 5033 0
-381 382 386 0
-381 -382 -386 0
381 -382 386 0
381 382 -386 0
-382 383 384 0
-382 -383 -384 0
382 -383 384 0
382 383 -384 0
-383 374 375 0
-383 375 377 0
-383 374 377 0
383 -374 -377 0
383 -375 -377 0
383 -374 -375 0
-384 325 385 0
-384 -325 -385 0
384 -325 385 0
384 325 -385 0
-385 319 321 0
-385 -319 -321 0
385 -319 321 0
385 319 -321 0
-386 387 389 0
-386 389 393 0
-386 387 393 0
386 -387 -393 0
386 -389 -393 0
386 -387 -389 0
-387 324 388 0
-387 -324 -388 0
387 -324 388 0
387 324 -388 0
-388 -322 -323 0
-388 322 323 0
388 322 -323 0
388 -322 323 0
-389 390 392 0
-389 391 392 0
-389 390 391 0
389 -390 -391 0
389 -391 -392 0
389 -390 -392 0
390 -4975 -4976 0
-390 4975 0
-390 4976 0
391 -4957 -5006 0
-391 4957 0
-391 5006 0
392 -4964 -4977 0
-392 4964 0
-392 4977 0
-393 338 394 0
-393 -338 -394 0
393 -338 394 0
393 338 -394 0
-394 -336 -337 0
-394 336 337 0
394 336 -337 0
394 -336 337 0
-395 -396 -399 0
-395 396 399 0
395 396 -399 0
395 -396 399 0
-396 397 398 0
-396 -397 -398 0
396 -397 398 0
396 397 -398 0
-397 -332 -333 0
-397 332 333 0
397 332 -333 0
397 -332 333 0
-398 383 384 0
-398 384 386 0
-398 383 386 0
398 -383 -386 0
398 -384 -386 0
398 -383 -384 0
399 -400 -401 0
-399 400 0
-399 401 0
-400 334 335 0
-400 -334 -335 0
400 -334 335 0
400 334 -335 0
401 -402 -403 0
-401 402 0
-401 403 0
402 -4982 -5003 0
-402 4982 0
-402 5003 0
-403 404 406 0
-403 405 406 0
-403 404 405 0
403 -404 -405 0
403 -405 -406 0
403 -404 -406 0
404 -4962 -4969 0
-404 4962 0
-404 4969 0
405 -4966 -4981 0
-405 4966 0
-405 4981 0
406 -4982 -5005 0
-406 4982 0
-406 5005 0
-407 397 398 0
-407 398 399 0
-407 397 399 0
407 -398 -399 0
407 -397 -398 0
407 -397 -399 0
-408 343 409 0
-408 342 343 0
-408 342 409 0
408 -342 -343 0
408 -343 -409 0
408 -342 -409 0
409 -410 -411 0
-409 410 0
-409 411 0
-410 -344 -345 0
-410 344 345 0
410 344 -345 0
410 -344 345 0
411 -412 -413 0
-411 412 0
-411 413 0
-412 346 348 0
-412 -346 -348 0
412 -346 348 0
412 346 -348 0
413 -414 -416 0
-413 414 0
-413 416 0
-414 407 415 0
-414 -407 -415 0
414 -407 415 0
414 407 -415 0
-415 349 351 0
-415 -349 -351 0
415 -349 351 0
415 349 -351 0
-416 417 419 0
-416 419 466 0
-416 417 466 0
416 -419 -466 0
416 -417 -419 0
416 -417 -466 0
-417 395 418 0
-417 -395 -418 0
417 -395 418 0
417 395 -418 0
-418 352 354 0
-418 -352 -354 0
418 -352 354 0
418 352 -354 0
-419 420 422 0
-419 422 463 0
-419 420 463 0
419 -420 -463 0
419 -422 -463 0
419 -420 -422 0
-420 381 421 0
-420 -381 -421 0
420 -381 421 0
420 381 -421 0
-421 355 357 0
-421 -355 -357 0
421 -355 357 0
421 355 -357 0
-422 423 425 0
-422 425 449 0
-422 423 449 0
422 -423 -449 0
422 -425 -449 0
422 -423 -425 0
-423 372 424 0
-423 -372 -424 0
423 -372 424 0
423 372 -424 0
-424 358 360 0
-424 -358 -360 0
424 -358 360 0
424 358 -360 0
-425 426 428 0
-425 428 440 0
-425 426 440 0
425 -426 -440 0
425 -428 -440 0
425 -426 -428 0
-426 367 427 0
-426 -367 -427 0
426 -367 427 0
426 367 -427 0
-427 361 363 0
-427 -361 -363 0
427 -361 363 0
427 361 -363 0
-428 429 431 0
-428 431 435 0
-428 429 435 0
428 -429 -435 0
428 -431 -435 0
428 -429 -431 0
-429 366 430 0
-429 -366 -430 0
429 -366 430 0
429 366 -430 0
-430 -364 -365 0
-430 364 365 0
430 364 -365 0
430 -364 365 0
-431 432 434 0
-431 433 434 0
-431 432 433 0
431 -432 -433 0
431 -433 -434 0
431 -432 -434 0
432 -5002 -5013 0
-432 5002 0
-432 5013 0
433 -4974 -4995 0
-433 4974 0
-433 4995 0
434 -4991 -5009 0
-434 4991 0
-434 5009 0
-435 -436 -439 0
-435 436 439 0
435 436 -439 0
435 -436 439 0
-436 -437 -438 0
-436 437 438 0
436 437 -438 0
436 -437 438 0
437 -4961 -4991 0
-437 4961 0
-437 4991 0
438 -4967 -4971 0
-438 4967 0
-438 4971 0
439 -4959 -4965 0
-439 4959 0
-439 4965 0
-440 441 445 0
-440 -441 -445 0
440 -441 445 0
440 441 -445 0
-441 442 443 0
-441 -442 -443 0
441 -442 443 0
441 442 -443 0
-442 437 439 0
-442 438 439 0
-442 437 438 0
442 -437 -438 0
442 -438 -439 0
442 -437 -439 0
-443 380 444 0
-443 -380 -444 0
443 -380 444 0
443 380 -444 0
-444 -378 -379 0
-444 378 379 0
444 378 -379 0
444 -378 379 0
-445 446 448 0
-445 447 448 0
-445 446 447 0
445 -446 -447 0
445 -447 -448 0
445 -446 -448 0
446 -4970 -4980 0
-446 4970 0
-446 4980 0
447 -4979 -5033 0
-447 4979 0
-447 5033 0
448 -4975 -4978 0
-448 4975 0
-448 4978 0
-449 450 454 0
-449 -450 -454 0
449 -450 454 0
449 450 -454 0
-450 451 452 0
-450 -451 -452 0
450 -451 452 0
450 451 -452 0
-451 442 443 0
-451 443 445 0
-451 442 445 0
451 -442 -445 0
451 -443 -445 0
451 -442 -443 0
-452 393 453 0
-452 -393 -453 0
452 -393 453 0
452 393 -453 0
-453 387 389 0
-453 -387 -389 0
453 -387 389 0
453 387 -389 0
-454 455 457 0
-454 457 461 0
-454 455 461 0
454 -455 -461 0
454 -457 -461 0
454 -455 -457 0
-455 392 456 0
-455 -392 -456 0
455 -392 456 0
455 392 -456 0
-456 -390 -391 0
-456 390 391 0
456 390 -391 0
456 -390 391 0
-457 458 460 0
-457 459 460 0
-457 458 459 0
457 -458 -459 0
457 -459 -460 0
457 -458 -460 0
458 -4976 -5006 0
-458 4976 0
-458 5006 0
459 -4957 -4977 0
-459 4957 0
-459 4977 0
460 -4962 -4964 0
-460 4962 0
-460 4964 0
-461 406 462 0
-461 -406 -462 0
461 -406 462 0
461 406 -462 0
-462 -404 -405 0
-462 404 405 0
462 404 -405 0
462 -404 405 0
-463 464 465 0
-463 -464 -465 0
463 -464 465 0
463 464 -465 0
-464 -400 -401 0
-464 400 401 0
464 400 -401 0
464 -400 401 0
-465 451 452 0
-465 452 454 0
-465 451 454 0
465 -451 -454 0
465 -452 -454 0
465 -451 -452 0
466 -464 -465 0
-466 464 0
-466 465 0
-467 -410 -411 0
-467 410 411 0
467 410 -411 0
467 -410 411 0
-468 469 586 0
-468 586 682 0
-468 586 685 0
468 -586 0
468 -469 -682 -685 0
469 -470 -529 0
-469 470 0
-469 529 0
-470 -471 -472 0
-470 471 472 0
470 471 -472 0
470 -471 472 0
-471 -412 -413 0
-471 412 413 0
471 412 -413 0
471 -412 413 0
472 -473 -474 0
-472 473 0
-472 474 0
-473 414 416 0
-473 -414 -416 0
473 -414 416 0
473 414 -416 0
474 -475 -477 0
-474 475 0
-474 477 0
-475 466 476 0
-475 -466 -476 0
475 -466 476 0
475 466 -476 0
-476 417 419 0
-476 -417 -419 0
476 -417 419 0
476 417 -419 0
-477 478 480 0
-477 480 528 0
-477 478 528 0
477 -480 -528 0
477 -478 -480 0
477 -478 -528 0
-478 463 479 0
-478 -463 -479 0
478 -463 479 0
478 463 -479 0
-479 420 422 0
-479 -420 -422 0
479 -420 422 0
479 420 -422 0
-480 481 483 0
-480 483 525 0
-480 481 525 0
480 -481 -525 0
480 -483 -525 0
480 -481 -483 0
-481 449 482 0
-481 -449 -482 0
481 -449 482 0
481 449 -482 0
-482 423 425 0
-482 -423 -425 0
482 -423 425 0
482 423 -425 0
-483 484 486 0
-483 486 510 0
-483 484 510 0
483 -484 -510 0
483 -486 -510 0
483 -484 -486 0
-484 440 485 0
-484 -440 -485 0
484 -440 485 0
484 440 -485 0
-485 426 428 0
-485 -426 -428 0
485 -426 428 0
485 426 -428 0
-486 487 489 0
-486 489 501 0
-486 487 501 0
486 -487 -501 0
486 -489 -501 0
486 -487 -489 0
-487 435 488 0
-487 -435 -488 0
487 -435 488 0
487 435 -488 0
-488 429 431 0
-488 -429 -431 0
488 -429 431 0
488 429 -431 0
-489 490 492 0
-489 492 496 0
-489 490 496 0
489 -490 -496 0
489 -492 -496 0
489 -490 -492 0
-490 434 491 0
-490 -434 -491 0
490 -434 491 0
490 434 -491 0
-491 -432 -433 0
-491 432 433 0
491 432 -433 0
491 -432 433 0
-492 493 495 0
-492 494 495 0
-492 493 494 0
492 -493 -494 0
492 -494 -495 0
492 -493 -495 0
493 -4995 -5013 0
-493 4995 0
-493 5013 0
494 -4974 -4991 0
-494 4974 0
-494 4991 0
495 -4967 -5009 0
-495 4967 0
-495 5009 0
-496 -497 -500 0
-496 497 500 0
496 497 -500 0
496 -497 500 0
-497 -498 -499 0
-497 498 499 0
497 498 -499 0
497 -498 499 0
498 -4961 -4967 0
-498 4961 0
-498 4967 0
499 -4965 -4971 0
-499 4965 0
-499 4971 0
500 -4959 -4970 0
-500 4959 0
-500 4970 0
-501 502 506 0
-501 -502 -506 0
501 -502 506 0
501 502 -506 0
-502 503 504 0
-502 -503 -504 0
502 -503 504 0
502 503 -504 0
-503 498 500 0
-503 499 500 0
-503 498 499 0
503 -498 -499 0
503 -499 -500 0
503 -498 -500 0
-504 448 505 0
-504 -448 -505 0
504 -448 505 0
504 448 -505 0
-505 -446 -447 0
-505 446 447 0
505 446 -447 0
505 -446 447 0
-506 507 509 0
-506 508 509 0
-506 507 508 0
506 -507 -508 0
506 -508 -509 0
506 -507 -509 0
507 -4980 -5033 0
-507 4980 0
-507 5033 0
508 -4975 -4979 0
-508 4975 0
-508 4979 0
509 -4978 -5006 0
-509 4978 0
-509 5006 0
-510 511 515 0
-510 -511 -515 0
510 -511 515 0
510 511 -515 0
-511 512 513 0
-511 -512 -513 0
511 -512 513 0
511 512 -513 0
-512 503 504 0
-512 504 506 0
-512 503 506 0
512 -503 -506 0
512 -504 -506 0
512 -503 -504 0
-513 461 514 0
-513 -461 -514 0
513 -461 514 0
513 461 -514 0
-514 455 457 0
-514 -455 -457 0
514 -455 457 0
514 455 -457 0
-515 516 518 0
-515 518 522 0
-515 516 522 0
515 -516 -522 0
515 -518 -522 0
515 -516 -518 0
-516 460 517 0
-516 -460 -517 0
516 -460 517 0
516 460 -517 0
-517 -458 -459 0
-517 458 459 0
517 458 -459 0
517 -458 459 0
-518 519 521 0
-518 520 521 0
-518 519 520 0
518 -519 -520 0
518 -520 -521 0
518 -519 -521 0
519 -4976 -4977 0
-519 4976 0
-519 4977 0
520 -4957 -4962 0
-520 4957 0
-520 4962 0
521 -4964 -4981 0
-521 4964 0
-521 4981 0
-522 -523 -524 0
-522 523 524 0
522 523 -524 0
522 -523 524 0
523 -4969 -4981 0
-523 4969 0
-523 4981 0
524 -4966 -4982 0
-524 4966 0
-524 4982 0
-525 526 527 0
-525 -526 -527 0
525 -526 527 0
525 526 -527 0
-526 402 403 0
-526 -402 -403 0
526 -402 403 0
526 402 -403 0
-527 512 513 0
-527 513 515 0
-527 512 515 0
527 -512 -515 0
527 -513 -515 0
527 -512 -513 0
528 -526 -527 0
-528 526 0
-528 527 0
-529 -530 -531 0
-529 530 531 0
529 530 -531 0
529 -530 531 0
-530 -473 -474 0
-530 473 474 0
530 473 -474 0
530 -473 474 0
531 -532 -533 0
-531 532 0
-531 533 0
-532 475 477 0
-532 -475 -477 0
532 -475 477 0
532 475 -477 0
533 -534 -536 0
-533 534 0
-533 536 0
-534 528 535 0
-534 -528 -535 0
534 -528 535 0
534 528 -535 0
-535 478 480 0
-535 -478 -480 0
535 -478 480 0
535 478 -480 0
-536 537 539 0
-536 539 585 0
-536 537 585 0
536 -539 -585 0
536 -537 -539 0
536 -537 -585 0
-537 525 538 0
-537 -525 -538 0
537 -525 538 0
537 525 -538 0
-538 481 483 0
-538 -481 -483 0
538 -481 483 0
538 481 -483 0
-539 540 542 0
-539 542 582 0
-539 540 582 0
539 -540 -582 0
539 -542 -582 0
539 -540 -542 0
-540 510 541 0
-540 -510 -541 0
540 -510 541 0
540 510 -541 0
-541 484 486 0
-541 -484 -486 0
541 -484 486 0
541 484 -486 0
-542 543 545 0
-542 545 569 0
-542 543 569 0
542 -543 -569 0
542 -545 -569 0
542 -543 -545 0
-543 501 544 0
-543 -501 -544 0
543 -501 544 0
543 501 -544 0
-544 487 489 0
-544 -487 -489 0
544 -487 489 0
544 487 -489 0
-545 546 548 0
-545 548 560 0
-545 546 560 0
545 -546 -560 0
545 -548 -560 0
545 -546 -548 0
-546 496 547 0
-546 -496 -547 0
546 -496 547 0
546 496 -547 0
-547 490 492 0
-547 -490 -492 0
547 -490 492 0
547 490 -492 0
-548 549 551 0
-548 551 555 0
-548 549 555 0
548 -549 -555 0
548 -551 -555 0
548 -549 -551 0
-549 495 550 0
-549 -495 -550 0
549 -495 550 0
549 495 -550 0
-550 -493 -494 0
-550 493 494 0
550 493 -494 0
550 -493 494 0
-551 552 554 0
-551 553 554 0
-551 552 553 0
551 -552 -553 0
551 -553 -554 0
551 -552 -554 0
552 -4991 -5013 0
-552 4991 0
-552 5013 0
553 -4967 -4974 0
-553 4967 0
-553 4974 0
554 -4965 -5009 0
-554 4965 0
-554 5009 0
-555 -556 -559 0
-555 556 559 0
555 556 -559 0
555 -556 559 0
-556 -557 -558 0
-556 557 558 0
556 557 -558 0
556 -557 558 0
557 -4961 -4965 0
-557 4961 0
-557 4965 0
558 -4970 -4971 0
-558 4970 0
-558 4971 0
559 -4959 -5033 0
-559 4959 0
-559 5033 0
-560 561 565 0
-560 -561 -565 0
560 -561 565 0
560 561 -565 0
-561 562 563 0
-561 -562 -563 0
561 -562 563 0
561 562 -563 0
-562 557 559 0
-562 558 559 0
-562 557 558 0
562 -557 -558 0
562 -558 -559 0
562 -557 -559 0
-563 509 564 0
-563 -509 -564 0
563 -509 564 0
563 509 -564 0
-564 -507 -508 0
-564 507 508 0
564 507 -508 0
564 -507 508 0
-565 566 568 0
-565 567 568 0
-565 566 567 0
565 -566 -567 0
565 -567 -568 0
565 -566 -568 0
566 -4975 -4980 0
-566 4975 0
-566 4980 0
567 -4979 -5006 0
-567 4979 0
-567 5006 0
568 -4977 -4978 0
-568 4977 0
-568 4978 0
-569 570 574 0
-569 -570 -574 0
569 -570 574 0
569 570 -574 0
-570 571 572 0
-570 -571 -572 0
570 -571 572 0
570 571 -572 0
-571 562 563 0
-571 563 565 0
-571 562 565 0
571 -562 -565 0
571 -563 -565 0
571 -562 -563 0
-572 522 573 0
-572 -522 -573 0
572 -522 573 0
572 522 -573 0
-573 516 518 0
-573 -516 -518 0
573 -516 518 0
573 516 -518 0
-574 575 577 0
-574 577 581 0
-574 575 581 0
574 -577 -581 0
574 -575 -577 0
574 -575 -581 0
-575 521 576 0
-575 -521 -576 0
575 -521 576 0
575 521 -576 0
-576 -519 -520 0
-576 519 520 0
576 519 -520 0
576 -519 520 0
-577 578 580 0
-577 579 580 0
-577 578 579 0
577 -578 -579 0
577 -579 -580 0
577 -578 -580 0
578 -4962 -4976 0
-578 4962 0
-578 4976 0
579 -4957 -4981 0
-579 4957 0
-579 4981 0
580 -4964 -4982 0
-580 4964 0
-580 4982 0
581 -4969 -4982 0
-581 4969 0
-581 4982 0
-582 583 584 0
-582 -583 -584 0
582 -583 584 0
582 583 -584 0
583 -4966 -4969 -4981 -4982 0
-583 4982 0
-583 4966 0
-583 4981 0
-583 4969 0
-584 571 572 0
-584 572 574 0
-584 571 574 0
584 -571 -574 0
584 -572 -574 0
584 -571 -572 0
585 -583 -584 0
-585 583 0
-585 584 0
-586 471 472 588 0
-586 471 587 588 0
-586 472 587 588 0
586 -471 -472 0
586 -472 -587 0
586 -588 0
586 -471 -587 0
587 -530 -531 0
-587 530 0
-587 531 0
588 -469 -589 0
-588 469 0
-588 589 0
-589 591 639 0
-589 590 591 0
-589 590 639 0
589 -590 -591 0
589 -591 -639 0
589 -590 -639 0
-590 -532 -533 0
-590 532 533 0
590 532 -533 0
590 -532 533 0
591 -592 -593 0
-591 592 0
-591 593 0
-592 534 536 0
-592 -534 -536 0
592 -534 536 0
592 534 -536 0
593 -594 -596 0
-593 594 0
-593 596 0
-594 585 595 0
-594 -585 -595 0
594 -585 595 0
594 585 -595 0
-595 537 539 0
-595 -537 -539 0
595 -537 539 0
595 537 -539 0
596 -597 -599 0
-596 597 0
-596 599 0
-597 582 598 0
-597 -582 -598 0
597 -582 598 0
597 582 -598 0
-598 540 542 0
-598 -540 -542 0
598 -540 542 0
598 540 -542 0
-599 600 602 0
-599 602 638 0
-599 600 638 0
599 -600 -638 0
599 -602 -638 0
599 -600 -602 0
-600 569 601 0
-600 -569 -601 0
600 -569 601 0
600 569 -601 0
-601 543 545 0
-601 -543 -545 0
601 -543 545 0
601 543 -545 0
-602 603 605 0
-602 605 629 0
-602 603 629 0
602 -603 -629 0
602 -605 -629 0
602 -603 -605 0
-603 560 604 0
-603 -560 -604 0
603 -560 604 0
603 560 -604 0
-604 546 548 0
-604 -546 -548 0
604 -546 548 0
604 546 -548 0
-605 606 608 0
-605 608 620 0
-605 606 620 0
605 -606 -620 0
605 -608 -620 0
605 -606 -608 0
-606 555 607 0
-606 -555 -607 0
606 -555 607 0
606 555 -607 0
-607 549 551 0
-607 -549 -551 0
607 -549 551 0
607 549 -551 0
-608 609 611 0
-608 611 615 0
-608 609 615 0
608 -609 -615 0
608 -611 -615 0
608 -609 -611 0
-609 554 610 0
-609 -554 -610 0
609 -554 610 0
609 554 -610 0
-610 -552 -553 0
-610 552 553 0
610 552 -553 0
610 -552 553 0
-611 612 614 0
-611 613 614 0
-611 612 613 0
611 -612 -613 0
611 -613 -614 0
611 -612 -614 0
612 -4967 -5013 0
-612 4967 0
-612 5013 0
613 -4965 -4974 0
-613 4965 0
-613 4974 0
614 -4970 -5009 0
-614 4970 0
-614 5009 0
-615 -616 -619 0
-615 616 619 0
615 616 -619 0
615 -616 619 0
-616 -617 -618 0
-616 617 618 0
616 617 -618 0
616 -617 618 0
617 -4961 -4970 0
-617 4961 0
-617 4970 0
618 -4971 -5033 0
-618 4971 0
-618 5033 0
619 -4959 -4975 0
-619 4959 0
-619 4975 0
-620 621 625 0
-620 -621 -625 0
620 -621 625 0
620 621 -625 0
-621 622 623 0
-621 -622 -623 0
621 -622 623 0
621 622 -623 0
-622 617 619 0
-622 618 619 0
-622 617 618 0
622 -617 -618 0
622 -618 -619 0
622 -617 -619 0
-623 568 624 0
-623 -568 -624 0
623 -568 624 0
623 568 -624 0
-624 -566 -567 0
-624 566 567 0
624 566 -567 0
624 -566 567 0
-625 626 628 0
-625 627 628 0
-625 626 627 0
625 -626 -627 0
625 -627 -628 0
625 -626 -628 0
626 -4980 -5006 0
-626 4980 0
-626 5006 0
627 -4977 -4979 0
-627 4977 0
-627 4979 0
628 -4962 -4978 0
-628 4962 0
-628 4978 0
-629 -630 -634 0
-629 630 634 0
629 630 -634 0
629 -630 634 0
-630 631 632 0
-630 -631 -632 0
630 -631 632 0
630 631 -632 0
-631 622 623 0
-631 623 625 0
-631 622 625 0
631 -622 -625 0
631 -623 -625 0
631 -622 -623 0
-632 581 633 0
-632 -581 -633 0
632 -581 633 0
632 581 -633 0
-633 575 577 0
-633 -575 -577 0
633 -575 577 0
633 575 -577 0
634 -635 -637 0
-634 635 0
-634 637 0
-635 580 636 0
-635 -580 -636 0
635 -580 636 0
635 580 -636 0
-636 -578 -579 0
-636 578 579 0
636 578 -579 0
636 -578 579 0
637 -4957 -4976 -4981 -4982 0
-637 4982 0
-637 4957 0
-637 4981 0
-637 4976 0
-638 631 632 0
-638 632 634 0
-638 631 634 0
638 -632 -634 0
638 -631 -632 0
638 -631 -634 0
639 -640 -641 0
-639 640 0
-639 641 0
-640 -592 -593 0
-640 592 593 0
640 592 -593 0
640 -592 593 0
641 -642 -643 0
-641 642 0
-641 643 0
-642 -594 -596 0
-642 594 596 0
642 594 -596 0
642 -594 596 0
643 -644 -645 0
-643 644 0
-643 645 0
-644 597 599 0
-644 -597 -599 0
644 -597 599 0
644 597 -599 0
645 -646 -648 0
-645 646 0
-645 648 0
-646 638 647 0
-646 -638 -647 0
646 -638 647 0
646 638 -647 0
-647 600 602 0
-647 -600 -602 0
647 -600 602 0
647 600 -602 0
-648 649 651 0
-648 651 681 0
-648 649 681 0
648 -651 -681 0
648 -649 -651 0
648 -649 -681 0
-649 629 650 0
-649 -629 -650 0
649 -629 650 0
649 629 -650 0
-650 603 605 0
-650 -603 -605 0
650 -603 605 0
650 603 -605 0
-651 652 654 0
-651 654 678 0
-651 652 678 0
651 -652 -678 0
651 -654 -678 0
651 -652 -654 0
-652 620 653 0
-652 -620 -653 0
652 -620 653 0
652 620 -653 0
-653 606 608 0
-653 -606 -608 0
653 -606 608 0
653 606 -608 0
-654 655 657 0
-654 657 669 0
-654 655 669 0
654 -655 -669 0
654 -657 -669 0
654 -655 -657 0
-655 615 656 0
-655 -615 -656 0
655 -615 656 0
655 615 -656 0
-656 609 611 0
-656 -609 -611 0
656 -609 611 0
656 609 -611 0
-657 658 660 0
-657 660 664 0
-657 658 664 0
657 -658 -664 0
657 -660 -664 0
657 -658 -660 0
-658 614 659 0
-658 -614 -659 0
658 -614 659 0
658 614 -659 0
-659 -612 -613 0
-659 612 613 0
659 612 -613 0
659 -612 613 0
-660 661 663 0
-660 662 663 0
-660 661 662 0
660 -661 -662 0
660 -662 -663 0
660 -661 -663 0
661 -4965 -5013 0
-661 4965 0
-661 5013 0
662 -4970 -4974 0
-662 4970 0
-662 4974 0
663 -5009 -5033 0
-663 5009 0
-663 5033 0
-664 -665 -668 0
-664 665 668 0
664 665 -668 0
664 -665 668 0
-665 -666 -667 0
-665 666 667 0
665 666 -667 0
665 -666 667 0
666 -4961 -5033 0
-666 4961 0
-666 5033 0
667 -4971 -4975 0
-667 4971 0
-667 4975 0
668 -4959 -5006 0
-668 4959 0
-668 5006 0
-669 670 674 0
-669 -670 -674 0
669 -670 674 0
669 670 -674 0
-670 671 672 0
-670 -671 -672 0
670 -671 672 0
670 671 -672 0
-671 666 668 0
-671 667 668 0
-671 666 667 0
671 -666 -667 0
671 -667 -668 0
671 -666 -668 0
-672 628 673 0
-672 -628 -673 0
672 -628 673 0
672 628 -673 0
-673 -626 -627 0
-673 626 627 0
673 626 -627 0
673 -626 627 0
-674 675 677 0
-674 676 677 0
-674 675 676 0
674 -675 -676 0
674 -676 -677 0
674 -675 -677 0
675 -4977 -4980 0
-675 4977 0
-675 4980 0
676 -4962 -4979 0
-676 4962 0
-676 4979 0
677 -4978 -4981 0
-677 4978 0
-677 4981 0
-678 679 680 0
-678 -679 -680 0
678 -679 680 0
678 679 -680 0
-679 -635 -637 0
-679 635 637 0
679 635 -637 0
679 -635 637 0
-680 671 672 0
-680 672 674 0
-680 671 674 0
680 -671 -674 0
680 -672 -674 0
680 -671 -672 0
681 -679 -680 0
-681 679 0
-681 680 0
682 -683 -684 0
-682 683 0
-682 684 0
-683 -590 -591 0
-683 590 591 0
683 590 -591 0
683 -590 591 0
-684 -640 -641 0
-684 640 641 0
684 640 -641 0
684 -640 641 0
-685 686 772 0
-685 772 841 0
-685 772 846 0
685 -772 0
685 -686 -841 -846 0
686 -687 -732 0
-686 687 0
-686 732 0
-687 -688 -689 0
-687 688 689 0
687 688 -689 0
687 -688 689 0
-688 -642 -643 0
-688 642 643 0
688 642 -643 0
688 -642 643 0
689 -690 -691 0
-689 690 0
-689 691 0
-690 -644 -645 0
-690 644 645 0
690 644 -645 0
690 -644 645 0
691 -692 -693 0
-691 692 0
-691 693 0
-692 646 648 0
-692 -646 -648 0
692 -646 648 0
692 646 -648 0
693 -694 -696 0
-693 694 0
-693 696 0
-694 681 695 0
-694 -681 -695 0
694 -681 695 0
694 681 -695 0
-695 649 651 0
-695 -649 -651 0
695 -649 651 0
695 649 -651 0
-696 697 699 0
-696 699 731 0
-696 697 731 0
696 -699 -731 0
696 -697 -699 0
696 -697 -731 0
-697 678 698 0
-697 -678 -698 0
697 -678 698 0
697 678 -698 0
-698 652 654 0
-698 -652 -654 0
698 -652 654 0
698 652 -654 0
-699 700 702 0
-699 702 726 0
-699 700 726 0
699 -700 -726 0
699 -702 -726 0
699 -700 -702 0
-700 669 701 0
-700 -669 -701 0
700 -669 701 0
700 669 -701 0
-701 655 657 0
-701 -655 -657 0
701 -655 657 0
701 655 -657 0
-702 703 705 0
-702 705 717 0
-702 703 717 0
702 -703 -717 0
702 -705 -717 0
702 -703 -705 0
-703 664 704 0
-703 -664 -704 0
703 -664 704 0
703 664 -704 0
-704 658 660 0
-704 -658 -660 0
704 -658 660 0
704 658 -660 0
-705 706 708 0
-705 708 712 0
-705 706 712 0
705 -706 -712 0
705 -708 -712 0
705 -706 -708 0
-706 663 707 0
-706 -663 -707 0
706 -663 707 0
706 663 -707 0
-707 -661 -662 0
-707 661 662 0
707 661 -662 0
707 -661 662 0
-708 709 711 0
-708 710 711 0
-708 709 710 0
708 -709 -710 0
708 -710 -711 0
708 -709 -711 0
709 -4970 -5013 0
-709 4970 0
-709 5013 0
710 -4974 -5033 0
-710 4974 0
-710 5033 0
711 -4975 -5009 0
-711 4975 0
-711 5009 0
-712 -713 -716 0
-712 713 716 0
712 713 -716 0
712 -713 716 0
-713 -714 -715 0
-713 714 715 0
713 714 -715 0
713 -714 715 0
714 -4961 -4975 0
-714 4961 0
-714 4975 0
715 -4971 -5006 0
-715 4971 0
-715 5006 0
716 -4959 -4977 0
-716 4959 0
-716 4977 0
-717 718 722 0
-717 -718 -722 0
717 -718 722 0
717 718 -722 0
-718 719 720 0
-718 -719 -720 0
718 -719 720 0
718 719 -720 0
-719 714 716 0
-719 715 716 0
-719 714 715 0
719 -714 -715 0
719 -715 -716 0
719 -714 -716 0
-720 677 721 0
-720 -677 -721 0
720 -677 721 0
720 677 -721 0
-721 -675 -676 0
-721 675 676 0
721 675 -676 0
721 -675 676 0
-722 723 725 0
-722 724 725 0
-722 723 724 0
722 -723 -724 0
722 -724 -725 0
722 -723 -725 0
723 -4962 -4980 0
-723 4962 0
-723 4980 0
724 -4979 -4981 0
-724 4979 0
-724 4981 0
725 -4978 -4982 0
-725 4978 0
-725 4982 0
-726 727 730 0
-726 -727 -730 0
726 -727 730 0
726 727 -730 0
-727 -728 -729 0
-727 728 729 0
727 728 -729 0
727 -728 729 0
728 -4976 -4981 0
-728 4976 0
-728 4981 0
729 -4957 -4982 0
-729 4957 0
-729 4982 0
-730 719 720 0
-730 720 722 0
-730 719 722 0
730 -719 -722 0
730 -720 -722 0
730 -719 -720 0
731 -727 -730 0
-731 727 0
-731 730 0
-732 -733 -734 0
-732 733 734 0
732 733 -734 0
732 -733 734 0
-733 -690 -691 0
-733 690 691 0
733 690 -691 0
733 -690 691 0
734 -735 -736 0
-734 735 0
-734 736 0
-735 -692 -693 0
-735 692 693 0
735 692 -693 0
735 -692 693 0
736 -737 -738 0
-736 737 0
-736 738 0
-737 694 696 0
-737 -694 -696 0
737 -694 696 0
737 694 -696 0
738 -739 -741 0
-738 739 0
-738 741 0
-739 731 740 0
-739 -731 -740 0
739 -731 740 0
739 731 -740 0
-740 697 699 0
-740 -697 -699 0
740 -697 699 0
740 697 -699 0
-741 742 744 0
-741 744 771 0
-741 742 771 0
741 -744 -771 0
741 -742 -744 0
741 -742 -771 0
-742 726 743 0
-742 -726 -743 0
742 -726 743 0
742 726 -743 0
-743 700 702 0
-743 -700 -702 0
743 -700 702 0
743 700 -702 0
-744 745 747 0
-744 747 768 0
-744 745 768 0
744 -745 -768 0
744 -747 -768 0
744 -745 -747 0
-745 717 746 0
-745 -717 -746 0
745 -717 746 0
745 717 -746 0
-746 703 705 0
-746 -703 -705 0
746 -703 705 0
746 703 -705 0
-747 748 750 0
-747 750 762 0
-747 748 762 0
747 -748 -762 0
747 -750 -762 0
747 -748 -750 0
-748 712 749 0
-748 -712 -749 0
748 -712 749 0
748 712 -749 0
-749 706 708 0
-749 -706 -708 0
749 -706 708 0
749 706 -708 0
-750 751 753 0
-750 753 757 0
-750 751 757 0
750 -751 -757 0
750 -753 -757 0
750 -751 -753 0
-751 711 752 0
-751 -711 -752 0
751 -711 752 0
751 711 -752 0
-752 -709 -710 0
-752 709 710 0
752 709 -710 0
752 -709 710 0
-753 754 756 0
-753 755 756 0
-753 754 755 0
753 -754 -755 0
753 -755 -756 0
753 -754 -756 0
754 -5013 -5033 0
-754 5013 0
-754 5033 0
755 -4974 -4975 0
-755 4974 0
-755 4975 0
756 -5006 -5009 0
-756 5006 0
-756 5009 0
-757 -758 -761 0
-757 758 761 0
757 758 -761 0
757 -758 761 0
-758 -759 -760 0
-758 759 760 0
758 759 -760 0
758 -759 760 0
759 -4961 -5006 0
-759 4961 0
-759 5006 0
760 -4971 -4977 0
-760 4971 0
-760 4977 0
761 -4959 -4962 0
-761 4959 0
-761 4962 0
-762 -763 -767 0
-762 763 767 0
762 763 -767 0
762 -763 767 0
-763 764 765 0
-763 -764 -765 0
763 -764 765 0
763 764 -765 0
-764 759 761 0
-764 760 761 0
-764 759 760 0
764 -759 -760 0
764 -760 -761 0
764 -759 -761 0
-765 725 766 0
-765 -725 -766 0
765 -725 766 0
765 725 -766 0
-766 -723 -724 0
-766 723 724 0
766 723 -724 0
766 -723 724 0
767 -4979 -4980 -4981 -4982 0
-767 4982 0
-767 4979 0
-767 4981 0
-767 4980 0
-768 769 770 0
-768 -769 -770 0
768 -769 770 0
768 769 -770 0
769 -4976 -4982 0
-769 4976 0
-769 4982 0
-770 764 765 0
-770 765 767 0
-770 764 767 0
770 -765 -767 0
770 -764 -765 0
770 -764 -767 0
771 -4976 -4982 -770 0
-771 4976 0
-771 4982 0
-771 770 0
-772 773 775 0
-772 773 686 0
772 -773 0
772 -686 -775 0
-773 688 774 0
-773 689 687 0
-773 689 774 0
-773 688 687 0
773 -688 -689 0
773 -687 -774 0
774 -733 -734 0
-774 733 0
-774 734 0
-775 777 778 0
-775 778 810 0
-775 776 0
-775 777 810 0
775 -776 -777 -810 0
775 -776 -778 -810 0
775 -776 -777 -778 0
-776 -735 -736 0
-776 735 736 0
776 735 -736 0
776 -735 736 0
-777 -737 -738 0
-777 737 738 0
777 737 -738 0
777 -737 738 0
778 -779 -780 0
-778 779 0
-778 780 0
-779 739 741 0
-779 -739 -741 0
779 -739 741 0
779 739 -741 0
780 -781 -783 0
-780 781 0
-780 783 0
-781 771 782 0
-781 -771 -782 0
781 -771 782 0
781 771 -782 0
-782 742 744 0
-782 -742 -744 0
782 -742 744 0
782 742 -744 0
783 -784 -786 0
-783 784 0
-783 786 0
-784 768 785 0
-784 -768 -785 0
784 -768 785 0
784 768 -785 0
-785 745 747 0
-785 -745 -747 0
785 -745 747 0
785 745 -747 0
-786 787 789 0
-786 789 809 0
-786 787 809 0
786 -789 -809 0
786 -787 -789 0
786 -787 -809 0
-787 762 788 0
-787 -762 -788 0
787 -762 788 0
787 762 -788 0
-788 748 750 0
-788 -748 -750 0
788 -748 750 0
788 748 -750 0
-789 790 792 0
-789 792 804 0
-789 790 804 0
789 -790 -804 0
789 -792 -804 0
789 -790 -792 0
-790 757 791 0
-790 -757 -791 0
790 -757 791 0
790 757 -791 0
-791 751 753 0
-791 -751 -753 0
791 -751 753 0
791 751 -753 0
-792 793 795 0
-792 795 799 0
-792 793 799 0
792 -793 -799 0
792 -795 -799 0
792 -793 -795 0
-793 756 794 0
-793 -756 -794 0
793 -756 794 0
793 756 -794 0
-794 -754 -755 0
-794 754 755 0
794 754 -755 0
794 -754 755 0
-795 796 798 0
-795 797 798 0
-795 796 797 0
795 -796 -797 0
795 -797 -798 0
795 -796 -798 0
796 -4975 -5013 0
-796 4975 0
-796 5013 0
797 -4974 -5006 0
-797 4974 0
-797 5006 0
798 -4977 -5009 0
-798 4977 0
-798 5009 0
-799 -800 -803 0
-799 800 803 0
799 800 -803 0
799 -800 803 0
-800 -801 -802 0
-800 801 802 0
800 801 -802 0
800 -801 802 0
801 -4961 -4977 0
-801 4961 0
-801 4977 0
802 -4962 -4971 0
-802 4962 0
-802 4971 0
803 -4959 -4981 0
-803 4959 0
-803 4981 0
-804 805 808 0
-804 -805 -808 0
804 -805 808 0
804 805 -808 0
-805 -806 -807 0
-805 806 807 0
805 806 -807 0
805 -806 807 0
806 -4980 -4981 0
-806 4980 0
-806 4981 0
807 -4979 -4982 0
-807 4979 0
-807 4982 0
-808 801 803 0
-808 802 803 0
-808 801 802 0
808 -801 -802 0
808 -802 -803 0
808 -801 -803 0
809 -805 -808 0
-809 805 0
-809 808 0
810 -811 -812 0
-810 811 0
-810 812 0
-811 -779 -780 0
-811 779 780 0
811 779 -780 0
811 -779 780 0
812 -813 -814 0
-812 813 0
-812 814 0
-813 -781 -783 0
-813 781 783 0
813 781 -783 0
813 -781 783 0
814 -815 -816 0
-814 815 0
-814 816 0
-815 784 786 0
-815 -784 -786 0
815 -784 786 0
815 784 -786 0
816 -817 -819 0
-816 817 0
-816 819 0
-817 809 818 0
-817 -809 -818 0
817 -809 818 0
817 809 -818 0
-818 787 789 0
-818 -787 -789 0
818 -787 789 0
818 787 -789 0
-819 820 822 0
-819 822 840 0
-819 820 840 0
819 -822 -840 0
819 -820 -822 0
819 -820 -840 0
-820 804 821 0
-820 -804 -821 0
820 -804 821 0
820 804 -821 0
-821 790 792 0
-821 -790 -792 0
821 -790 792 0
821 790 -792 0
-822 823 825 0
-822 825 837 0
-822 823 837 0
822 -823 -837 0
822 -825 -837 0
822 -823 -825 0
-823 799 824 0
-823 -799 -824 0
823 -799 824 0
823 799 -824 0
-824 793 795 0
-824 -793 -795 0
824 -793 795 0
824 793 -795 0
-825 826 828 0
-825 828 832 0
-825 826 832 0
825 -826 -832 0
825 -828 -832 0
825 -826 -828 0
-826 798 827 0
-826 -798 -827 0
826 -798 827 0
826 798 -827 0
-827 -796 -797 0
-827 796 797 0
827 796 -797 0
827 -796 797 0
-828 829 831 0
-828 830 831 0
-828 829 830 0
828 -829 -830 0
828 -830 -831 0
828 -829 -831 0
829 -5006 -5013 0
-829 5006 0
-829 5013 0
830 -4974 -4977 0
-830 4974 0
-830 4977 0
831 -4962 -5009 0
-831 4962 0
-831 5009 0
-832 -833 -836 0
-832 833 836 0
832 833 -836 0
832 -833 836 0
-833 -834 -835 0
-833 834 835 0
833 834 -835 0
833 -834 835 0
834 -4961 -4962 0
-834 4961 0
-834 4962 0
835 -4971 -4981 0
-835 4971 0
-835 4981 0
836 -4959 -4982 0
-836 4959 0
-836 4982 0
-837 838 839 0
-837 -838 -839 0
837 -838 839 0
837 838 -839 0
838 -4980 -4982 0
-838 4980 0
-838 4982 0
-839 834 836 0
-839 835 836 0
-839 834 835 0
839 -834 -835 0
839 -835 -836 0
839 -834 -836 0
840 -4980 -4982 -839 0
-840 4980 0
-840 4982 0
-840 839 0
841 -842 -844 0
-841 842 0
-841 844 0
-842 -776 -843 0
-842 776 843 0
842 776 -843 0
842 -776 843 0
843 -777 -778 0
-843 777 0
-843 778 0
-844 -845 -810 0
-844 845 810 0
844 845 -810 0
844 -845 810 0
-845 -777 -778 0
-845 777 778 0
845 777 -778 0
845 -777 778 0
-846 847 875 0
-846 875 900 0
-846 875 901 0
846 -875 0
846 -847 -900 -901 0
-847 -848 -849 0
-847 848 849 0
847 848 -849 0
847 -848 849 0
-848 -811 -812 0
-848 811 812 0
848 811 -812 0
848 -811 812 0
849 -850 -851 0
-849 850 0
-849 851 0
-850 -813 -814 0
-850 813 814 0
850 813 -814 0
850 -813 814 0
851 -852 -853 0
-851 852 0
-851 853 0
-852 -815 -816 0
-852 815 816 0
852 815 -816 0
852 -815 816 0
853 -854 -855 0
-853 854 0
-853 855 0
-854 817 819 0
-854 -817 -819 0
854 -817 819 0
854 817 -819 0
855 -856 -858 0
-855 856 0
-855 858 0
-856 840 857 0
-856 -840 -857 0
856 -840 857 0
856 840 -857 0
-857 820 822 0
-857 -820 -822 0
857 -820 822 0
857 820 -822 0
858 -859 -861 0
-858 859 0
-858 861 0
-859 837 860 0
-859 -837 -860 0
859 -837 860 0
859 837 -860 0
-860 823 825 0
-860 -823 -825 0
860 -823 825 0
860 823 -825 0
-861 862 864 0
-861 864 874 0
-861 862 874 0
861 -864 -874 0
861 -862 -864 0
861 -862 -874 0
-862 832 863 0
-862 -832 -863 0
862 -832 863 0
862 832 -863 0
-863 826 828 0
-863 -826 -828 0
863 -826 828 0
863 826 -828 0
-864 865 867 0
-864 867 871 0
-864 865 871 0
864 -865 -871 0
864 -867 -871 0
864 -865 -867 0
-865 831 866 0
-865 -831 -866 0
865 -831 866 0
865 831 -866 0
-866 -829 -830 0
-866 829 830 0
866 829 -830 0
866 -829 830 0
-867 868 870 0
-867 869 870 0
-867 868 869 0
867 -868 -869 0
867 -869 -870 0
867 -868 -870 0
868 -4977 -5013 0
-868 4977 0
-868 5013 0
869 -4962 -4974 0
-869 4962 0
-869 4974 0
870 -4981 -5009 0
-870 4981 0
-870 5009 0
-871 -872 -873 0
-871 872 873 0
871 872 -873 0
871 -872 873 0
872 -4961 -4981 0
-872 4961 0
-872 4981 0
873 -4971 -4982 0
-873 4971 0
-873 4982 0
874 -4961 -4971 -4981 -4982 0
-874 4982 0
-874 4961 0
-874 4981 0
-874 4971 0
-875 849 876 0
-875 848 849 0
-875 848 876 0
875 -848 -849 0
875 -849 -876 0
875 -848 -876 0
876 -877 -878 0
-876 877 0
-876 878 0
-877 -850 -851 0
-877 850 851 0
877 850 -851 0
877 -850 851 0
878 -879 -880 0
-878 879 0
-878 880 0
-879 -852 -853 0
-879 852 853 0
879 852 -853 0
879 -852 853 0
880 -881 -882 0
-880 881 0
-880 882 0
-881 -854 -855 0
-881 854 855 0
881 854 -855 0
881 -854 855 0
882 -883 -884 0
-882 883 0
-882 884 0
-883 -856 -858 0
-883 856 858 0
883 856 -858 0
883 -856 858 0
884 -885 -886 0
-884 885 0
-884 886 0
-885 859 861 0
-885 -859 -861 0
885 -859 861 0
885 859 -861 0
886 -887 -889 0
-886 887 0
-886 889 0
-887 874 888 0
-887 -874 -888 0
887 -874 888 0
887 874 -888 0
-888 862 864 0
-888 -862 -864 0
888 -862 864 0
888 862 -864 0
889 -890 -892 0
-889 890 0
-889 892 0
-890 871 891 0
-890 -871 -891 0
890 -871 891 0
890 871 -891 0
-891 865 867 0
-891 -865 -867 0
891 -865 867 0
891 865 -867 0
-892 893 895 0
-892 895 899 0
-892 893 899 0
892 -895 -899 0
892 -893 -895 0
892 -893 -899 0
-893 870 894 0
-893 -870 -894 0
893 -870 894 0
893 870 -894 0
-894 -868 -869 0
-894 868 869 0
894 868 -869 0
894 -868 869 0
-895 896 898 0
-895 897 898 0
-895 896 897 0
895 -896 -897 0
895 -897 -898 0
895 -896 -898 0
896 -4962 -5013 0
-896 4962 0
-896 5013 0
897 -4974 -4981 0
-897 4974 0
-897 4981 0
898 -4982 -5009 0
-898 4982 0
-898 5009 0
899 -4961 -4982 0
-899 4961 0
-899 4982 0
-900 -877 -878 0
-900 877 878 0
900 877 -878 0
900 -877 878 0
901 -902 -903 0
-901 902 0
-901 903 0
-902 -879 -880 0
-902 879 880 0
902 879 -880 0
902 -879 880 0
903 -904 -905 0
-903 904 0
-903 905 0
-904 -881 -882 0
-904 881 882 0
904 881 -882 0
904 -881 882 0
905 -906 -907 0
-905 906 0
-905 907 0
-906 -883 -884 0
-906 883 884 0
906 883 -884 0
906 -883 884 0
907 -908 -909 0
-907 908 0
-907 909 0
-908 -885 -886 0
-908 885 886 0
908 885 -886 0
908 -885 886 0
909 -910 -911 0
-909 910 0
-909 911 0
-910 -887 -889 0
-910 887 889 0
910 887 -889 0
910 -887 889 0
911 -912 -913 0
-911 912 0
-911 913 0
-912 890 892 0
-912 -890 -892 0
912 -890 892 0
912 890 -892 0
913 -914 -916 0
-913 914 0
-913 916 0
-914 899 915 0
-914 -899 -915 0
914 -899 915 0
914 899 -915 0
-915 893 895 0
-915 -893 -895 0
915 -893 895 0
915 893 -895 0
916 -917 -919 0
-916 917 0
-916 919 0
-917 898 918 0
-917 -898 -918 0
917 -898 918 0
917 898 -918 0
-918 -896 -897 0
-918 896 897 0
918 896 -897 0
918 -896 897 0
919 -4974 -4982 -920 0
-919 4974 0
-919 4982 0
-919 920 0
920 -4981 -5013 0
-920 4981 0
-920 5013 0
-921 922 2755 0
-921 -922 -2755 0
921 -922 2755 0
921 922 -2755 0
-922 923 1839 0
-922 -923 -1839 0
922 -923 1839 0
922 923 -1839 0
-923 924 1258 0
-923 -924 -1258 0
923 -924 1258 0
923 924 -1258 0
-924 -925 -1193 0
-924 925 1193 0
924 925 -1193 0
924 -925 1193 0
-925 -926 -1130 0
-925 926 1130 0
925 926 -1130 0
925 -926 1130 0
-926 927 1073 0
-926 -927 -1073 0
926 -927 1073 0
926 927 -1073 0
-927 928 1072 0
-927 -928 -1072 0
927 -928 1072 0
927 928 -1072 0
-928 929 1024 0
-928 -929 -1024 0
928 -929 1024 0
928 929 -1024 0
-929 930 1006 0
-929 -930 -1006 0
929 -930 1006 0
929 930 -1006 0
-930 931 977 0
-930 -931 -977 0
930 -931 977 0
930 931 -977 0
-931 932 940 0
-931 -932 -940 0
931 -932 940 0
931 932 -940 0
-932 933 936 0
-932 -933 -936 0
932 -933 936 0
932 933 -936 0
-933 -934 -935 0
-933 934 935 0
933 934 -935 0
933 -934 935 0
934 -4943 -4983 0
-934 4943 0
-934 4983 0
935 -4973 -4992 0
-935 4973 0
-935 4992 0
-936 937 939 0
-936 938 939 0
-936 937 938 0
936 -937 -938 0
936 -938 -939 0
936 -937 -939 0
937 -4943 -4985 0
-937 4943 0
-937 4985 0
938 -4973 -4983 0
-938 4973 0
-938 4983 0
939 -4952 -4992 0
-939 4952 0
-939 4992 0
-940 941 965 0
-940 -941 -965 0
940 -941 965 0
940 941 -965 0
-941 942 949 0
-941 -942 -949 0
941 -942 949 0
941 942 -949 0
942 -943 -945 0
-942 943 0
-942 945 0
-943 939 944 0
-943 -939 -944 0
943 -939 944 0
943 939 -944 0
-944 -937 -938 0
-944 937 938 0
944 937 -938 0
944 -937 938 0
-945 946 948 0
-945 947 948 0
-945 946 947 0
945 -946 -947 0
945 -947 -948 0
945 -946 -948 0
946 -4973 -4985 0
-946 4973 0
-946 4985 0
947 -4952 -4983 0
-947 4952 0
-947 4983 0
948 -4942 -4992 0
-948 4942 0
-948 4992 0
-949 950 960 0
-949 -950 -960 0
949 -950 960 0
949 950 -960 0
-950 951 956 0
-950 -951 -956 0
950 -951 956 0
950 951 -956 0
-951 -952 -955 0
-951 952 955 0
951 952 -955 0
951 -952 955 0
-952 -953 -954 0
-952 953 954 0
952 953 -954 0
952 -953 954 0
953 -4952 -5034 0
-953 4952 0
-953 5034 0
954 -4941 -4942 0
-954 4941 0
-954 4942 0
955 -4940 -4950 0
-955 4940 0
-955 4950 0
-956 957 959 0
-956 958 959 0
-956 957 958 0
956 -957 -958 0
956 -958 -959 0
956 -957 -959 0
957 -4942 -5034 0
-957 4942 0
-957 5034 0
958 -4940 -4941 0
-958 4940 0
-958 4941 0
959 -4950 -4990 0
-959 4950 0
-959 4990 0
-960 -961 -964 0
-960 961 964 0
960 961 -964 0
960 -961 964 0
-961 -962 -963 0
-961 962 963 0
961 962 -963 0
961 -962 963 0
962 -4990 -4993 0
-962 4990 0
-962 4993 0
963 -4939 -5015 0
-963 4939 0
-963 5015 0
964 -4996 -4997 0
-964 4996 0
-964 4997 0
-965 966 968 0
-965 968 972 0
-965 966 972 0
965 -966 -972 0
965 -968 -972 0
965 -966 -968 0
-966 959 967 0
-966 -959 -967 0
966 -959 967 0
966 959 -967 0
-967 -957 -958 0
-967 957 958 0
967 957 -958 0
967 -957 958 0
-968 969 971 0
-968 970 971 0
-968 969 970 0
968 -969 -970 0
968 -970 -971 0
968 -969 -971 0
969 -4940 -5034 0
-969 4940 0
-969 5034 0
970 -4941 -4990 0
-970 4941 0
-970 4990 0
971 -4939 -4950 0
-971 4939 0
-971 4950 0
-972 -973 -976 0
-972 973 976 0
972 973 -976 0
972 -973 976 0
-973 -974 -975 0
-973 974 975 0
973 974 -975 0
973 -974 975 0
974 -4939 -4993 0
-974 4939 0
-974 4993 0
975 -4996 -5015 0
-975 4996 0
-975 5015 0
976 -4946 -4997 0
-976 4946 0
-976 4997 0
-977 978 989 0
-977 978 979 0
-977 979 989 0
977 -979 -989 0
977 -978 -989 0
977 -978 -979 0
-978 943 945 0
-978 -943 -945 0
978 -943 945 0
978 943 -945 0
979 -4943 -4989 -980 0
-979 4943 0
-979 4989 0
-979 980 0
-980 981 985 0
-980 -981 -985 0
980 -981 985 0
980 981 -985 0
-981 982 983 0
-981 -982 -983 0
981 -982 983 0
981 982 -983 0
982 -4943 -4956 -4973 -4989 0
-982 4989 0
-982 4943 0
-982 4973 0
-982 4956 0
-983 948 984 0
-983 -948 -984 0
983 -948 984 0
983 948 -984 0
-984 -946 -947 0
-984 946 947 0
984 946 -947 0
984 -946 947 0
-985 986 988 0
-985 987 988 0
-985 986 987 0
985 -986 -987 0
985 -987 -988 0
985 -986 -988 0
986 -4952 -4985 0
-986 4952 0
-986 4985 0
987 -4942 -4983 0
-987 4942 0
-987 4983 0
988 -4940 -4992 0
-988 4940 0
-988 4992 0
-989 990 994 0
-989 -990 -994 0
989 -990 994 0
989 990 -994 0
-990 991 992 0
-990 -991 -992 0
990 -991 992 0
990 991 -992 0
-991 982 983 0
-991 983 985 0
-991 982 985 0
991 -983 -985 0
991 -982 -983 0
991 -982 -985 0
-992 972 993 0
-992 -972 -993 0
992 -972 993 0
992 972 -993 0
-993 966 968 0
-993 -966 -968 0
993 -966 968 0
993 966 -968 0
-994 995 997 0
-994 997 1001 0
-994 995 1001 0
994 -995 -1001 0
994 -997 -1001 0
994 -995 -997 0
-995 971 996 0
-995 -971 -996 0
995 -971 996 0
995 971 -996 0
-996 -969 -970 0
-996 969 970 0
996 969 -970 0
996 -969 970 0
-997 998 1000 0
-997 999 1000 0
-997 998 999 0
997 -998 -999 0
997 -999 -1000 0
997 -998 -1000 0
998 -4990 -5034 0
-998 4990 0
-998 5034 0
999 -4939 -4941 0
-999 4939 0
-999 4941 0
1000 -4950 -4996 0
-1000 4950 0
-1000 4996 0
-1001 -1002 -1005 0
-1001 1002 1005 0
1001 1002 -1005 0
1001 -1002 1005 0
-1002 -1003 -1004 0
-1002 1003 1004 0
1002 1003 -1004 0
1002 -1003 1004 0
1003 -4993 -4996 0
-1003 4993 0
-1003 4996 0
1004 -4946 -5015 0
-1004 4946 0
-1004 5015 0
1005 -4986 -4997 0
-1005 4986 0
-1005 4997 0
-1006 -1007 -1016 0
-1006 1007 1016 0
1006 1007 -1016 0
1006 -1007 1016 0
-1007 1008 1009 0
-1007 -1008 -1009 0
1007 -1008 1009 0
1007 1008 -1009 0
-1008 991 992 0
-1008 992 994 0
-1008 991 994 0
1008 -991 -994 0
1008 -992 -994 0
1008 -991 -992 0
-1009 -1010 -1013 0
-1009 1010 1013 0
1009 1010 -1013 0
1009 -1010 1013 0
-1010 -1011 -1012 0
-1010 1011 1012 0
1010 1011 -1012 0
1010 -1011 1012 0
-1011 974 976 0
-1011 975 976 0
-1011 974 975 0
1011 -974 -975 0
1011 -975 -976 0
1011 -974 -976 0
1012 -4946 -4984 0
-1012 4946 0
-1012 4984 0
1013 -1014 -1015 0
-1013 1014 0
-1013 1015 0
1014 -4984 -4986 0
-1014 4984 0
-1014 4986 0
-1015 1003 1005 0
-1015 1004 1005 0
-1015 1003 1004 0
1015 -1003 -1004 0
1015 -1004 -1005 0
1015 -1003 -1005 0
1016 -1017 -1018 0
-1016 1017 0
-1016 1018 0
-1017 1014 1015 0
-1017 -1014 -1015 0
1017 -1014 1015 0
1017 1014 -1015 0
1018 -1019 -1020 0
-1018 1019 0
-1018 1020 0
1019 -4953 -4984 0
-1019 4953 0
-1019 4984 0
-1020 1021 1023 0
-1020 1022 1023 0
-1020 1021 1022 0
1020 -1021 -1022 0
1020 -1022 -1023 0
1020 -1021 -1023 0
1021 -4946 -4993 0
-1021 4946 0
-1021 4993 0
1022 -4986 -5015 0
-1022 4986 0
-1022 5015 0
1023 -4953 -4997 0
-1023 4953 0
-1023 4997 0
-1024 1025 1027 0
-1024 1027 1060 0
-1024 1025 1060 0
1024 -1025 -1060 0
1024 -1027 -1060 0
1024 -1025 -1027 0
-1025 989 1026 0
-1025 -989 -1026 0
1025 -989 1026 0
1025 989 -1026 0
-1026 -978 -979 0
-1026 978 979 0
1026 978 -979 0
1026 -978 979 0
-1027 1028 1046 0
-1027 1028 1030 0
-1027 1030 1046 0
1027 -1030 -1046 0
1027 -1028 -1046 0
1027 -1028 -1030 0
-1028 1029 980 0
-1028 -1029 -980 0
1028 -1029 980 0
1028 1029 -980 0
1029 -4943 -4989 0
-1029 4943 0
-1029 4989 0
1030 -1031 -1034 0
-1030 1031 0
-1030 1034 0
-1031 -1032 -1033 0
-1031 1032 1033 0
1031 1032 -1033 0
1031 -1032 1033 0
1032 -4943 -4956 0
-1032 4943 0
-1032 4956 0
1033 -4973 -4989 0
-1033 4973 0
-1033 4989 0
-1034 1035 1042 0
-1034 -1035 -1042 0
1034 -1035 1042 0
1034 1035 -1042 0
-1035 1036 1040 0
-1035 -1036 -1040 0
1035 -1036 1040 0
1035 1036 -1040 0
-1036 1037 1039 0
-1036 1038 1039 0
-1036 1037 1038 0
1036 -1037 -1038 0
1036 -1038 -1039 0
1036 -1037 -1039 0
1037 -4943 -4947 0
-1037 4943 0
-1037 4947 0
1038 -4956 -4973 0
-1038 4956 0
-1038 4973 0
1039 -4952 -4989 0
-1039 4952 0
-1039 4989 0
-1040 988 1041 0
-1040 -988 -1041 0
1040 -988 1041 0
1040 988 -1041 0
-1041 -986 -987 0
-1041 986 987 0
1041 986 -987 0
1041 -986 987 0
-1042 1043 1045 0
-1042 1044 1045 0
-1042 1043 1044 0
1042 -1043 -1044 0
1042 -1044 -1045 0
1042 -1043 -1045 0
1043 -4942 -4985 0
-1043 4942 0
-1043 4985 0
1044 -4940 -4983 0
-1044 4940 0
-1044 4983 0
1045 -4990 -4992 0
-1045 4990 0
-1045 4992 0
-1046 1047 1051 0
-1046 -1047 -1051 0
1046 -1047 1051 0
1046 1047 -1051 0
-1047 1048 1049 0
-1047 -1048 -1049 0
1047 -1048 1049 0
1047 1048 -1049 0
-1048 1036 1040 0
-1048 1040 1042 0
-1048 1036 1042 0
1048 -1036 -1042 0
1048 -1040 -1042 0
1048 -1036 -1040 0
-1049 1001 1050 0
-1049 -1001 -1050 0
1049 -1001 1050 0
1049 1001 -1050 0
-1050 995 997 0
-1050 -995 -997 0
1050 -995 997 0
1050 995 -997 0
-1051 1052 1054 0
-1051 1054 1058 0
-1051 1052 1058 0
1051 -1052 -1058 0
1051 -1054 -1058 0
1051 -1052 -1054 0
-1052 1000 1053 0
-1052 -1000 -1053 0
1052 -1000 1053 0
1052 1000 -1053 0
-1053 -998 -999 0
-1053 998 999 0
1053 998 -999 0
1053 -998 999 0
-1054 1055 1057 0
-1054 1056 1057 0
-1054 1055 1056 0
1054 -1055 -1056 0
1054 -1056 -1057 0
1054 -1055 -1057 0
1055 -4939 -5034 0
-1055 4939 0
-1055 5034 0
1056 -4941 -4996 0
-1056 4941 0
-1056 4996 0
1057 -4946 -4950 0
-1057 4946 0
-1057 4950 0
-1058 1023 1059 0
-1058 -1023 -1059 0
1058 -1023 1059 0
1058 1023 -1059 0
-1059 -1021 -1022 0
-1059 1021 1022 0
1059 1021 -1022 0
1059 -1021 1022 0
-1060 -1061 -1064 0
-1060 1061 1064 0
1060 1061 -1064 0
1060 -1061 1064 0
-1061 1062 1063 0
-1061 -1062 -1063 0
1061 -1062 1063 0
1061 1062 -1063 0
-1062 -1017 -1018 0
-1062 1017 1018 0
1062 1017 -1018 0
1062 -1017 1018 0
-1063 1048 1049 0
-1063 1049 1051 0
-1063 1048 1051 0
1063 -1048 -1051 0
1063 -1049 -1051 0
1063 -1048 -1049 0
1064 -1065 -1066 0
-1064 1065 0
-1064 1066 0
-1065 1019 1020 0
-1065 -1019 -1020 0
1065 -1019 1020 0
1065 1019 -1020 0
1066 -1067 -1068 0
-1066 1067 0
-1066 1068 0
1067 -4984 -4998 0
-1067 4984 0
-1067 4998 0
-1068 1069 1071 0
-1068 1070 1071 0
-1068 1069 1070 0
1068 -1069 -1070 0
1068 -1070 -1071 0
1068 -1069 -1071 0
1069 -4986 -4993 0
-1069 4986 0
-1069 4993 0
1070 -4953 -5015 0
-1070 4953 0
-1070 5015 0
1071 -4997 -4998 0
-1071 4997 0
-1071 4998 0
-1072 1062 1063 0
-1072 1063 1064 0
-1072 1062 1064 0
1072 -1063 -1064 0
1072 -1062 -1063 0
1072 -1062 -1064 0
-1073 1074 1076 0
-1073 1076 1129 0
-1073 1074 1129 0
1073 -1074 -1129 0
1073 -1076 -1129 0
1073 -1074 -1076 0
-1074 1060 1075 0
-1074 -1060 -1075 0
1074 -1060 1075 0
1074 1060 -1075 0
-1075 1025 1027 0
-1075 -1025 -1027 0
1075 -1025 1027 0
1075 1025 -1027 0
-1076 1077 1079 0
-1076 1079 1117 0
-1076 1077 1117 0
1076 -1077 -1117 0
1076 -1079 -1117 0
1076 -1077 -1079 0
-1077 1046 1078 0
-1077 -1046 -1078 0
1077 -1046 1078 0
1077 1046 -1078 0
-1078 -1028 -1030 0
-1078 1028 1030 0
1078 1028 -1030 0
1078 -1028 1030 0
-1079 1080 1081 0
-1079 1081 1103 0
-1079 1080 1103 0
1079 -1080 -1103 0
1079 -1081 -1103 0
1079 -1080 -1081 0
-1080 1031 1034 0
-1080 -1031 -1034 0
1080 -1031 1034 0
1080 1031 -1034 0
-1081 1082 1084 0
-1081 1084 1094 0
-1081 1082 1094 0
1081 -1082 -1094 0
1081 -1084 -1094 0
1081 -1082 -1084 0
-1082 -1083 -1039 0
-1082 1083 1039 0
1082 1083 -1039 0
1082 -1083 1039 0
-1083 -1037 -1038 0
-1083 1037 1038 0
1083 1037 -1038 0
1083 -1037 1038 0
-1084 1085 1092 0
-1084 1086 1087 0
-1084 1086 1092 0
-1084 1085 1087 0
1084 -1085 -1086 0
1084 -1087 -1092 0
1085 -4943 -4944 0
-1085 4943 0
-1085 4944 0
1086 -4943 -4944 -4949 -4973 0
-1086 4973 0
-1086 4943 0
-1086 4949 0
-1086 4944 0
-1087 -1088 -1091 0
-1087 1088 1091 0
1087 1088 -1091 0
1087 -1088 1091 0
-1088 -1089 -1090 0
-1088 1089 1090 0
1088 1089 -1090 0
1088 -1089 1090 0
1089 -4947 -4973 0
-1089 4947 0
-1089 4973 0
1090 -4952 -4956 0
-1090 4952 0
-1090 4956 0
1091 -4942 -4989 0
-1091 4942 0
-1091 4989 0
-1092 1093 0
1092 -1093 0
1093 -4943 -4944 4973 0
1093 -4943 -4944 4949 0
-1093 4943 0
-1093 4944 0
-1093 -4949 -4973 0
-1094 1095 1099 0
-1094 -1095 -1099 0
1094 -1095 1099 0
1094 1095 -1099 0
-1095 1096 1097 0
-1095 -1096 -1097 0
1095 -1096 1097 0
1095 1096 -1097 0
-1096 1089 1091 0
-1096 1090 1091 0
-1096 1089 1090 0
1096 -1089 -1090 0
1096 -1090 -1091 0
1096 -1089 -1091 0
-1097 1045 1098 0
-1097 -1045 -1098 0
1097 -1045 1098 0
1097 1045 -1098 0
-1098 -1043 -1044 0
-1098 1043 1044 0
1098 1043 -1044 0
1098 -1043 1044 0
-1099 1100 1102 0
-1099 1101 1102 0
-1099 1100 1101 0
1099 -1100 -1101 0
1099 -1101 -1102 0
1099 -1100 -1102 0
1100 -4940 -4985 0
-1100 4940 0
-1100 4985 0
1101 -4983 -4990 0
-1101 4983 0
-1101 4990 0
1102 -4939 -4992 0
-1102 4939 0
-1102 4992 0
-1103 1104 1108 0
-1103 -1104 -1108 0
1103 -1104 1108 0
1103 1104 -1108 0
-1104 1105 1106 0
-1104 -1105 -1106 0
1104 -1105 1106 0
1104 1105 -1106 0
-1105 1096 1097 0
-1105 1097 1099 0
-1105 1096 1099 0
1105 -1096 -1099 0
1105 -1097 -1099 0
1105 -1096 -1097 0
-1106 1058 1107 0
-1106 -1058 -1107 0
1106 -1058 1107 0
1106 1058 -1107 0
-1107 1052 1054 0
-1107 -1052 -1054 0
1107 -1052 1054 0
1107 1052 -1054 0
-1108 1109 1111 0
-1108 1111 1115 0
-1108 1109 1115 0
1108 -1109 -1115 0
1108 -1111 -1115 0
1108 -1109 -1111 0
-1109 1057 1110 0
-1109 -1057 -1110 0
1109 -1057 1110 0
1109 1057 -1110 0
-1110 -1055 -1056 0
-1110 1055 1056 0
1110 1055 -1056 0
1110 -1055 1056 0
-1111 1112 1114 0
-1111 1113 1114 0
-1111 1112 1113 0
1111 -1112 -1113 0
1111 -1113 -1114 0
1111 -1112 -1114 0
1112 -4996 -5034 0
-1112 4996 0
-1112 5034 0
1113 -4941 -4946 0
-1113 4941 0
-1113 4946 0
1114 -4950 -4986 0
-1114 4950 0
-1114 4986 0
-1115 1071 1116 0
-1115 -1071 -1116 0
1115 -1071 1116 0
1115 1071 -1116 0
-1116 -1069 -1070 0
-1116 1069 1070 0
1116 1069 -1070 0
1116 -1069 1070 0
-1117 -1118 -1121 0
-1117 1118 1121 0
1117 1118 -1121 0
1117 -1118 1121 0
-1118 1119 1120 0
-1118 -1119 -1120 0
1118 -1119 1120 0
1118 1119 -1120 0
-1119 -1065 -1066 0
-1119 1065 1066 0
1119 1065 -1066 0
1119 -1065 1066 0
-1120 1105 1106 0
-1120 1106 1108 0
-1120 1105 1108 0
1120 -1105 -1108 0
1120 -1106 -1108 0
1120 -1105 -1106 0
1121 -1122 -1123 0
-1121 1122 0
-1121 1123 0
-1122 1067 1068 0
-1122 -1067 -1068 0
1122 -1067 1068 0
1122 1067 -1068 0
1123 -1124 -1125 0
-1123 1124 0
-1123 1125 0
1124 -4960 -4984 0
-1124 4960 0
-1124 4984 0
-1125 1126 1128 0
-1125 1127 1128 0
-1125 1126 1127 0
1125 -1126 -1127 0
1125 -1127 -1128 0
1125 -1126 -1128 0
1126 -4953 -4993 0
-1126 4953 0
-1126 4993 0
1127 -4998 -5015 0
-1127 4998 0
-1127 5015 0
1128 -4960 -4997 0
-1128 4960 0
-1128 4997 0
-1129 1119 1120 0
-1129 1120 1121 0
-1129 1119 1121 0
1129 -1120 -1121 0
1129 -1119 -1120 0
1129 -1119 -1121 0
1130 -1131 -1133 0
-1130 1131 0
-1130 1133 0
-1131 1129 1132 0
-1131 -1129 -1132 0
1131 -1129 1132 0
1131 1129 -1132 0
-1132 1074 1076 0
-1132 -1074 -1076 0
1132 -1074 1076 0
1132 1074 -1076 0
-1133 1134 1136 0
-1133 1136 1192 0
-1133 1134 1192 0
1133 -1134 -1192 0
1133 -1136 -1192 0
1133 -1134 -1136 0
-1134 1117 1135 0
-1134 -1117 -1135 0
1134 -1117 1135 0
1134 1117 -1135 0
-1135 1077 1079 0
-1135 -1077 -1079 0
1135 -1077 1079 0
1135 1077 -1079 0
-1136 1137 1139 0
-1136 1139 1180 0
-1136 1137 1180 0
1136 -1137 -1180 0
1136 -1139 -1180 0
1136 -1137 -1139 0
-1137 1103 1138 0
-1137 -1103 -1138 0
1137 -1103 1138 0
1137 1103 -1138 0
-1138 1080 1081 0
-1138 -1080 -1081 0
1138 -1080 1081 0
1138 1080 -1081 0
-1139 1140 1142 0
-1139 1142 1166 0
-1139 1140 1166 0
1139 -1140 -1166 0
1139 -1142 -1166 0
1139 -1140 -1142 0
-1140 1094 1141 0
-1140 -1094 -1141 0
1140 -1094 1141 0
1140 1094 -1141 0
-1141 1082 1084 0
-1141 -1082 -1084 0
1141 -1082 1084 0
1141 1082 -1084 0
-1142 1143 1144 0
-1142 1144 1157 0
-1142 1143 1157 0
1142 -1143 -1157 0
1142 -1144 -1157 0
1142 -1143 -1144 0
-1143 1087 1092 0
-1143 -1087 -1092 0
1143 -1087 1092 0
1143 1087 -1092 0
-1144 1145 1148 0
-1144 1148 1152 0
-1144 1145 1152 0
1144 -1145 -1152 0
1144 -1148 -1152 0
1144 -1145 -1148 0
-1145 -1146 -1147 0
-1145 1146 1147 0
1145 1146 -1147 0
1145 -1146 1147 0
1146 -4943 -4949 0
-1146 4943 0
-1146 4949 0
1147 -4944 -4973 0
-1147 4944 0
-1147 4973 0
-1148 1149 1151 0
-1148 1150 1151 0
-1148 1149 1150 0
1148 -1149 -1150 0
1148 -1150 -1151 0
1148 -1149 -1151 0
1149 -4943 -4945 0
-1149 4943 0
-1149 4945 0
1150 -4949 -4973 0
-1150 4949 0
-1150 4973 0
1151 -4944 -4952 0
-1151 4944 0
-1151 4952 0
-1152 -1153 -1156 0
-1152 1153 1156 0
1152 1153 -1156 0
1152 -1153 1156 0
-1153 -1154 -1155 0
-1153 1154 1155 0
1153 1154 -1155 0
1153 -1154 1155 0
1154 -4947 -4952 0
-1154 4947 0
-1154 4952 0
1155 -4942 -4956 0
-1155 4942 0
-1155 4956 0
1156 -4940 -4989 0
-1156 4940 0
-1156 4989 0
-1157 1158 1162 0
-1157 -1158 -1162 0
1157 -1158 1162 0
1157 1158 -1162 0
-1158 1159 1160 0
-1158 -1159 -1160 0
1158 -1159 1160 0
1158 1159 -1160 0
-1159 1154 1156 0
-1159 1155 1156 0
-1159 1154 1155 0
1159 -1154 -1155 0
1159 -1155 -1156 0
1159 -1154 -1156 0
-1160 1102 1161 0
-1160 -1102 -1161 0
1160 -1102 1161 0
1160 1102 -1161 0
-1161 -1100 -1101 0
-1161 1100 1101 0
1161 1100 -1101 0
1161 -1100 1101 0
-1162 1163 1165 0
-1162 1164 1165 0
-1162 1163 1164 0
1162 -1163 -1164 0
1162 -1164 -1165 0
1162 -1163 -1165 0
1163 -4985 -4990 0
-1163 4985 0
-1163 4990 0
1164 -4939 -4983 0
-1164 4939 0
-1164 4983 0
1165 -4992 -4996 0
-1165 4992 0
-1165 4996 0
-1166 1167 1171 0
-1166 -1167 -1171 0
1166 -1167 1171 0
1166 1167 -1171 0
-1167 1168 1169 0
-1167 -1168 -1169 0
1167 -1168 1169 0
1167 1168 -1169 0
-1168 1159 1160 0
-1168 1160 1162 0
-1168 1159 1162 0
1168 -1159 -1162 0
1168 -1160 -1162 0
1168 -1159 -1160 0
-1169 1115 1170 0
-1169 -1115 -1170 0
1169 -1115 1170 0
1169 1115 -1170 0
-1170 1109 1111 0
-1170 -1109 -1111 0
1170 -1109 1111 0
1170 1109 -1111 0
-1171 1172 1174 0
-1171 1174 1178 0
-1171 1172 1178 0
1171 -1172 -1178 0
1171 -1174 -1178 0
1171 -1172 -1174 0
-1172 1114 1173 0
-1172 -1114 -1173 0
1172 -1114 1173 0
1172 1114 -1173 0
-1173 -1112 -1113 0
-1173 1112 1113 0
1173 1112 -1113 0
1173 -1112 1113 0
-1174 1175 1177 0
-1174 1176 1177 0
-1174 1175 1176 0
1174 -1175 -1176 0
1174 -1176 -1177 0
1174 -1175 -1177 0
1175 -4946 -5034 0
-1175 4946 0
-1175 5034 0
1176 -4941 -4986 0
-1176 4941 0
-1176 4986 0
1177 -4950 -4953 0
-1177 4950 0
-1177 4953 0
-1178 1128 1179 0
-1178 -1128 -1179 0
1178 -1128 1179 0
1178 1128 -1179 0
-1179 -1126 -1127 0
-1179 1126 1127 0
1179 1126 -1127 0
1179 -1126 1127 0
-1180 -1181 -1184 0
-1180 1181 1184 0
1180 1181 -1184 0
1180 -1181 1184 0
-1181 1182 1183 0
-1181 -1182 -1183 0
1181 -1182 1183 0
1181 1182 -1183 0
-1182 -1122 -1123 0
-1182 1122 1123 0
1182 1122 -1123 0
1182 -1122 1123 0
-1183 1168 1169 0
-1183 1169 1171 0
-1183 1168 1171 0
1183 -1168 -1171 0
1183 -1169 -1171 0
1183 -1168 -1169 0
1184 -1185 -1186 0
-1184 1185 0
-1184 1186 0
-1185 1124 1125 0
-1185 -1124 -1125 0
1185 -1124 1125 0
1185 1124 -1125 0
1186 -1187 -1188 0
-1186 1187 0
-1186 1188 0
1187 -4984 -4999 0
-1187 4984 0
-1187 4999 0
-1188 1189 1191 0
-1188 1190 1191 0
-1188 1189 1190 0
1188 -1189 -1190 0
1188 -1190 -1191 0
1188 -1189 -1191 0
1189 -4993 -4998 0
-1189 4993 0
-1189 4998 0
1190 -4960 -5015 0
-1190 4960 0
-1190 5015 0
1191 -4997 -4999 0
-1191 4997 0
-1191 4999 0
-1192 1182 1183 0
-1192 1183 1184 0
-1192 1182 1184 0
1192 -1183 -1184 0
1192 -1182 -1183 0
1192 -1182 -1184 0
1193 -1194 -1195 0
-1193 1194 0
-1193 1195 0
-1194 1131 1133 0
-1194 -1131 -1133 0
1194 -1131 1133 0
1194 1131 -1133 0
1195 -1196 -1198 0
-1195 1196 0
-1195 1198 0
-1196 1192 1197 0
-1196 -1192 -1197 0
1196 -1192 1197 0
1196 1192 -1197 0
-1197 1134 1136 0
-1197 -1134 -1136 0
1197 -1134 1136 0
1197 1134 -1136 0
-1198 1199 1201 0
-1198 1201 1257 0
-1198 1199 1257 0
1198 -1199 -1257 0
1198 -1201 -1257 0
1198 -1199 -1201 0
-1199 1180 1200 0
-1199 -1180 -1200 0
1199 -1180 1200 0
1199 1180 -1200 0
-1200 1137 1139 0
-1200 -1137 -1139 0
1200 -1137 1139 0
1200 1137 -1139 0
-1201 1202 1204 0
-1201 1204 1245 0
-1201 1202 1245 0
1201 -1202 -1245 0
1201 -1204 -1245 0
1201 -1202 -1204 0
-1202 1166 1203 0
-1202 -1166 -1203 0
1202 -1166 1203 0
1202 1166 -1203 0
-1203 1140 1142 0
-1203 -1140 -1142 0
1203 -1140 1142 0
1203 1140 -1142 0
-1204 1205 1207 0
-1204 1207 1231 0
-1204 1205 1231 0
1204 -1205 -1231 0
1204 -1207 -1231 0
1204 -1205 -1207 0
-1205 1157 1206 0
-1205 -1157 -1206 0
1205 -1157 1206 0
1205 1157 -1206 0
-1206 1143 1144 0
-1206 -1143 -1144 0
1206 -1143 1144 0
1206 1143 -1144 0
-1207 1208 1210 0
-1207 1210 1222 0
-1207 1208 1222 0
1207 -1208 -1222 0
1207 -1210 -1222 0
1207 -1208 -1210 0
-1208 1152 1209 0
-1208 -1152 -1209 0
1208 -1152 1209 0
1208 1152 -1209 0
-1209 1145 1148 0
-1209 -1145 -1148 0
1209 -1145 1148 0
1209 1145 -1148 0
-1210 1211 1213 0
-1210 1213 1217 0
-1210 1211 1217 0
1210 -1211 -1217 0
1210 -1213 -1217 0
1210 -1211 -1213 0
-1211 1151 1212 0
-1211 -1151 -1212 0
1211 -1151 1212 0
1211 1151 -1212 0
-1212 -1149 -1150 0
-1212 1149 1150 0
1212 1149 -1150 0
1212 -1149 1150 0
-1213 1214 1216 0
-1213 1215 1216 0
-1213 1214 1215 0
1213 -1214 -1215 0
1213 -1215 -1216 0
1213 -1214 -1216 0
1214 -4945 -4973 0
-1214 4945 0
-1214 4973 0
1215 -4949 -4952 0
-1215 4949 0
-1215 4952 0
1216 -4942 -4944 0
-1216 4942 0
-1216 4944 0
-1217 -1218 -1221 0
-1217 1218 1221 0
1217 1218 -1221 0
1217 -1218 1221 0
-1218 -1219 -1220 0
-1218 1219 1220 0
1218 1219 -1220 0
1218 -1219 1220 0
1219 -4942 -4947 0
-1219 4942 0
-1219 4947 0
1220 -4940 -4956 0
-1220 4940 0
-1220 4956 0
1221 -4989 -4990 0
-1221 4989 0
-1221 4990 0
-1222 1223 1227 0
-1222 -1223 -1227 0
1222 -1223 1227 0
1222 1223 -1227 0
-1223 1224 1225 0
-1223 -1224 -1225 0
1223 -1224 1225 0
1223 1224 -1225 0
-1224 1219 1221 0
-1224 1220 1221 0
-1224 1219 1220 0
1224 -1219 -1220 0
1224 -1220 -1221 0
1224 -1219 -1221 0
-1225 1165 1226 0
-1225 -1165 -1226 0
1225 -1165 1226 0
1225 1165 -1226 0
-1226 -1163 -1164 0
-1226 1163 1164 0
1226 1163 -1164 0
1226 -1163 1164 0
-1227 1228 1230 0
-1227 1229 1230 0
-1227 1228 1229 0
1227 -1228 -1229 0
1227 -1229 -1230 0
1227 -1228 -1230 0
1228 -4939 -4985 0
-1228 4939 0
-1228 4985 0
1229 -4983 -4996 0
-1229 4983 0
-1229 4996 0
1230 -4946 -4992 0
-1230 4946 0
-1230 4992 0
-1231 1232 1236 0
-1231 -1232 -1236 0
1231 -1232 1236 0
1231 1232 -1236 0
-1232 1233 1234 0
-1232 -1233 -1234 0
1232 -1233 1234 0
1232 1233 -1234 0
-1233 1224 1225 0
-1233 1225 1227 0
-1233 1224 1227 0
1233 -1224 -1227 0
1233 -1225 -1227 0
1233 -1224 -1225 0
-1234 1178 1235 0
-1234 -1178 -1235 0
1234 -1178 1235 0
1234 1178 -1235 0
-1235 1172 1174 0
-1235 -1172 -1174 0
1235 -1172 1174 0
1235 1172 -1174 0
-1236 1237 1239 0
-1236 1239 1243 0
-1236 1237 1243 0
1236 -1237 -1243 0
1236 -1239 -1243 0
1236 -1237 -1239 0
-1237 1177 1238 0
-1237 -1177 -1238 0
1237 -1177 1238 0
1237 1177 -1238 0
-1238 -1175 -1176 0
-1238 1175 1176 0
1238 1175 -1176 0
1238 -1175 1176 0
-1239 1240 1242 0
-1239 1241 1242 0
-1239 1240 1241 0
1239 -1240 -1241 0
1239 -1241 -1242 0
1239 -1240 -1242 0
1240 -4986 -5034 0
-1240 4986 0
-1240 5034 0
1241 -4941 -4953 0
-1241 4941 0
-1241 4953 0
1242 -4950 -4998 0
-1242 4950 0
-1242 4998 0
-1243 1191 1244 0
-1243 -1191 -1244 0
1243 -1191 1244 0
1243 1191 -1244 0
-1244 -1189 -1190 0
-1244 1189 1190 0
1244 1189 -1190 0
1244 -1189 1190 0
-1245 -1246 -1249 0
-1245 1246 1249 0
1245 1246 -1249 0
1245 -1246 1249 0
-1246 1247 1248 0
-1246 -1247 -1248 0
1246 -1247 1248 0
1246 1247 -1248 0
-1247 -1185 -1186 0
-1247 1185 1186 0
1247 1185 -1186 0
1247 -1185 1186 0
-1248 1233 1234 0
-1248 1234 1236 0
-1248 1233 1236 0
1248 -1233 -1236 0
1248 -1234 -1236 0
1248 -1233 -1234 0
1249 -1250 -1251 0
-1249 1250 0
-1249 1251 0
-1250 1187 1188 0
-1250 -1187 -1188 0
1250 -1187 1188 0
1250 1187 -1188 0
1251 -1252 -1253 0
-1251 1252 0
-1251 1253 0
1252 -4984 -5000 0
-1252 4984 0
-1252 5000 0
-1253 1254 1256 0
-1253 1255 1256 0
-1253 1254 1255 0
1253 -1254 -1255 0
1253 -1255 -1256 0
1253 -1254 -1256 0
1254 -4960 -4993 0
-1254 4960 0
-1254 4993 0
1255 -4999 -5015 0
-1255 4999 0
-1255 5015 0
1256 -4997 -5000 0
-1256 4997 0
-1256 5000 0
-1257 1247 1248 0
-1257 1248 1249 0
-1257 1247 1249 0
1257 -1248 -1249 0
1257 -1247 -1248 0
1257 -1247 -1249 0
-1258 1259 1326 0
-1258 1326 1385 0
-1258 1326 1386 0
1258 -1326 0
1258 -1259 -1385 -1386 0
-1259 -1260 -1261 0
-1259 1260 1261 0
1259 1260 -1261 0
1259 -1260 1261 0
-1260 -1194 -1195 0
-1260 1194 1195 0
1260 1194 -1195 0
1260 -1194 1195 0
1261 -1262 -1263 0
-1261 1262 0
-1261 1263 0
-1262 1196 1198 0
-1262 -1196 -1198 0
1262 -1196 1198 0
1262 1196 -1198 0
1263 -1264 -1266 0
-1263 1264 0
-1263 1266 0
-1264 1257 1265 0
-1264 -1257 -1265 0
1264 -1257 1265 0
1264 1257 -1265 0
-1265 1199 1201 0
-1265 -1199 -1201 0
1265 -1199 1201 0
1265 1199 -1201 0
-1266 1267 1269 0
-1266 1269 1325 0
-1266 1267 1325 0
1266 -1267 -1325 0
1266 -1269 -1325 0
1266 -1267 -1269 0
-1267 1245 1268 0
-1267 -1245 -1268 0
1267 -1245 1268 0
1267 1245 -1268 0
-1268 1202 1204 0
-1268 -1202 -1204 0
1268 -1202 1204 0
1268 1202 -1204 0
-1269 1270 1272 0
-1269 1272 1313 0
-1269 1270 1313 0
1269 -1270 -1313 0
1269 -1272 -1313 0
1269 -1270 -1272 0
-1270 1231 1271 0
-1270 -1231 -1271 0
1270 -1231 1271 0
1270 1231 -1271 0
-1271 1205 1207 0
-1271 -1205 -1207 0
1271 -1205 1207 0
1271 1205 -1207 0
-1272 1273 1275 0
-1272 1275 1299 0
-1272 1273 1299 0
1272 -1273 -1299 0
1272 -1275 -1299 0
1272 -1273 -1275 0
-1273 1222 1274 0
-1273 -1222 -1274 0
1273 -1222 1274 0
1273 1222 -1274 0
-1274 1208 1210 0
-1274 -1208 -1210 0
1274 -1208 1210 0
1274 1208 -1210 0
-1275 1276 1278 0
-1275 1278 1290 0
-1275 1276 1290 0
1275 -1276 -1290 0
1275 -1278 -1290 0
1275 -1276 -1278 0
-1276 1217 1277 0
-1276 -1217 -1277 0
1276 -1217 1277 0
1276 1217 -1277 0
-1277 1211 1213 0
-1277 -1211 -1213 0
1277 -1211 1213 0
1277 1211 -1213 0
-1278 1279 1281 0
-1278 1281 1285 0
-1278 1279 1285 0
1278 -1279 -1285 0
1278 -1281 -1285 0
1278 -1279 -1281 0
-1279 1216 1280 0
-1279 -1216 -1280 0
1279 -1216 1280 0
1279 1216 -1280 0
-1280 -1214 -1215 0
-1280 1214 1215 0
1280 1214 -1215 0
1280 -1214 1215 0
-1281 1282 1284 0
-1281 1283 1284 0
-1281 1282 1283 0
1281 -1282 -1283 0
1281 -1283 -1284 0
1281 -1282 -1284 0
1282 -4945 -4952 0
-1282 4945 0
-1282 4952 0
1283 -4942 -4949 0
-1283 4942 0
-1283 4949 0
1284 -4940 -4944 0
-1284 4940 0
-1284 4944 0
-1285 -1286 -1289 0
-1285 1286 1289 0
1285 1286 -1289 0
1285 -1286 1289 0
-1286 -1287 -1288 0
-1286 1287 1288 0
1286 1287 -1288 0
1286 -1287 1288 0
1287 -4940 -4947 0
-1287 4940 0
-1287 4947 0
1288 -4956 -4990 0
-1288 4956 0
-1288 4990 0
1289 -4939 -4989 0
-1289 4939 0
-1289 4989 0
-1290 1291 1295 0
-1290 -1291 -1295 0
1290 -1291 1295 0
1290 1291 -1295 0
-1291 1292 1293 0
-1291 -1292 -1293 0
1291 -1292 1293 0
1291 1292 -1293 0
-1292 1287 1289 0
-1292 1288 1289 0
-1292 1287 1288 0
1292 -1287 -1288 0
1292 -1288 -1289 0
1292 -1287 -1289 0
-1293 1230 1294 0
-1293 -1230 -1294 0
1293 -1230 1294 0
1293 1230 -1294 0
-1294 -1228 -1229 0
-1294 1228 1229 0
1294 1228 -1229 0
1294 -1228 1229 0
-1295 1296 1298 0
-1295 1297 1298 0
-1295 1296 1297 0
1295 -1296 -1297 0
1295 -1297 -1298 0
1295 -1296 -1298 0
1296 -4985 -4996 0
-1296 4985 0
-1296 4996 0
1297 -4946 -4983 0
-1297 4946 0
-1297 4983 0
1298 -4986 -4992 0
-1298 4986 0
-1298 4992 0
-1299 1300 1304 0
-1299 -1300 -1304 0
1299 -1300 1304 0
1299 1300 -1304 0
-1300 1301 1302 0
-1300 -1301 -1302 0
1300 -1301 1302 0
1300 1301 -1302 0
-1301 1292 1293 0
-1301 1293 1295 0
-1301 1292 1295 0
1301 -1292 -1295 0
1301 -1293 -1295 0
1301 -1292 -1293 0
-1302 1243 1303 0
-1302 -1243 -1303 0
1302 -1243 1303 0
1302 1243 -1303 0
-1303 1237 1239 0
-1303 -1237 -1239 0
1303 -1237 1239 0
1303 1237 -1239 0
-1304 1305 1307 0
-1304 1307 1311 0
-1304 1305 1311 0
1304 -1305 -1311 0
1304 -1307 -1311 0
1304 -1305 -1307 0
-1305 1242 1306 0
-1305 -1242 -1306 0
1305 -1242 1306 0
1305 1242 -1306 0
-1306 -1240 -1241 0
-1306 1240 1241 0
1306 1240 -1241 0
1306 -1240 1241 0
-1307 1308 1310 0
-1307 1309 1310 0
-1307 1308 1309 0
1307 -1308 -1309 0
1307 -1309 -1310 0
1307 -1308 -1310 0
1308 -4953 -5034 0
-1308 4953 0
-1308 5034 0
1309 -4941 -4998 0
-1309 4941 0
-1309 4998 0
1310 -4950 -4960 0
-1310 4950 0
-1310 4960 0
-1311 1256 1312 0
-1311 -1256 -1312 0
1311 -1256 1312 0
1311 1256 -1312 0
-1312 -1254 -1255 0
-1312 1254 1255 0
1312 1254 -1255 0
1312 -1254 1255 0
-1313 -1314 -1317 0
-1313 1314 1317 0
1313 1314 -1317 0
1313 -1314 1317 0
-1314 1315 1316 0
-1314 -1315 -1316 0
1314 -1315 1316 0
1314 1315 -1316 0
-1315 -1250 -1251 0
-1315 1250 1251 0
1315 1250 -1251 0
1315 -1250 1251 0
-1316 1301 1302 0
-1316 1302 1304 0
-1316 1301 1304 0
1316 -1301 -1304 0
1316 -1302 -1304 0
1316 -1301 -1302 0
1317 -1318 -1319 0
-1317 1318 0
-1317 1319 0
-1318 1252 1253 0
-1318 -1252 -1253 0
1318 -1252 1253 0
1318 1252 -1253 0
1319 -1320 -1321 0
-1319 1320 0
-1319 1321 0
1320 -4984 -5001 0
-1320 4984 0
-1320 5001 0
-1321 1322 1324 0
-1321 1323 1324 0
-1321 1322 1323 0
1321 -1322 -1323 0
1321 -1323 -1324 0
1321 -1322 -1324 0
1322 -4993 -4999 0
-1322 4993 0
-1322 4999 0
1323 -5000 -5015 0
-1323 5000 0
-1323 5015 0
1324 -4997 -5001 0
-1324 4997 0
-1324 5001 0
-1325 1315 1316 0
-1325 1316 1317 0
-1325 1315 1317 0
1325 -1316 -1317 0
1325 -1315 -1316 0
1325 -1315 -1317 0
-1326 1261 1327 0
-1326 1260 1261 0
-1326 1260 1327 0
1326 -1260 -1261 0
1326 -1261 -1327 0
1326 -1260 -1327 0
1327 -1328 -1329 0
-1327 1328 0
-1327 1329 0
-1328 -1262 -1263 0
-1328 1262 1263 0
1328 1262 -1263 0
1328 -1262 1263 0
1329 -1330 -1331 0
-1329 1330 0
-1329 1331 0
-1330 1264 1266 0
-1330 -1264 -1266 0
1330 -1264 1266 0
1330 1264 -1266 0
1331 -1332 -1334 0
-1331 1332 0
-1331 1334 0
-1332 1325 1333 0
-1332 -1325 -1333 0
1332 -1325 1333 0
1332 1325 -1333 0
-1333 1267 1269 0
-1333 -1267 -1269 0
1333 -1267 1269 0
1333 1267 -1269 0
-1334 1335 1337 0
-1334 1337 1384 0
-1334 1335 1384 0
1334 -1337 -1384 0
1334 -1335 -1337 0
1334 -1335 -1384 0
-1335 1313 1336 0
-1335 -1313 -1336 0
1335 -1313 1336 0
1335 1313 -1336 0
-1336 1270 1272 0
-1336 -1270 -1272 0
1336 -1270 1272 0
1336 1270 -1272 0
-1337 1338 1340 0
-1337 1340 1381 0
-1337 1338 1381 0
1337 -1338 -1381 0
1337 -1340 -1381 0
1337 -1338 -1340 0
-1338 1299 1339 0
-1338 -1299 -1339 0
1338 -1299 1339 0
1338 1299 -1339 0
-1339 1273 1275 0
-1339 -1273 -1275 0
1339 -1273 1275 0
1339 1273 -1275 0
-1340 1341 1343 0
-1340 1343 1367 0
-1340 1341 1367 0
1340 -1341 -1367 0
1340 -1343 -1367 0
1340 -1341 -1343 0
-1341 1290 1342 0
-1341 -1290 -1342 0
1341 -1290 1342 0
1341 1290 -1342 0
-1342 1276 1278 0
-1342 -1276 -1278 0
1342 -1276 1278 0
1342 1276 -1278 0
-1343 1344 1346 0
-1343 1346 1358 0
-1343 1344 1358 0
1343 -1344 -1358 0
1343 -1346 -1358 0
1343 -1344 -1346 0
-1344 1285 1345 0
-1344 -1285 -1345 0
1344 -1285 1345 0
1344 1285 -1345 0
-1345 1279 1281 0
-1345 -1279 -1281 0
1345 -1279 1281 0
1345 1279 -1281 0
-1346 1347 1349 0
-1346 1349 1353 0
-1346 1347 1353 0
1346 -1347 -1353 0
1346 -1349 -1353 0
1346 -1347 -1349 0
-1347 1284 1348 0
-1347 -1284 -1348 0
1347 -1284 1348 0
1347 1284 -1348 0
-1348 -1282 -1283 0
-1348 1282 1283 0
1348 1282 -1283 0
1348 -1282 1283 0
-1349 1350 1352 0
-1349 1351 1352 0
-1349 1350 1351 0
1349 -1350 -1351 0
1349 -1351 -1352 0
1349 -1350 -1352 0
1350 -4942 -4945 0
-1350 4942 0
-1350 4945 0
1351 -4940 -4949 0
-1351 4940 0
-1351 4949 0
1352 -4944 -4990 0
-1352 4944 0
-1352 4990 0
-1353 -1354 -1357 0
-1353 1354 1357 0
1353 1354 -1357 0
1353 -1354 1357 0
-1354 -1355 -1356 0
-1354 1355 1356 0
1354 1355 -1356 0
1354 -1355 1356 0
1355 -4947 -4990 0
-1355 4947 0
-1355 4990 0
1356 -4939 -4956 0
-1356 4939 0
-1356 4956 0
1357 -4989 -4996 0
-1357 4989 0
-1357 4996 0
-1358 1359 1363 0
-1358 -1359 -1363 0
1358 -1359 1363 0
1358 1359 -1363 0
-1359 1360 1361 0
-1359 -1360 -1361 0
1359 -1360 1361 0
1359 1360 -1361 0
-1360 1355 1357 0
-1360 1356 1357 0
-1360 1355 1356 0
1360 -1355 -1356 0
1360 -1356 -1357 0
1360 -1355 -1357 0
-1361 1298 1362 0
-1361 -1298 -1362 0
1361 -1298 1362 0
1361 1298 -1362 0
-1362 -1296 -1297 0
-1362 1296 1297 0
1362 1296 -1297 0
1362 -1296 1297 0
-1363 1364 1366 0
-1363 1365 1366 0
-1363 1364 1365 0
1363 -1364 -1365 0
1363 -1365 -1366 0
1363 -1364 -1366 0
1364 -4946 -4985 0
-1364 4946 0
-1364 4985 0
1365 -4983 -4986 0
-1365 4983 0
-1365 4986 0
1366 -4953 -4992 0
-1366 4953 0
-1366 4992 0
-1367 1368 1372 0
-1367 -1368 -1372 0
1367 -1368 1372 0
1367 1368 -1372 0
-1368 1369 1370 0
-1368 -1369 -1370 0
1368 -1369 1370 0
1368 1369 -1370 0
-1369 1360 1361 0
-1369 1361 1363 0
-1369 1360 1363 0
1369 -1360 -1363 0
1369 -1361 -1363 0
1369 -1360 -1361 0
-1370 1311 1371 0
-1370 -1311 -1371 0
1370 -1311 1371 0
1370 1311 -1371 0
-1371 1305 1307 0
-1371 -1305 -1307 0
1371 -1305 1307 0
1371 1305 -1307 0
-1372 1373 1375 0
-1372 1375 1379 0
-1372 1373 1379 0
1372 -1373 -1379 0
1372 -1375 -1379 0
1372 -1373 -1375 0
-1373 1310 1374 0
-1373 -1310 -1374 0
1373 -1310 1374 0
1373 1310 -1374 0
-1374 -1308 -1309 0
-1374 1308 1309 0
1374 1308 -1309 0
1374 -1308 1309 0
-1375 1376 1378 0
-1375 1377 1378 0
-1375 1376 1377 0
1375 -1376 -1377 0
1375 -1377 -1378 0
1375 -1376 -1378 0
1376 -4998 -5034 0
-1376 4998 0
-1376 5034 0
1377 -4941 -4960 0
-1377 4941 0
-1377 4960 0
1378 -4950 -4999 0
-1378 4950 0
-1378 4999 0
-1379 1324 1380 0
-1379 -1324 -1380 0
1379 -1324 1380 0
1379 1324 -1380 0
-1380 -1322 -1323 0
-1380 1322 1323 0
1380 1322 -1323 0
1380 -1322 1323 0
-1381 1382 1383 0
-1381 -1382 -1383 0
1381 -1382 1383 0
1381 1382 -1383 0
-1382 -1318 -1319 0
-1382 1318 1319 0
1382 1318 -1319 0
1382 -1318 1319 0
-1383 1369 1370 0
-1383 1370 1372 0
-1383 1369 1372 0
1383 -1369 -1372 0
1383 -1370 -1372 0
1383 -1369 -1370 0
1384 -1382 -1383 0
-1384 1382 0
-1384 1383 0
-1385 -1328 -1329 0
-1385 1328 1329 0
1385 1328 -1329 0
1385 -1328 1329 0
-1386 1387 1504 0
-1386 1504 1600 0
-1386 1504 1603 0
1386 -1504 0
1386 -1387 -1600 -1603 0
1387 -1388 -1447 0
-1387 1388 0
-1387 1447 0
-1388 -1389 -1390 0
-1388 1389 1390 0
1388 1389 -1390 0
1388 -1389 1390 0
-1389 -1330 -1331 0
-1389 1330 1331 0
1389 1330 -1331 0
1389 -1330 1331 0
1390 -1391 -1392 0
-1390 1391 0
-1390 1392 0
-1391 1332 1334 0
-1391 -1332 -1334 0
1391 -1332 1334 0
1391 1332 -1334 0
1392 -1393 -1395 0
-1392 1393 0
-1392 1395 0
-1393 1384 1394 0
-1393 -1384 -1394 0
1393 -1384 1394 0
1393 1384 -1394 0
-1394 1335 1337 0
-1394 -1335 -1337 0
1394 -1335 1337 0
1394 1335 -1337 0
-1395 1396 1398 0
-1395 1398 1446 0
-1395 1396 1446 0
1395 -1398 -1446 0
1395 -1396 -1398 0
1395 -1396 -1446 0
-1396 1381 1397 0
-1396 -1381 -1397 0
1396 -1381 1397 0
1396 1381 -1397 0
-1397 1338 1340 0
-1397 -1338 -1340 0
1397 -1338 1340 0
1397 1338 -1340 0
-1398 1399 1401 0
-1398 1401 1443 0
-1398 1399 1443 0
1398 -1399 -1443 0
1398 -1401 -1443 0
1398 -1399 -1401 0
-1399 1367 1400 0
-1399 -1367 -1400 0
1399 -1367 1400 0
1399 1367 -1400 0
-1400 1341 1343 0
-1400 -1341 -1343 0
1400 -1341 1343 0
1400 1341 -1343 0
-1401 1402 1404 0
-1401 1404 1428 0
-1401 1402 1428 0
1401 -1402 -1428 0
1401 -1404 -1428 0
1401 -1402 -1404 0
-1402 1358 1403 0
-1402 -1358 -1403 0
1402 -1358 1403 0
1402 1358 -1403 0
-1403 1344 1346 0
-1403 -1344 -1346 0
1403 -1344 1346 0
1403 1344 -1346 0
-1404 1405 1407 0
-1404 1407 1419 0
-1404 1405 1419 0
1404 -1405 -1419 0
1404 -1407 -1419 0
1404 -1405 -1407 0
-1405 1353 1406 0
-1405 -1353 -1406 0
1405 -1353 1406 0
1405 1353 -1406 0
-1406 1347 1349 0
-1406 -1347 -1349 0
1406 -1347 1349 0
1406 1347 -1349 0
-1407 1408 1410 0
-1407 1410 1414 0
-1407 1408 1414 0
1407 -1408 -1414 0
1407 -1410 -1414 0
1407 -1408 -1410 0
-1408 1352 1409 0
-1408 -1352 -1409 0
1408 -1352 1409 0
1408 1352 -1409 0
-1409 -1350 -1351 0
-1409 1350 1351 0
1409 1350 -1351 0
1409 -1350 1351 0
-1410 1411 1413 0
-1410 1412 1413 0
-1410 1411 1412 0
1410 -1411 -1412 0
1410 -1412 -1413 0
1410 -1411 -1413 0
1411 -4940 -4945 0
-1411 4940 0
-1411 4945 0
1412 -4949 -4990 0
-1412 4949 0
-1412 4990 0
1413 -4939 -4944 0
-1413 4939 0
-1413 4944 0
-1414 -1415 -1418 0
-1414 1415 1418 0
1414 1415 -1418 0
1414 -1415 1418 0
-1415 -1416 -1417 0
-1415 1416 1417 0
1415 1416 -1417 0
1415 -1416 1417 0
1416 -4939 -4947 0
-1416 4939 0
-1416 4947 0
1417 -4956 -4996 0
-1417 4956 0
-1417 4996 0
1418 -4946 -4989 0
-1418 4946 0
-1418 4989 0
-1419 1420 1424 0
-1419 -1420 -1424 0
1419 -1420 1424 0
1419 1420 -1424 0
-1420 1421 1422 0
-1420 -1421 -1422 0
1420 -1421 1422 0
1420 1421 -1422 0
-1421 1416 1418 0
-1421 1417 1418 0
-1421 1416 1417 0
1421 -1416 -1417 0
1421 -1417 -1418 0
1421 -1416 -1418 0
-1422 1366 1423 0
-1422 -1366 -1423 0
1422 -1366 1423 0
1422 1366 -1423 0
-1423 -1364 -1365 0
-1423 1364 1365 0
1423 1364 -1365 0
1423 -1364 1365 0
-1424 1425 1427 0
-1424 1426 1427 0
-1424 1425 1426 0
1424 -1425 -1426 0
1424 -1426 -1427 0
1424 -1425 -1427 0
1425 -4985 -4986 0
-1425 4985 0
-1425 4986 0
1426 -4953 -4983 0
-1426 4953 0
-1426 4983 0
1427 -4992 -4998 0
-1427 4992 0
-1427 4998 0
-1428 1429 1433 0
-1428 -1429 -1433 0
1428 -1429 1433 0
1428 1429 -1433 0
-1429 1430 1431 0
-1429 -1430 -1431 0
1429 -1430 1431 0
1429 1430 -1431 0
-1430 1421 1422 0
-1430 1422 1424 0
-1430 1421 1424 0
1430 -1421 -1424 0
1430 -1422 -1424 0
1430 -1421 -1422 0
-1431 1379 1432 0
-1431 -1379 -1432 0
1431 -1379 1432 0
1431 1379 -1432 0
-1432 1373 1375 0
-1432 -1373 -1375 0
1432 -1373 1375 0
1432 1373 -1375 0
-1433 1434 1436 0
-1433 1436 1440 0
-1433 1434 1440 0
1433 -1434 -1440 0
1433 -1436 -1440 0
1433 -1434 -1436 0
-1434 1378 1435 0
-1434 -1378 -1435 0
1434 -1378 1435 0
1434 1378 -1435 0
-1435 -1376 -1377 0
-1435 1376 1377 0
1435 1376 -1377 0
1435 -1376 1377 0
-1436 1437 1439 0
-1436 1438 1439 0
-1436 1437 1438 0
1436 -1437 -1438 0
1436 -1438 -1439 0
1436 -1437 -1439 0
1437 -4960 -5034 0
-1437 4960 0
-1437 5034 0
1438 -4941 -4999 0
-1438 4941 0
-1438 4999 0
1439 -4950 -5000 0
-1439 4950 0
-1439 5000 0
-1440 -1441 -1442 0
-1440 1441 1442 0
1440 1441 -1442 0
1440 -1441 1442 0
1441 -4993 -5000 0
-1441 4993 0
-1441 5000 0
1442 -5001 -5015 0
-1442 5001 0
-1442 5015 0
-1443 1444 1445 0
-1443 -1444 -1445 0
1443 -1444 1445 0
1443 1444 -1445 0
-1444 1320 1321 0
-1444 -1320 -1321 0
1444 -1320 1321 0
1444 1320 -1321 0
-1445 1430 1431 0
-1445 1431 1433 0
-1445 1430 1433 0
1445 -1430 -1433 0
1445 -1431 -1433 0
1445 -1430 -1431 0
1446 -1444 -1445 0
-1446 1444 0
-1446 1445 0
-1447 -1448 -1449 0
-1447 1448 1449 0
1447 1448 -1449 0
1447 -1448 1449 0
-1448 -1391 -1392 0
-1448 1391 1392 0
1448 1391 -1392 0
1448 -1391 1392 0
1449 -1450 -1451 0
-1449 1450 0
-1449 1451 0
-1450 1393 1395 0
-1450 -1393 -1395 0
1450 -1393 1395 0
1450 1393 -1395 0
1451 -1452 -1454 0
-1451 1452 0
-1451 1454 0
-1452 1446 1453 0
-1452 -1446 -1453 0
1452 -1446 1453 0
1452 1446 -1453 0
-1453 1396 1398 0
-1453 -1396 -1398 0
1453 -1396 1398 0
1453 1396 -1398 0
-1454 1455 1457 0
-1454 1457 1503 0
-1454 1455 1503 0
1454 -1457 -1503 0
1454 -1455 -1457 0
1454 -1455 -1503 0
-1455 1443 1456 0
-1455 -1443 -1456 0
1455 -1443 1456 0
1455 1443 -1456 0
-1456 1399 1401 0
-1456 -1399 -1401 0
1456 -1399 1401 0
1456 1399 -1401 0
-1457 1458 1460 0
-1457 1460 1500 0
-1457 1458 1500 0
1457 -1458 -1500 0
1457 -1460 -1500 0
1457 -1458 -1460 0
-1458 1428 1459 0
-1458 -1428 -1459 0
1458 -1428 1459 0
1458 1428 -1459 0
-1459 1402 1404 0
-1459 -1402 -1404 0
1459 -1402 1404 0
1459 1402 -1404 0
-1460 1461 1463 0
-1460 1463 1487 0
-1460 1461 1487 0
1460 -1461 -1487 0
1460 -1463 -1487 0
1460 -1461 -1463 0
-1461 1419 1462 0
-1461 -1419 -1462 0
1461 -1419 1462 0
1461 1419 -1462 0
-1462 1405 1407 0
-1462 -1405 -1407 0
1462 -1405 1407 0
1462 1405 -1407 0
-1463 1464 1466 0
-1463 1466 1478 0
-1463 1464 1478 0
1463 -1464 -1478 0
1463 -1466 -1478 0
1463 -1464 -1466 0
-1464 1414 1465 0
-1464 -1414 -1465 0
1464 -1414 1465 0
1464 1414 -1465 0
-1465 1408 1410 0
-1465 -1408 -1410 0
1465 -1408 1410 0
1465 1408 -1410 0
-1466 1467 1469 0
-1466 1469 1473 0
-1466 1467 1473 0
1466 -1467 -1473 0
1466 -1469 -1473 0
1466 -1467 -1469 0
-1467 1413 1468 0
-1467 -1413 -1468 0
1467 -1413 1468 0
1467 1413 -1468 0
-1468 -1411 -1412 0
-1468 1411 1412 0
1468 1411 -1412 0
1468 -1411 1412 0
-1469 1470 1472 0
-1469 1471 1472 0
-1469 1470 1471 0
1469 -1470 -1471 0
1469 -1471 -1472 0
1469 -1470 -1472 0
1470 -4945 -4990 0
-1470 4945 0
-1470 4990 0
1471 -4939 -4949 0
-1471 4939 0
-1471 4949 0
1472 -4944 -4996 0
-1472 4944 0
-1472 4996 0
-1473 -1474 -1477 0
-1473 1474 1477 0
1473 1474 -1477 0
1473 -1474 1477 0
-1474 -1475 -1476 0
-1474 1475 1476 0
1474 1475 -1476 0
1474 -1475 1476 0
1475 -4947 -4996 0
-1475 4947 0
-1475 4996 0
1476 -4946 -4956 0
-1476 4946 0
-1476 4956 0
1477 -4986 -4989 0
-1477 4986 0
-1477 4989 0
-1478 1479 1483 0
-1478 -1479 -1483 0
1478 -1479 1483 0
1478 1479 -1483 0
-1479 1480 1481 0
-1479 -1480 -1481 0
1479 -1480 1481 0
1479 1480 -1481 0
-1480 1475 1477 0
-1480 1476 1477 0
-1480 1475 1476 0
1480 -1475 -1476 0
1480 -1476 -1477 0
1480 -1475 -1477 0
-1481 1427 1482 0
-1481 -1427 -1482 0
1481 -1427 1482 0
1481 1427 -1482 0
-1482 -1425 -1426 0
-1482 1425 1426 0
1482 1425 -1426 0
1482 -1425 1426 0
-1483 1484 1486 0
-1483 1485 1486 0
-1483 1484 1485 0
1483 -1484 -1485 0
1483 -1485 -1486 0
1483 -1484 -1486 0
1484 -4953 -4985 0
-1484 4953 0
-1484 4985 0
1485 -4983 -4998 0
-1485 4983 0
-1485 4998 0
1486 -4960 -4992 0
-1486 4960 0
-1486 4992 0
-1487 1488 1492 0
-1487 -1488 -1492 0
1487 -1488 1492 0
1487 1488 -1492 0
-1488 1489 1490 0
-1488 -1489 -1490 0
1488 -1489 1490 0
1488 1489 -1490 0
-1489 1480 1481 0
-1489 1481 1483 0
-1489 1480 1483 0
1489 -1480 -1483 0
1489 -1481 -1483 0
1489 -1480 -1481 0
-1490 1440 1491 0
-1490 -1440 -1491 0
1490 -1440 1491 0
1490 1440 -1491 0
-1491 1434 1436 0
-1491 -1434 -1436 0
1491 -1434 1436 0
1491 1434 -1436 0
-1492 1493 1495 0
-1492 1495 1499 0
-1492 1493 1499 0
1492 -1495 -1499 0
1492 -1493 -1495 0
1492 -1493 -1499 0
-1493 1439 1494 0
-1493 -1439 -1494 0
1493 -1439 1494 0
1493 1439 -1494 0
-1494 -1437 -1438 0
-1494 1437 1438 0
1494 1437 -1438 0
1494 -1437 1438 0
-1495 1496 1498 0
-1495 1497 1498 0
-1495 1496 1497 0
1495 -1496 -1497 0
1495 -1497 -1498 0
1495 -1496 -1498 0
1496 -4999 -5034 0
-1496 4999 0
-1496 5034 0
1497 -4941 -5000 0
-1497 4941 0
-1497 5000 0
1498 -4950 -5001 0
-1498 4950 0
-1498 5001 0
1499 -4993 -5001 0
-1499 4993 0
-1499 5001 0
-1500 1501 1502 0
-1500 -1501 -1502 0
1500 -1501 1502 0
1500 1501 -1502 0
1501 -4993 -5000 -5001 -5015 0
-1501 5015 0
-1501 4993 0
-1501 5001 0
-1501 5000 0
-1502 1489 1490 0
-1502 1490 1492 0
-1502 1489 1492 0
1502 -1489 -1492 0
1502 -1490 -1492 0
1502 -1489 -1490 0
1503 -1501 -1502 0
-1503 1501 0
-1503 1502 0
-1504 1389 1390 1506 0
-1504 1389 1505 1506 0
-1504 1390 1505 1506 0
1504 -1389 -1390 0
1504 -1390 -1505 0
1504 -1506 0
1504 -1389 -1505 0
1505 -1448 -1449 0
-1505 1448 0
-1505 1449 0
1506 -1387 -1507 0
-1506 1387 0
-1506 1507 0
-1507 1509 1557 0
-1507 1508 1509 0
-1507 1508 1557 0
1507 -1508 -1509 0
1507 -1509 -1557 0
1507 -1508 -1557 0
-1508 -1450 -1451 0
-1508 1450 1451 0
1508 1450 -1451 0
1508 -1450 1451 0
1509 -1510 -1511 0
-1509 1510 0
-1509 1511 0
-1510 1452 1454 0
-1510 -1452 -1454 0
1510 -1452 1454 0
1510 1452 -1454 0
1511 -1512 -1514 0
-1511 1512 0
-1511 1514 0
-1512 1503 1513 0
-1512 -1503 -1513 0
1512 -1503 1513 0
1512 1503 -1513 0
-1513 1455 1457 0
-1513 -1455 -1457 0
1513 -1455 1457 0
1513 1455 -1457 0
1514 -1515 -1517 0
-1514 1515 0
-1514 1517 0
-1515 1500 1516 0
-1515 -1500 -1516 0
1515 -1500 1516 0
1515 1500 -1516 0
-1516 1458 1460 0
-1516 -1458 -1460 0
1516 -1458 1460 0
1516 1458 -1460 0
-1517 1518 1520 0
-1517 1520 1556 0
-1517 1518 1556 0
1517 -1518 -1556 0
1517 -1520 -1556 0
1517 -1518 -1520 0
-1518 1487 1519 0
-1518 -1487 -1519 0
1518 -1487 1519 0
1518 1487 -1519 0
-1519 1461 1463 0
-1519 -1461 -1463 0
1519 -1461 1463 0
1519 1461 -1463 0
-1520 1521 1523 0
-1520 1523 1547 0
-1520 1521 1547 0
1520 -1521 -1547 0
1520 -1523 -1547 0
1520 -1521 -1523 0
-1521 1478 1522 0
-1521 -1478 -1522 0
1521 -1478 1522 0
1521 1478 -1522 0
-1522 1464 1466 0
-1522 -1464 -1466 0
1522 -1464 1466 0
1522 1464 -1466 0
-1523 1524 1526 0
-1523 1526 1538 0
-1523 1524 1538 0
1523 -1524 -1538 0
1523 -1526 -1538 0
1523 -1524 -1526 0
-1524 1473 1525 0
-1524 -1473 -1525 0
1524 -1473 1525 0
1524 1473 -1525 0
-1525 1467 1469 0
-1525 -1467 -1469 0
1525 -1467 1469 0
1525 1467 -1469 0
-1526 1527 1529 0
-1526 1529 1533 0
-1526 1527 1533 0
1526 -1527 -1533 0
1526 -1529 -1533 0
1526 -1527 -1529 0
-1527 1472 1528 0
-1527 -1472 -1528 0
1527 -1472 1528 0
1527 1472 -1528 0
-1528 -1470 -1471 0
-1528 1470 1471 0
1528 1470 -1471 0
1528 -1470 1471 0
-1529 1530 1532 0
-1529 1531 1532 0
-1529 1530 1531 0
1529 -1530 -1531 0
1529 -1531 -1532 0
1529 -1530 -1532 0
1530 -4939 -4945 0
-1530 4939 0
-1530 4945 0
1531 -4949 -4996 0
-1531 4949 0
-1531 4996 0
1532 -4944 -4946 0
-1532 4944 0
-1532 4946 0
-1533 -1534 -1537 0
-1533 1534 1537 0
1533 1534 -1537 0
1533 -1534 1537 0
-1534 -1535 -1536 0
-1534 1535 1536 0
1534 1535 -1536 0
1534 -1535 1536 0
1535 -4946 -4947 0
-1535 4946 0
-1535 4947 0
1536 -4956 -4986 0
-1536 4956 0
-1536 4986 0
1537 -4953 -4989 0
-1537 4953 0
-1537 4989 0
-1538 1539 1543 0
-1538 -1539 -1543 0
1538 -1539 1543 0
1538 1539 -1543 0
-1539 1540 1541 0
-1539 -1540 -1541 0
1539 -1540 1541 0
1539 1540 -1541 0
-1540 1535 1537 0
-1540 1536 1537 0
-1540 1535 1536 0
1540 -1535 -1536 0
1540 -1536 -1537 0
1540 -1535 -1537 0
-1541 1486 1542 0
-1541 -1486 -1542 0
1541 -1486 1542 0
1541 1486 -1542 0
-1542 -1484 -1485 0
-1542 1484 1485 0
1542 1484 -1485 0
1542 -1484 1485 0
-1543 1544 1546 0
-1543 1545 1546 0
-1543 1544 1545 0
1543 -1544 -1545 0
1543 -1545 -1546 0
1543 -1544 -1546 0
1544 -4985 -4998 0
-1544 4985 0
-1544 4998 0
1545 -4960 -4983 0
-1545 4960 0
-1545 4983 0
1546 -4992 -4999 0
-1546 4992 0
-1546 4999 0
-1547 -1548 -1552 0
-1547 1548 1552 0
1547 1548 -1552 0
1547 -1548 1552 0
-1548 1549 1550 0
-1548 -1549 -1550 0
1548 -1549 1550 0
1548 1549 -1550 0
-1549 1540 1541 0
-1549 1541 1543 0
-1549 1540 1543 0
1549 -1540 -1543 0
1549 -1541 -1543 0
1549 -1540 -1541 0
-1550 1499 1551 0
-1550 -1499 -1551 0
1550 -1499 1551 0
1550 1499 -1551 0
-1551 1493 1495 0
-1551 -1493 -1495 0
1551 -1493 1495 0
1551 1493 -1495 0
1552 -1553 -1555 0
-1552 1553 0
-1552 1555 0
-1553 1498 1554 0
-1553 -1498 -1554 0
1553 -1498 1554 0
1553 1498 -1554 0
-1554 -1496 -1497 0
-1554 1496 1497 0
1554 1496 -1497 0
1554 -1496 1497 0
1555 -4941 -5000 -5001 -5034 0
-1555 5034 0
-1555 4941 0
-1555 5001 0
-1555 5000 0
-1556 1549 1550 0
-1556 1550 1552 0
-1556 1549 1552 0
1556 -1550 -1552 0
1556 -1549 -1550 0
1556 -1549 -1552 0
1557 -1558 -1559 0
-1557 1558 0
-1557 1559 0
-1558 -1510 -1511 0
-1558 1510 1511 0
1558 1510 -1511 0
1558 -1510 1511 0
1559 -1560 -1561 0
-1559 1560 0
-1559 1561 0
-1560 -1512 -1514 0
-1560 1512 1514 0
1560 1512 -1514 0
1560 -1512 1514 0
1561 -1562 -1563 0
-1561 1562 0
-1561 1563 0
-1562 1515 1517 0
-1562 -1515 -1517 0
1562 -1515 1517 0
1562 1515 -1517 0
1563 -1564 -1566 0
-1563 1564 0
-1563 1566 0
-1564 1556 1565 0
-1564 -1556 -1565 0
1564 -1556 1565 0
1564 1556 -1565 0
-1565 1518 1520 0
-1565 -1518 -1520 0
1565 -1518 1520 0
1565 1518 -1520 0
-1566 1567 1569 0
-1566 1569 1599 0
-1566 1567 1599 0
1566 -1569 -1599 0
1566 -1567 -1569 0
1566 -1567 -1599 0
-1567 1547 1568 0
-1567 -1547 -1568 0
1567 -1547 1568 0
1567 1547 -1568 0
-1568 1521 1523 0
-1568 -1521 -1523 0
1568 -1521 1523 0
1568 1521 -1523 0
-1569 1570 1572 0
-1569 1572 1596 0
-1569 1570 1596 0
1569 -1570 -1596 0
1569 -1572 -1596 0
1569 -1570 -1572 0
-1570 1538 1571 0
-1570 -1538 -1571 0
1570 -1538 1571 0
1570 1538 -1571 0
-1571 1524 1526 0
-1571 -1524 -1526 0
1571 -1524 1526 0
1571 1524 -1526 0
-1572 1573 1575 0
-1572 1575 1587 0
-1572 1573 1587 0
1572 -1573 -1587 0
1572 -1575 -1587 0
1572 -1573 -1575 0
-1573 1533 1574 0
-1573 -1533 -1574 0
1573 -1533 1574 0
1573 1533 -1574 0
-1574 1527 1529 0
-1574 -1527 -1529 0
1574 -1527 1529 0
1574 1527 -1529 0
-1575 1576 1578 0
-1575 1578 1582 0
-1575 1576 1582 0
1575 -1576 -1582 0
1575 -1578 -1582 0
1575 -1576 -1578 0
-1576 1532 1577 0
-1576 -1532 -1577 0
1576 -1532 1577 0
1576 1532 -1577 0
-1577 -1530 -1531 0
-1577 1530 1531 0
1577 1530 -1531 0
1577 -1530 1531 0
-1578 1579 1581 0
-1578 1580 1581 0
-1578 1579 1580 0
1578 -1579 -1580 0
1578 -1580 -1581 0
1578 -1579 -1581 0
1579 -4945 -4996 0
-1579 4945 0
-1579 4996 0
1580 -4946 -4949 0
-1580 4946 0
-1580 4949 0
1581 -4944 -4986 0
-1581 4944 0
-1581 4986 0
-1582 -1583 -1586 0
-1582 1583 1586 0
1582 1583 -1586 0
1582 -1583 1586 0
-1583 -1584 -1585 0
-1583 1584 1585 0
1583 1584 -1585 0
1583 -1584 1585 0
1584 -4947 -4986 0
-1584 4947 0
-1584 4986 0
1585 -4953 -4956 0
-1585 4953 0
-1585 4956 0
1586 -4989 -4998 0
-1586 4989 0
-1586 4998 0
-1587 1588 1592 0
-1587 -1588 -1592 0
1587 -1588 1592 0
1587 1588 -1592 0
-1588 1589 1590 0
-1588 -1589 -1590 0
1588 -1589 1590 0
1588 1589 -1590 0
-1589 1584 1586 0
-1589 1585 1586 0
-1589 1584 1585 0
1589 -1584 -1585 0
1589 -1585 -1586 0
1589 -1584 -1586 0
-1590 1546 1591 0
-1590 -1546 -1591 0
1590 -1546 1591 0
1590 1546 -1591 0
-1591 -1544 -1545 0
-1591 1544 1545 0
1591 1544 -1545 0
1591 -1544 1545 0
-1592 1593 1595 0
-1592 1594 1595 0
-1592 1593 1594 0
1592 -1593 -1594 0
1592 -1594 -1595 0
1592 -1593 -1595 0
1593 -4960 -4985 0
-1593 4960 0
-1593 4985 0
1594 -4983 -4999 0
-1594 4983 0
-1594 4999 0
1595 -4992 -5000 0
-1595 4992 0
-1595 5000 0
-1596 1597 1598 0
-1596 -1597 -1598 0
1596 -1597 1598 0
1596 1597 -1598 0
-1597 -1553 -1555 0
-1597 1553 1555 0
1597 1553 -1555 0
1597 -1553 1555 0
-1598 1589 1590 0
-1598 1590 1592 0
-1598 1589 1592 0
1598 -1589 -1592 0
1598 -1590 -1592 0
1598 -1589 -1590 0
1599 -1597 -1598 0
-1599 1597 0
-1599 1598 0
1600 -1601 -1602 0
-1600 1601 0
-1600 1602 0
-1601 -1508 -1509 0
-1601 1508 1509 0
1601 1508 -1509 0
1601 -1508 1509 0
-1602 -1558 -1559 0
-1602 1558 1559 0
1602 1558 -1559 0
1602 -1558 1559 0
-1603 1604 1690 0
-1603 1690 1759 0
-1603 1690 1764 0
1603 -1690 0
1603 -1604 -1759 -1764 0
1604 -1605 -1650 0
-1604 1605 0
-1604 1650 0
-1605 -1606 -1607 0
-1605 1606 1607 0
1605 1606 -1607 0
1605 -1606 1607 0
-1606 -1560 -1561 0
-1606 1560 1561 0
1606 1560 -1561 0
1606 -1560 1561 0
1607 -1608 -1609 0
-1607 1608 0
-1607 1609 0
-1608 -1562 -1563 0
-1608 1562 1563 0
1608 1562 -1563 0
1608 -1562 1563 0
1609 -1610 -1611 0
-1609 1610 0
-1609 1611 0
-1610 1564 1566 0
-1610 -1564 -1566 0
1610 -1564 1566 0
1610 1564 -1566 0
1611 -1612 -1614 0
-1611 1612 0
-1611 1614 0
-1612 1599 1613 0
-1612 -1599 -1613 0
1612 -1599 1613 0
1612 1599 -1613 0
-1613 1567 1569 0
-1613 -1567 -1569 0
1613 -1567 1569 0
1613 1567 -1569 0
-1614 1615 1617 0
-1614 1617 1649 0
-1614 1615 1649 0
1614 -1617 -1649 0
1614 -1615 -1617 0
1614 -1615 -1649 0
-1615 1596 1616 0
-1615 -1596 -1616 0
1615 -1596 1616 0
1615 1596 -1616 0
-1616 1570 1572 0
-1616 -1570 -1572 0
1616 -1570 1572 0
1616 1570 -1572 0
-1617 1618 1620 0
-1617 1620 1644 0
-1617 1618 1644 0
1617 -1618 -1644 0
1617 -1620 -1644 0
1617 -1618 -1620 0
-1618 1587 1619 0
-1618 -1587 -1619 0
1618 -1587 1619 0
1618 1587 -1619 0
-1619 1573 1575 0
-1619 -1573 -1575 0
1619 -1573 1575 0
1619 1573 -1575 0
-1620 1621 1623 0
-1620 1623 1635 0
-1620 1621 1635 0
1620 -1621 -1635 0
1620 -1623 -1635 0
1620 -1621 -1623 0
-1621 1582 1622 0
-1621 -1582 -1622 0
1621 -1582 1622 0
1621 1582 -1622 0
-1622 1576 1578 0
-1622 -1576 -1578 0
1622 -1576 1578 0
1622 1576 -1578 0
-1623 1624 1626 0
-1623 1626 1630 0
-1623 1624 1630 0
1623 -1624 -1630 0
1623 -1626 -1630 0
1623 -1624 -1626 0
-1624 1581 1625 0
-1624 -1581 -1625 0
1624 -1581 1625 0
1624 1581 -1625 0
-1625 -1579 -1580 0
-1625 1579 1580 0
1625 1579 -1580 0
1625 -1579 1580 0
-1626 1627 1629 0
-1626 1628 1629 0
-1626 1627 1628 0
1626 -1627 -1628 0
1626 -1628 -1629 0
1626 -1627 -1629 0
1627 -4945 -4946 0
-1627 4945 0
-1627 4946 0
1628 -4949 -4986 0
-1628 4949 0
-1628 4986 0
1629 -4944 -4953 0
-1629 4944 0
-1629 4953 0
-1630 -1631 -1634 0
-1630 1631 1634 0
1630 1631 -1634 0
1630 -1631 1634 0
-1631 -1632 -1633 0
-1631 1632 1633 0
1631 1632 -1633 0
1631 -1632 1633 0
1632 -4947 -4953 0
-1632 4947 0
-1632 4953 0
1633 -4956 -4998 0
-1633 4956 0
-1633 4998 0
1634 -4960 -4989 0
-1634 4960 0
-1634 4989 0
-1635 1636 1640 0
-1635 -1636 -1640 0
1635 -1636 1640 0
1635 1636 -1640 0
-1636 1637 1638 0
-1636 -1637 -1638 0
1636 -1637 1638 0
1636 1637 -1638 0
-1637 1632 1634 0
-1637 1633 1634 0
-1637 1632 1633 0
1637 -1632 -1633 0
1637 -1633 -1634 0
1637 -1632 -1634 0
-1638 1595 1639 0
-1638 -1595 -1639 0
1638 -1595 1639 0
1638 1595 -1639 0
-1639 -1593 -1594 0
-1639 1593 1594 0
1639 1593 -1594 0
1639 -1593 1594 0
-1640 1641 1643 0
-1640 1642 1643 0
-1640 1641 1642 0
1640 -1641 -1642 0
1640 -1642 -1643 0
1640 -1641 -1643 0
1641 -4985 -4999 0
-1641 4985 0
-1641 4999 0
1642 -4983 -5000 0
-1642 4983 0
-1642 5000 0
1643 -4992 -5001 0
-1643 4992 0
-1643 5001 0
-1644 1645 1648 0
-1644 -1645 -1648 0
1644 -1645 1648 0
1644 1645 -1648 0
-1645 -1646 -1647 0
-1645 1646 1647 0
1645 1646 -1647 0
1645 -1646 1647 0
1646 -5000 -5034 0
-1646 5000 0
-1646 5034 0
1647 -4941 -5001 0
-1647 4941 0
-1647 5001 0
-1648 1637 1638 0
-1648 1638 1640 0
-1648 1637 1640 0
1648 -1637 -1640 0
1648 -1638 -1640 0
1648 -1637 -1638 0
1649 -1645 -1648 0
-1649 1645 0
-1649 1648 0
-1650 -1651 -1652 0
-1650 1651 1652 0
1650 1651 -1652 0
1650 -1651 1652 0
-1651 -1608 -1609 0
-1651 1608 1609 0
1651 1608 -1609 0
1651 -1608 1609 0
1652 -1653 -1654 0
-1652 1653 0
-1652 1654 0
-1653 -1610 -1611 0
-1653 1610 1611 0
1653 1610 -1611 0
1653 -1610 1611 0
1654 -1655 -1656 0
-1654 1655 0
-1654 1656 0
-1655 1612 1614 0
-1655 -1612 -1614 0
1655 -1612 1614 0
1655 1612 -1614 0
1656 -1657 -1659 0
-1656 1657 0
-1656 1659 0
-1657 1649 1658 0
-1657 -1649 -1658 0
1657 -1649 1658 0
1657 1649 -1658 0
-1658 1615 1617 0
-1658 -1615 -1617 0
1658 -1615 1617 0
1658 1615 -1617 0
-1659 1660 1662 0
-1659 1662 1689 0
-1659 1660 1689 0
1659 -1662 -1689 0
1659 -1660 -1662 0
1659 -1660 -1689 0
-1660 1644 1661 0
-1660 -1644 -1661 0
1660 -1644 1661 0
1660 1644 -1661 0
-1661 1618 1620 0
-1661 -1618 -1620 0
1661 -1618 1620 0
1661 1618 -1620 0
-1662 1663 1665 0
-1662 1665 1686 0
-1662 1663 1686 0
1662 -1663 -1686 0
1662 -1665 -1686 0
1662 -1663 -1665 0
-1663 1635 1664 0
-1663 -1635 -1664 0
1663 -1635 1664 0
1663 1635 -1664 0
-1664 1621 1623 0
-1664 -1621 -1623 0
1664 -1621 1623 0
1664 1621 -1623 0
-1665 1666 1668 0
-1665 1668 1680 0
-1665 1666 1680 0
1665 -1666 -1680 0
1665 -1668 -1680 0
1665 -1666 -1668 0
-1666 1630 1667 0
-1666 -1630 -1667 0
1666 -1630 1667 0
1666 1630 -1667 0
-1667 1624 1626 0
-1667 -1624 -1626 0
1667 -1624 1626 0
1667 1624 -1626 0
-1668 1669 1671 0
-1668 1671 1675 0
-1668 1669 1675 0
1668 -1669 -1675 0
1668 -1671 -1675 0
1668 -1669 -1671 0
-1669 1629 1670 0
-1669 -1629 -1670 0
1669 -1629 1670 0
1669 1629 -1670 0
-1670 -1627 -1628 0
-1670 1627 1628 0
1670 1627 -1628 0
1670 -1627 1628 0
-1671 1672 1674 0
-1671 1673 1674 0
-1671 1672 1673 0
1671 -1672 -1673 0
1671 -1673 -1674 0
1671 -1672 -1674 0
1672 -4945 -4986 0
-1672 4945 0
-1672 4986 0
1673 -4949 -4953 0
-1673 4949 0
-1673 4953 0
1674 -4944 -4998 0
-1674 4944 0
-1674 4998 0
-1675 -1676 -1679 0
-1675 1676 1679 0
1675 1676 -1679 0
1675 -1676 1679 0
-1676 -1677 -1678 0
-1676 1677 1678 0
1676 1677 -1678 0
1676 -1677 1678 0
1677 -4947 -4998 0
-1677 4947 0
-1677 4998 0
1678 -4956 -4960 0
-1678 4956 0
-1678 4960 0
1679 -4989 -4999 0
-1679 4989 0
-1679 4999 0
-1680 -1681 -1685 0
-1680 1681 1685 0
1680 1681 -1685 0
1680 -1681 1685 0
-1681 1682 1683 0
-1681 -1682 -1683 0
1681 -1682 1683 0
1681 1682 -1683 0
-1682 1677 1679 0
-1682 1678 1679 0
-1682 1677 1678 0
1682 -1677 -1678 0
1682 -1678 -1679 0
1682 -1677 -1679 0
-1683 1643 1684 0
-1683 -1643 -1684 0
1683 -1643 1684 0
1683 1643 -1684 0
-1684 -1641 -1642 0
-1684 1641 1642 0
1684 1641 -1642 0
1684 -1641 1642 0
1685 -4983 -4985 -5000 -5001 0
-1685 5001 0
-1685 4983 0
-1685 5000 0
-1685 4985 0
-1686 1687 1688 0
-1686 -1687 -1688 0
1686 -1687 1688 0
1686 1687 -1688 0
1687 -5001 -5034 0
-1687 5001 0
-1687 5034 0
-1688 1682 1683 0
-1688 1683 1685 0
-1688 1682 1685 0
1688 -1683 -1685 0
1688 -1682 -1683 0
1688 -1682 -1685 0
1689 -5001 -5034 -1688 0
-1689 5001 0
-1689 5034 0
-1689 1688 0
-1690 1691 1693 0
-1690 1691 1604 0
1690 -1691 0
1690 -1604 -1693 0
-1691 1606 1692 0
-1691 1607 1605 0
-1691 1607 1692 0
-1691 1606 1605 0
1691 -1606 -1607 0
1691 -1605 -1692 0
1692 -1651 -1652 0
-1692 1651 0
-1692 1652 0
-1693 1695 1696 0
-1693 1696 1728 0
-1693 1694 0
-1693 1695 1728 0
1693 -1694 -1695 -1728 0
1693 -1694 -1696 -1728 0
1693 -1694 -1695 -1696 0
-1694 -1653 -1654 0
-1694 1653 1654 0
1694 1653 -1654 0
1694 -1653 1654 0
-1695 -1655 -1656 0
-1695 1655 1656 0
1695 1655 -1656 0
1695 -1655 1656 0
1696 -1697 -1698 0
-1696 1697 0
-1696 1698 0
-1697 1657 1659 0
-1697 -1657 -1659 0
1697 -1657 1659 0
1697 1657 -1659 0
1698 -1699 -1701 0
-1698 1699 0
-1698 1701 0
-1699 1689 1700 0
-1699 -1689 -1700 0
1699 -1689 1700 0
1699 1689 -1700 0
-1700 1660 1662 0
-1700 -1660 -1662 0
1700 -1660 1662 0
1700 1660 -1662 0
1701 -1702 -1704 0
-1701 1702 0
-1701 1704 0
-1702 1686 1703 0
-1702 -1686 -1703 0
1702 -1686 1703 0
1702 1686 -1703 0
-1703 1663 1665 0
-1703 -1663 -1665 0
1703 -1663 1665 0
1703 1663 -1665 0
-1704 1705 1707 0
-1704 1707 1727 0
-1704 1705 1727 0
1704 -1707 -1727 0
1704 -1705 -1707 0
1704 -1705 -1727 0
-1705 1680 1706 0
-1705 -1680 -1706 0
1705 -1680 1706 0
1705 1680 -1706 0
-1706 1666 1668 0
-1706 -1666 -1668 0
1706 -1666 1668 0
1706 1666 -1668 0
-1707 1708 1710 0
-1707 1710 1722 0
-1707 1708 1722 0
1707 -1708 -1722 0
1707 -1710 -1722 0
1707 -1708 -1710 0
-1708 1675 1709 0
-1708 -1675 -1709 0
1708 -1675 1709 0
1708 1675 -1709 0
-1709 1669 1671 0
-1709 -1669 -1671 0
1709 -1669 1671 0
1709 1669 -1671 0
-1710 1711 1713 0
-1710 1713 1717 0
-1710 1711 1717 0
1710 -1711 -1717 0
1710 -1713 -1717 0
1710 -1711 -1713 0
-1711 1674 1712 0
-1711 -1674 -1712 0
1711 -1674 1712 0
1711 1674 -1712 0
-1712 -1672 -1673 0
-1712 1672 1673 0
1712 1672 -1673 0
1712 -1672 1673 0
-1713 1714 1716 0
-1713 1715 1716 0
-1713 1714 1715 0
1713 -1714 -1715 0
1713 -1715 -1716 0
1713 -1714 -1716 0
1714 -4945 -4953 0
-1714 4945 0
-1714 4953 0
1715 -4949 -4998 0
-1715 4949 0
-1715 4998 0
1716 -4944 -4960 0
-1716 4944 0
-1716 4960 0
-1717 -1718 -1721 0
-1717 1718 1721 0
1717 1718 -1721 0
1717 -1718 1721 0
-1718 -1719 -1720 0
-1718 1719 1720 0
1718 1719 -1720 0
1718 -1719 1720 0
1719 -4947 -4960 0
-1719 4947 0
-1719 4960 0
1720 -4956 -4999 0
-1720 4956 0
-1720 4999 0
1721 -4989 -5000 0
-1721 4989 0
-1721 5000 0
-1722 1723 1726 0
-1722 -1723 -1726 0
1722 -1723 1726 0
1722 1723 -1726 0
-1723 -1724 -1725 0
-1723 1724 1725 0
1723 1724 -1725 0
1723 -1724 1725 0
1724 -4985 -5000 0
-1724 4985 0
-1724 5000 0
1725 -4983 -5001 0
-1725 4983 0
-1725 5001 0
-1726 1719 1721 0
-1726 1720 1721 0
-1726 1719 1720 0
1726 -1719 -1720 0
1726 -1720 -1721 0
1726 -1719 -1721 0
1727 -1723 -1726 0
-1727 1723 0
-1727 1726 0
1728 -1729 -1730 0
-1728 1729 0
-1728 1730 0
-1729 -1697 -1698 0
-1729 1697 1698 0
1729 1697 -1698 0
1729 -1697 1698 0
1730 -1731 -1732 0
-1730 1731 0
-1730 1732 0
-1731 -1699 -1701 0
-1731 1699 1701 0
1731 1699 -1701 0
1731 -1699 1701 0
1732 -1733 -1734 0
-1732 1733 0
-1732 1734 0
-1733 1702 1704 0
-1733 -1702 -1704 0
1733 -1702 1704 0
1733 1702 -1704 0
1734 -1735 -1737 0
-1734 1735 0
-1734 1737 0
-1735 1727 1736 0
-1735 -1727 -1736 0
1735 -1727 1736 0
1735 1727 -1736 0
-1736 1705 1707 0
-1736 -1705 -1707 0
1736 -1705 1707 0
1736 1705 -1707 0
-1737 1738 1740 0
-1737 1740 1758 0
-1737 1738 1758 0
1737 -1740 -1758 0
1737 -1738 -1740 0
1737 -1738 -1758 0
-1738 1722 1739 0
-1738 -1722 -1739 0
1738 -1722 1739 0
1738 1722 -1739 0
-1739 1708 1710 0
-1739 -1708 -1710 0
1739 -1708 1710 0
1739 1708 -1710 0
-1740 1741 1743 0
-1740 1743 1755 0
-1740 1741 1755 0
1740 -1741 -1755 0
1740 -1743 -1755 0
1740 -1741 -1743 0
-1741 1717 1742 0
-1741 -1717 -1742 0
1741 -1717 1742 0
1741 1717 -1742 0
-1742 1711 1713 0
-1742 -1711 -1713 0
1742 -1711 1713 0
1742 1711 -1713 0
-1743 1744 1746 0
-1743 1746 1750 0
-1743 1744 1750 0
1743 -1744 -1750 0
1743 -1746 -1750 0
1743 -1744 -1746 0
-1744 1716 1745 0
-1744 -1716 -1745 0
1744 -1716 1745 0
1744 1716 -1745 0
-1745 -1714 -1715 0
-1745 1714 1715 0
1745 1714 -1715 0
1745 -1714 1715 0
-1746 1747 1749 0
-1746 1748 1749 0
-1746 1747 1748 0
1746 -1747 -1748 0
1746 -1748 -1749 0
1746 -1747 -1749 0
1747 -4945 -4998 0
-1747 4945 0
-1747 4998 0
1748 -4949 -4960 0
-1748 4949 0
-1748 4960 0
1749 -4944 -4999 0
-1749 4944 0
-1749 4999 0
-1750 -1751 -1754 0
-1750 1751 1754 0
1750 1751 -1754 0
1750 -1751 1754 0
-1751 -1752 -1753 0
-1751 1752 1753 0
1751 1752 -1753 0
1751 -1752 1753 0
1752 -4947 -4999 0
-1752 4947 0
-1752 4999 0
1753 -4956 -5000 0
-1753 4956 0
-1753 5000 0
1754 -4989 -5001 0
-1754 4989 0
-1754 5001 0
-1755 1756 1757 0
-1755 -1756 -1757 0
1755 -1756 1757 0
1755 1756 -1757 0
1756 -4985 -5001 0
-1756 4985 0
-1756 5001 0
-1757 1752 1754 0
-1757 1753 1754 0
-1757 1752 1753 0
1757 -1752 -1753 0
1757 -1753 -1754 0
1757 -1752 -1754 0
1758 -4985 -5001 -1757 0
-1758 4985 0
-1758 5001 0
-1758 1757 0
1759 -1760 -1762 0
-1759 1760 0
-1759 1762 0
-1760 -1694 -1761 0
-1760 1694 1761 0
1760 1694 -1761 0
1760 -1694 1761 0
1761 -1695 -1696 0
-1761 1695 0
-1761 1696 0
-1762 -1763 -1728 0
-1762 1763 1728 0
1762 1763 -1728 0
1762 -1763 1728 0
-1763 -1695 -1696 0
-1763 1695 1696 0
1763 1695 -1696 0
1763 -1695 1696 0
-1764 1765 1793 0
-1764 1793 1818 0
-1764 1793 1819 0
1764 -1793 0
1764 -1765 -1818 -1819 0
-1765 -1766 -1767 0
-1765 1766 1767 0
1765 1766 -1767 0
1765 -1766 1767 0
-1766 -1729 -1730 0
-1766 1729 1730 0
1766 1729 -1730 0
1766 -1729 1730 0
1767 -1768 -1769 0
-1767 1768 0
-1767 1769 0
-1768 -1731 -1732 0
-1768 1731 1732 0
1768 1731 -1732 0
1768 -1731 1732 0
1769 -1770 -1771 0
-1769 1770 0
-1769 1771 0
-1770 -1733 -1734 0
-1770 1733 1734 0
1770 1733 -1734 0
1770 -1733 1734 0
1771 -1772 -1773 0
-1771 1772 0
-1771 1773 0
-1772 1735 1737 0
-1772 -1735 -1737 0
1772 -1735 1737 0
1772 1735 -1737 0
1773 -1774 -1776 0
-1773 1774 0
-1773 1776 0
-1774 1758 1775 0
-1774 -1758 -1775 0
1774 -1758 1775 0
1774 1758 -1775 0
-1775 1738 1740 0
-1775 -1738 -1740 0
1775 -1738 1740 0
1775 1738 -1740 0
1776 -1777 -1779 0
-1776 1777 0
-1776 1779 0
-1777 1755 1778 0
-1777 -1755 -1778 0
1777 -1755 1778 0
1777 1755 -1778 0
-1778 1741 1743 0
-1778 -1741 -1743 0
1778 -1741 1743 0
1778 1741 -1743 0
-1779 1780 1782 0
-1779 1782 1792 0
-1779 1780 1792 0
1779 -1782 -1792 0
1779 -1780 -1782 0
1779 -1780 -1792 0
-1780 1750 1781 0
-1780 -1750 -1781 0
1780 -1750 1781 0
1780 1750 -1781 0
-1781 1744 1746 0
-1781 -1744 -1746 0
1781 -1744 1746 0
1781 1744 -1746 0
-1782 1783 1785 0
-1782 1785 1789 0
-1782 1783 1789 0
1782 -1783 -1789 0
1782 -1785 -1789 0
1782 -1783 -1785 0
-1783 1749 1784 0
-1783 -1749 -1784 0
1783 -1749 1784 0
1783 1749 -1784 0
-1784 -1747 -1748 0
-1784 1747 1748 0
1784 1747 -1748 0
1784 -1747 1748 0
-1785 1786 1788 0
-1785 1787 1788 0
-1785 1786 1787 0
1785 -1786 -1787 0
1785 -1787 -1788 0
1785 -1786 -1788 0
1786 -4945 -4960 0
-1786 4945 0
-1786 4960 0
1787 -4949 -4999 0
-1787 4949 0
-1787 4999 0
1788 -4944 -5000 0
-1788 4944 0
-1788 5000 0
-1789 -1790 -1791 0
-1789 1790 1791 0
1789 1790 -1791 0
1789 -1790 1791 0
1790 -4947 -5000 0
-1790 4947 0
-1790 5000 0
1791 -4956 -5001 0
-1791 4956 0
-1791 5001 0
1792 -4947 -4956 -5000 -5001 0
-1792 5001 0
-1792 4947 0
-1792 5000 0
-1792 4956 0
-1793 1767 1794 0
-1793 1766 1767 0
-1793 1766 1794 0
1793 -1766 -1767 0
1793 -1767 -1794 0
1793 -1766 -1794 0
1794 -1795 -1796 0
-1794 1795 0
-1794 1796 0
-1795 -1768 -1769 0
-1795 1768 1769 0
1795 1768 -1769 0
1795 -1768 1769 0
1796 -1797 -1798 0
-1796 1797 0
-1796 1798 0
-1797 -1770 -1771 0
-1797 1770 1771 0
1797 1770 -1771 0
1797 -1770 1771 0
1798 -1799 -1800 0
-1798 1799 0
-1798 1800 0
-1799 -1772 -1773 0
-1799 1772 1773 0
1799 1772 -1773 0
1799 -1772 1773 0
1800 -1801 -1802 0
-1800 1801 0
-1800 1802 0
-1801 -1774 -1776 0
-1801 1774 1776 0
1801 1774 -1776 0
1801 -1774 1776 0
1802 -1803 -1804 0
-1802 1803 0
-1802 1804 0
-1803 1777 1779 0
-1803 -1777 -1779 0
1803 -1777 1779 0
1803 1777 -1779 0
1804 -1805 -1807 0
-1804 1805 0
-1804 1807 0
-1805 1792 1806 0
-1805 -1792 -1806 0
1805 -1792 1806 0
1805 1792 -1806 0
-1806 1780 1782 0
-1806 -1780 -1782 0
1806 -1780 1782 0
1806 1780 -1782 0
1807 -1808 -1810 0
-1807 1808 0
-1807 1810 0
-1808 1789 1809 0
-1808 -1789 -1809 0
1808 -1789 1809 0
1808 1789 -1809 0
-1809 1783 1785 0
-1809 -1783 -1785 0
1809 -1783 1785 0
1809 1783 -1785 0
-1810 1811 1813 0
-1810 1813 1817 0
-1810 1811 1817 0
1810 -1813 -1817 0
1810 -1811 -1813 0
1810 -1811 -1817 0
-1811 1788 1812 0
-1811 -1788 -1812 0
1811 -1788 1812 0
1811 1788 -1812 0
-1812 -1786 -1787 0
-1812 1786 1787 0
1812 1786 -1787 0
1812 -1786 1787 0
-1813 1814 1816 0
-1813 1815 1816 0
-1813 1814 1815 0
1813 -1814 -1815 0
1813 -1815 -1816 0
1813 -1814 -1816 0
1814 -4945 -4999 0
-1814 4945 0
-1814 4999 0
1815 -4949 -5000 0
-1815 4949 0
-1815 5000 0
1816 -4944 -5001 0
-1816 4944 0
-1816 5001 0
1817 -4947 -5001 0
-1817 4947 0
-1817 5001 0
-1818 -1795 -1796 0
-1818 1795 1796 0
1818 1795 -1796 0
1818 -1795 1796 0
1819 -1820 -1821 0
-1819 1820 0
-1819 1821 0
-1820 -1797 -1798 0
-1820 1797 1798 0
1820 1797 -1798 0
1820 -1797 1798 0
1821 -1822 -1823 0
-1821 1822 0
-1821 1823 0
-1822 -1799 -1800 0
-1822 1799 1800 0
1822 1799 -1800 0
1822 -1799 1800 0
1823 -1824 -1825 0
-1823 1824 0
-1823 1825 0
-1824 -1801 -1802 0
-1824 1801 1802 0
1824 1801 -1802 0
1824 -1801 1802 0
1825 -1826 -1827 0
-1825 1826 0
-1825 1827 0
-1826 -1803 -1804 0
-1826 1803 1804 0
1826 1803 -1804 0
1826 -1803 1804 0
1827 -1828 -1829 0
-1827 1828 0
-1827 1829 0
-1828 -1805 -1807 0
-1828 1805 1807 0
1828 1805 -1807 0
1828 -1805 1807 0
1829 -1830 -1831 0
-1829 1830 0
-1829 1831 0
-1830 1808 1810 0
-1830 -1808 -1810 0
1830 -1808 1810 0
1830 1808 -1810 0
1831 -1832 -1834 0
-1831 1832 0
-1831 1834 0
-1832 1817 1833 0
-1832 -1817 -1833 0
1832 -1817 1833 0
1832 1817 -1833 0
-1833 1811 1813 0
-1833 -1811 -1813 0
1833 -1811 1813 0
1833 1811 -1813 0
1834 -1835 -1837 0
-1834 1835 0
-1834 1837 0
-1835 1816 1836 0
-1835 -1816 -1836 0
1835 -1816 1836 0
1835 1816 -1836 0
-1836 -1814 -1815 0
-1836 1814 1815 0
1836 1814 -1815 0
1836 -1814 1815 0
1837 -4949 -5001 -1838 0
-1837 4949 0
-1837 5001 0
-1837 1838 0
1838 -4945 -5000 0
-1838 4945 0
-1838 5000 0
-1839 1840 2174 0
-1839 -1840 -2174 0
1839 -1840 2174 0
1839 1840 -2174 0
-1840 -1841 -2109 0
-1840 1841 2109 0
1840 1841 -2109 0
1840 -1841 2109 0
-1841 -1842 -2046 0
-1841 1842 2046 0
1841 1842 -2046 0
1841 -1842 2046 0
-1842 1843 1989 0
-1842 -1843 -1989 0
1842 -1843 1989 0
1842 1843 -1989 0
-1843 1844 1988 0
-1843 -1844 -1988 0
1843 -1844 1988 0
1843 1844 -1988 0
-1844 1845 1940 0
-1844 -1845 -1940 0
1844 -1845 1940 0
1844 1845 -1940 0
-1845 1846 1922 0
-1845 -1846 -1922 0
1845 -1846 1922 0
1845 1846 -1922 0
-1846 1847 1893 0
-1846 -1847 -1893 0
1846 -1847 1893 0
1846 1847 -1893 0
-1847 1848 1856 0
-1847 -1848 -1856 0
1847 -1848 1856 0
1847 1848 -1856 0
-1848 1849 1852 0
-1848 -1849 -1852 0
1848 -1849 1852 0
1848 1849 -1852 0
-1849 -1850 -1851 0
-1849 1850 1851 0
1849 1850 -1851 0
1849 -1850 1851 0
1850 -5004 -5021 0
-1850 5004 0
-1850 5021 0
1851 -4951 -5007 0
-1851 4951 0
-1851 5007 0
-1852 1853 1855 0
-1852 1854 1855 0
-1852 1853 1854 0
1852 -1853 -1854 0
1852 -1854 -1855 0
1852 -1853 -1855 0
1853 -5020 -5021 0
-1853 5020 0
-1853 5021 0
1854 -5004 -5007 0
-1854 5004 0
-1854 5007 0
1855 -4948 -4951 0
-1855 4948 0
-1855 4951 0
-1856 1857 1881 0
-1856 -1857 -1881 0
1856 -1857 1881 0
1856 1857 -1881 0
-1857 1858 1865 0
-1857 -1858 -1865 0
1857 -1858 1865 0
1857 1858 -1865 0
1858 -1859 -1861 0
-1858 1859 0
-1858 1861 0
-1859 1855 1860 0
-1859 -1855 -1860 0
1859 -1855 1860 0
1859 1855 -1860 0
-1860 -1853 -1854 0
-1860 1853 1854 0
1860 1853 -1854 0
1860 -1853 1854 0
-1861 1862 1864 0
-1861 1863 1864 0
-1861 1862 1863 0
1861 -1862 -1863 0
1861 -1863 -1864 0
1861 -1862 -1864 0
1862 -5007 -5020 0
-1862 5007 0
-1862 5020 0
1863 -4948 -5004 0
-1863 4948 0
-1863 5004 0
1864 -4951 -5032 0
-1864 4951 0
-1864 5032 0
-1865 1866 1876 0
-1865 -1866 -1876 0
1865 -1866 1876 0
1865 1866 -1876 0
-1866 1867 1872 0
-1866 -1867 -1872 0
1866 -1867 1872 0
1866 1867 -1872 0
-1867 -1868 -1871 0
-1867 1868 1871 0
1867 1868 -1871 0
1867 -1868 1871 0
-1868 -1869 -1870 0
-1868 1869 1870 0
1868 1869 -1870 0
1868 -1869 1870 0
1869 -4948 -5016 0
-1869 4948 0
-1869 5016 0
1870 -4988 -5032 0
-1870 4988 0
-1870 5032 0
1871 -5022 -5023 0
-1871 5022 0
-1871 5023 0
-1872 1873 1875 0
-1872 1874 1875 0
-1872 1873 1874 0
1872 -1873 -1874 0
1872 -1874 -1875 0
1872 -1873 -1875 0
1873 -5016 -5032 0
-1873 5016 0
-1873 5032 0
1874 -4988 -5022 0
-1874 4988 0
-1874 5022 0
1875 -5023 -5024 0
-1875 5023 0
-1875 5024 0
-1876 -1877 -1880 0
-1876 1877 1880 0
1876 1877 -1880 0
1876 -1877 1880 0
-1877 -1878 -1879 0
-1877 1878 1879 0
1877 1878 -1879 0
1877 -1878 1879 0
1878 -5024 -5025 0
-1878 5024 0
-1878 5025 0
1879 -5011 -5026 0
-1879 5011 0
-1879 5026 0
1880 -5027 -5028 0
-1880 5027 0
-1880 5028 0
-1881 1882 1884 0
-1881 1884 1888 0
-1881 1882 1888 0
1881 -1882 -1888 0
1881 -1884 -1888 0
1881 -1882 -1884 0
-1882 1875 1883 0
-1882 -1875 -1883 0
1882 -1875 1883 0
1882 1875 -1883 0
-1883 -1873 -1874 0
-1883 1873 1874 0
1883 1873 -1874 0
1883 -1873 1874 0
-1884 1885 1887 0
-1884 1886 1887 0
-1884 1885 1886 0
1884 -1885 -1886 0
1884 -1886 -1887 0
1884 -1885 -1887 0
1885 -5016 -5022 0
-1885 5016 0
-1885 5022 0
1886 -4988 -5024 0
-1886 4988 0
-1886 5024 0
1887 -5023 -5026 0
-1887 5023 0
-1887 5026 0
-1888 -1889 -1892 0
-1888 1889 1892 0
1888 1889 -1892 0
1888 -1889 1892 0
-1889 -1890 -1891 0
-1889 1890 1891 0
1889 1890 -1891 0
1889 -1890 1891 0
1890 -5025 -5026 0
-1890 5025 0
-1890 5026 0
1891 -5011 -5027 0
-1891 5011 0
-1891 5027 0
1892 -4968 -5028 0
-1892 4968 0
-1892 5028 0
-1893 1894 1905 0
-1893 1894 1895 0
-1893 1895 1905 0
1893 -1895 -1905 0
1893 -1894 -1905 0
1893 -1894 -1895 0
-1894 1859 1861 0
-1894 -1859 -1861 0
1894 -1859 1861 0
1894 1859 -1861 0
1895 -5019 -5021 -1896 0
-1895 5019 0
-1895 5021 0
-1895 1896 0
-1896 1897 1901 0
-1896 -1897 -1901 0
1896 -1897 1901 0
1896 1897 -1901 0
-1897 1898 1899 0
-1897 -1898 -1899 0
1897 -1898 1899 0
1897 1898 -1899 0
1898 -4954 -5007 -5019 -5021 0
-1898 5021 0
-1898 4954 0
-1898 5019 0
-1898 5007 0
-1899 1864 1900 0
-1899 -1864 -1900 0
1899 -1864 1900 0
1899 1864 -1900 0
-1900 -1862 -1863 0
-1900 1862 1863 0
1900 1862 -1863 0
1900 -1862 1863 0
-1901 1902 1904 0
-1901 1903 1904 0
-1901 1902 1903 0
1901 -1902 -1903 0
1901 -1903 -1904 0
1901 -1902 -1904 0
1902 -4948 -5020 0
-1902 4948 0
-1902 5020 0
1903 -5004 -5032 0
-1903 5004 0
-1903 5032 0
1904 -4951 -5022 0
-1904 4951 0
-1904 5022 0
-1905 1906 1910 0
-1905 -1906 -1910 0
1905 -1906 1910 0
1905 1906 -1910 0
-1906 1907 1908 0
-1906 -1907 -1908 0
1906 -1907 1908 0
1906 1907 -1908 0
-1907 1898 1899 0
-1907 1899 1901 0
-1907 1898 1901 0
1907 -1899 -1901 0
1907 -1898 -1899 0
1907 -1898 -1901 0
-1908 1888 1909 0
-1908 -1888 -1909 0
1908 -1888 1909 0
1908 1888 -1909 0
-1909 1882 1884 0
-1909 -1882 -1884 0
1909 -1882 1884 0
1909 1882 -1884 0
-1910 1911 1913 0
-1910 1913 1917 0
-1910 1911 1917 0
1910 -1911 -1917 0
1910 -1913 -1917 0
1910 -1911 -1913 0
-1911 1887 1912 0
-1911 -1887 -1912 0
1911 -1887 1912 0
1911 1887 -1912 0
-1912 -1885 -1886 0
-1912 1885 1886 0
1912 1885 -1886 0
1912 -1885 1886 0
-1913 1914 1916 0
-1913 1915 1916 0
-1913 1914 1915 0
1913 -1914 -1915 0
1913 -1915 -1916 0
1913 -1914 -1916 0
1914 -5016 -5024 0
-1914 5016 0
-1914 5024 0
1915 -4988 -5026 0
-1915 4988 0
-1915 5026 0
1916 -5023 -5027 0
-1916 5023 0
-1916 5027 0
-1917 -1918 -1921 0
-1917 1918 1921 0
1917 1918 -1921 0
1917 -1918 1921 0
-1918 -1919 -1920 0
-1918 1919 1920 0
1918 1919 -1920 0
1918 -1919 1920 0
1919 -5025 -5027 0
-1919 5025 0
-1919 5027 0
1920 -4968 -5011 0
-1920 4968 0
-1920 5011 0
1921 -5010 -5028 0
-1921 5010 0
-1921 5028 0
-1922 -1923 -1932 0
-1922 1923 1932 0
1922 1923 -1932 0
1922 -1923 1932 0
-1923 1924 1925 0
-1923 -1924 -1925 0
1923 -1924 1925 0
1923 1924 -1925 0
-1924 1907 1908 0
-1924 1908 1910 0
-1924 1907 1910 0
1924 -1907 -1910 0
1924 -1908 -1910 0
1924 -1907 -1908 0
-1925 -1926 -1929 0
-1925 1926 1929 0
1925 1926 -1929 0
1925 -1926 1929 0
-1926 -1927 -1928 0
-1926 1927 1928 0
1926 1927 -1928 0
1926 -1927 1928 0
-1927 1890 1892 0
-1927 1891 1892 0
-1927 1890 1891 0
1927 -1890 -1891 0
1927 -1891 -1892 0
1927 -1890 -1892 0
1928 -4968 -4994 0
-1928 4968 0
-1928 4994 0
1929 -1930 -1931 0
-1929 1930 0
-1929 1931 0
1930 -4994 -5010 0
-1930 4994 0
-1930 5010 0
-1931 1919 1921 0
-1931 1920 1921 0
-1931 1919 1920 0
1931 -1919 -1920 0
1931 -1920 -1921 0
1931 -1919 -1921 0
1932 -1933 -1934 0
-1932 1933 0
-1932 1934 0
-1933 1930 1931 0
-1933 -1930 -1931 0
1933 -1930 1931 0
1933 1930 -1931 0
1934 -1935 -1936 0
-1934 1935 0
-1934 1936 0
1935 -4994 -5029 0
-1935 4994 0
-1935 5029 0
-1936 1937 1939 0
-1936 1938 1939 0
-1936 1937 1938 0
1936 -1937 -1938 0
1936 -1938 -1939 0
1936 -1937 -1939 0
1937 -4968 -5025 0
-1937 4968 0
-1937 5025 0
1938 -5010 -5011 0
-1938 5010 0
-1938 5011 0
1939 -5028 -5029 0
-1939 5028 0
-1939 5029 0
-1940 1941 1943 0
-1940 1943 1976 0
-1940 1941 1976 0
1940 -1941 -1976 0
1940 -1943 -1976 0
1940 -1941 -1943 0
-1941 1905 1942 0
-1941 -1905 -1942 0
1941 -1905 1942 0
1941 1905 -1942 0
-1942 -1894 -1895 0
-1942 1894 1895 0
1942 1894 -1895 0
1942 -1894 1895 0
-1943 1944 1962 0
-1943 1944 1946 0
-1943 1946 1962 0
1943 -1946 -1962 0
1943 -1944 -1962 0
1943 -1944 -1946 0
-1944 1945 1896 0
-1944 -1945 -1896 0
1944 -1945 1896 0
1944 1945 -1896 0
1945 -5019 -5021 0
-1945 5019 0
-1945 5021 0
1946 -1947 -1950 0
-1946 1947 0
-1946 1950 0
-1947 -1948 -1949 0
-1947 1948 1949 0
1947 1948 -1949 0
1947 -1948 1949 0
1948 -4954 -5021 0
-1948 4954 0
-1948 5021 0
1949 -5007 -5019 0
-1949 5007 0
-1949 5019 0
-1950 1951 1958 0
-1950 -1951 -1958 0
1950 -1951 1958 0
1950 1951 -1958 0
-1951 1952 1956 0
-1951 -1952 -1956 0
1951 -1952 1956 0
1951 1952 -1956 0
-1952 1953 1955 0
-1952 1954 1955 0
-1952 1953 1954 0
1952 -1953 -1954 0
1952 -1954 -1955 0
1952 -1953 -1955 0
1953 -5014 -5021 0
-1953 5014 0
-1953 5021 0
1954 -4954 -5007 0
-1954 4954 0
-1954 5007 0
1955 -4948 -5019 0
-1955 4948 0
-1955 5019 0
-1956 1904 1957 0
-1956 -1904 -1957 0
1956 -1904 1957 0
1956 1904 -1957 0
-1957 -1902 -1903 0
-1957 1902 1903 0
1957 1902 -1903 0
1957 -1902 1903 0
-1958 1959 1961 0
-1958 1960 1961 0
-1958 1959 1960 0
1958 -1959 -1960 0
1958 -1960 -1961 0
1958 -1959 -1961 0
1959 -5020 -5032 0
-1959 5020 0
-1959 5032 0
1960 -5004 -5022 0
-1960 5004 0
-1960 5022 0
1961 -4951 -5024 0
-1961 4951 0
-1961 5024 0
-1962 1963 1967 0
-1962 -1963 -1967 0
1962 -1963 1967 0
1962 1963 -1967 0
-1963 1964 1965 0
-1963 -1964 -1965 0
1963 -1964 1965 0
1963 1964 -1965 0
-1964 1952 1956 0
-1964 1956 1958 0
-1964 1952 1958 0
1964 -1952 -1958 0
1964 -1956 -1958 0
1964 -1952 -1956 0
-1965 1917 1966 0
-1965 -1917 -1966 0
1965 -1917 1966 0
1965 1917 -1966 0
-1966 1911 1913 0
-1966 -1911 -1913 0
1966 -1911 1913 0
1966 1911 -1913 0
-1967 1968 1970 0
-1967 1970 1974 0
-1967 1968 1974 0
1967 -1968 -1974 0
1967 -1970 -1974 0
1967 -1968 -1970 0
-1968 1916 1969 0
-1968 -1916 -1969 0
1968 -1916 1969 0
1968 1916 -1969 0
-1969 -1914 -1915 0
-1969 1914 1915 0
1969 1914 -1915 0
1969 -1914 1915 0
-1970 1971 1973 0
-1970 1972 1973 0
-1970 1971 1972 0
1970 -1971 -1972 0
1970 -1972 -1973 0
1970 -1971 -1973 0
1971 -5016 -5026 0
-1971 5016 0
-1971 5026 0
1972 -4988 -5027 0
-1972 4988 0
-1972 5027 0
1973 -4968 -5023 0
-1973 4968 0
-1973 5023 0
-1974 1939 1975 0
-1974 -1939 -1975 0
1974 -1939 1975 0
1974 1939 -1975 0
-1975 -1937 -1938 0
-1975 1937 1938 0
1975 1937 -1938 0
1975 -1937 1938 0
-1976 -1977 -1980 0
-1976 1977 1980 0
1976 1977 -1980 0
1976 -1977 1980 0
-1977 1978 1979 0
-1977 -1978 -1979 0
1977 -1978 1979 0
1977 1978 -1979 0
-1978 -1933 -1934 0
-1978 1933 1934 0
1978 1933 -1934 0
1978 -1933 1934 0
-1979 1964 1965 0
-1979 1965 1967 0
-1979 1964 1967 0
1979 -1964 -1967 0
1979 -1965 -1967 0
1979 -1964 -1965 0
1980 -1981 -1982 0
-1980 1981 0
-1980 1982 0
-1981 1935 1936 0
-1981 -1935 -1936 0
1981 -1935 1936 0
1981 1935 -1936 0
1982 -1983 -1984 0
-1982 1983 0
-1982 1984 0
1983 -4994 -5030 0
-1983 4994 0
-1983 5030 0
-1984 1985 1987 0
-1984 1986 1987 0
-1984 1985 1986 0
1984 -1985 -1986 0
1984 -1986 -1987 0
1984 -1985 -1987 0
1985 -5010 -5025 0
-1985 5010 0
-1985 5025 0
1986 -5011 -5029 0
-1986 5011 0
-1986 5029 0
1987 -5028 -5030 0
-1987 5028 0
-1987 5030 0
-1988 1978 1979 0
-1988 1979 1980 0
-1988 1978 1980 0
1988 -1979 -1980 0
1988 -1978 -1979 0
1988 -1978 -1980 0
-1989 1990 1992 0
-1989 1992 2045 0
-1989 1990 2045 0
1989 -1990 -2045 0
1989 -1992 -2045 0
1989 -1990 -1992 0
-1990 1976 1991 0
-1990 -1976 -1991 0
1990 -1976 1991 0
1990 1976 -1991 0
-1991 1941 1943 0
-1991 -1941 -1943 0
1991 -1941 1943 0
1991 1941 -1943 0
-1992 1993 1995 0
-1992 1995 2033 0
-1992 1993 2033 0
1992 -1993 -2033 0
1992 -1995 -2033 0
1992 -1993 -1995 0
-1993 1962 1994 0
-1993 -1962 -1994 0
1993 -1962 1994 0
1993 1962 -1994 0
-1994 -1944 -1946 0
-1994 1944 1946 0
1994 1944 -1946 0
1994 -1944 1946 0
-1995 1996 1997 0
-1995 1997 2019 0
-1995 1996 2019 0
1995 -1996 -2019 0
1995 -1997 -2019 0
1995 -1996 -1997 0
-1996 1947 1950 0
-1996 -1947 -1950 0
1996 -1947 1950 0
1996 1947 -1950 0
-1997 1998 2000 0
-1997 2000 2010 0
-1997 1998 2010 0
1997 -1998 -2010 0
1997 -2000 -2010 0
1997 -1998 -2000 0
-1998 -1999 -1955 0
-1998 1999 1955 0
1998 1999 -1955 0
1998 -1999 1955 0
-1999 -1953 -1954 0
-1999 1953 1954 0
1999 1953 -1954 0
1999 -1953 1954 0
-2000 2001 2008 0
-2000 2002 2003 0
-2000 2002 2008 0
-2000 2001 2003 0
2000 -2001 -2002 0
2000 -2003 -2008 0
2001 -5018 -5021 0
-2001 5018 0
-2001 5021 0
2002 -4958 -5007 -5018 -5021 0
-2002 5021 0
-2002 4958 0
-2002 5018 0
-2002 5007 0
-2003 -2004 -2007 0
-2003 2004 2007 0
2003 2004 -2007 0
2003 -2004 2007 0
-2004 -2005 -2006 0
-2004 2005 2006 0
2004 2005 -2006 0
2004 -2005 2006 0
2005 -5007 -5014 0
-2005 5007 0
-2005 5014 0
2006 -4948 -4954 0
-2006 4948 0
-2006 4954 0
2007 -5019 -5032 0
-2007 5019 0
-2007 5032 0
-2008 2009 0
2008 -2009 0
2009 4958 -5018 -5021 0
2009 5007 -5018 -5021 0
-2009 5021 0
-2009 5018 0
-2009 -4958 -5007 0
-2010 2011 2015 0
-2010 -2011 -2015 0
2010 -2011 2015 0
2010 2011 -2015 0
-2011 2012 2013 0
-2011 -2012 -2013 0
2011 -2012 2013 0
2011 2012 -2013 0
-2012 2005 2007 0
-2012 2006 2007 0
-2012 2005 2006 0
2012 -2005 -2006 0
2012 -2006 -2007 0
2012 -2005 -2007 0
-2013 1961 2014 0
-2013 -1961 -2014 0
2013 -1961 2014 0
2013 1961 -2014 0
-2014 -1959 -1960 0
-2014 1959 1960 0
2014 1959 -1960 0
2014 -1959 1960 0
-2015 2016 2018 0
-2015 2017 2018 0
-2015 2016 2017 0
2015 -2016 -2017 0
2015 -2017 -2018 0
2015 -2016 -2018 0
2016 -5020 -5022 0
-2016 5020 0
-2016 5022 0
2017 -5004 -5024 0
-2017 5004 0
-2017 5024 0
2018 -4951 -5026 0
-2018 4951 0
-2018 5026 0
-2019 2020 2024 0
-2019 -2020 -2024 0
2019 -2020 2024 0
2019 2020 -2024 0
-2020 2021 2022 0
-2020 -2021 -2022 0
2020 -2021 2022 0
2020 2021 -2022 0
-2021 2012 2013 0
-2021 2013 2015 0
-2021 2012 2015 0
2021 -2012 -2015 0
2021 -2013 -2015 0
2021 -2012 -2013 0
-2022 1974 2023 0
-2022 -1974 -2023 0
2022 -1974 2023 0
2022 1974 -2023 0
-2023 1968 1970 0
-2023 -1968 -1970 0
2023 -1968 1970 0
2023 1968 -1970 0
-2024 2025 2027 0
-2024 2027 2031 0
-2024 2025 2031 0
2024 -2025 -2031 0
2024 -2027 -2031 0
2024 -2025 -2027 0
-2025 1973 2026 0
-2025 -1973 -2026 0
2025 -1973 2026 0
2025 1973 -2026 0
-2026 -1971 -1972 0
-2026 1971 1972 0
2026 1971 -1972 0
2026 -1971 1972 0
-2027 2028 2030 0
-2027 2029 2030 0
-2027 2028 2029 0
2027 -2028 -2029 0
2027 -2029 -2030 0
2027 -2028 -2030 0
2028 -5016 -5027 0
-2028 5016 0
-2028 5027 0
2029 -4968 -4988 0
-2029 4968 0
-2029 4988 0
2030 -5010 -5023 0
-2030 5010 0
-2030 5023 0
-2031 1987 2032 0
-2031 -1987 -2032 0
2031 -1987 2032 0
2031 1987 -2032 0
-2032 -1985 -1986 0
-2032 1985 1986 0
2032 1985 -1986 0
2032 -1985 1986 0
-2033 -2034 -2037 0
-2033 2034 2037 0
2033 2034 -2037 0
2033 -2034 2037 0
-2034 2035 2036 0
-2034 -2035 -2036 0
2034 -2035 2036 0
2034 2035 -2036 0
-2035 -1981 -1982 0
-2035 1981 1982 0
2035 1981 -1982 0
2035 -1981 1982 0
-2036 2021 2022 0
-2036 2022 2024 0
-2036 2021 2024 0
2036 -2021 -2024 0
2036 -2022 -2024 0
2036 -2021 -2022 0
2037 -2038 -2039 0
-2037 2038 0
-2037 2039 0
-2038 1983 1984 0
-2038 -1983 -1984 0
2038 -1983 1984 0
2038 1983 -1984 0
2039 -2040 -2041 0
-2039 2040 0
-2039 2041 0
2040 -4994 -5031 0
-2040 4994 0
-2040 5031 0
-2041 2042 2044 0
-2041 2043 2044 0
-2041 2042 2043 0
2041 -2042 -2043 0
2041 -2043 -2044 0
2041 -2042 -2044 0
2042 -5025 -5029 0
-2042 5025 0
-2042 5029 0
2043 -5011 -5030 0
-2043 5011 0
-2043 5030 0
2044 -5028 -5031 0
-2044 5028 0
-2044 5031 0
-2045 2035 2036 0
-2045 2036 2037 0
-2045 2035 2037 0
2045 -2036 -2037 0
2045 -2035 -2036 0
2045 -2035 -2037 0
2046 -2047 -2049 0
-2046 2047 0
-2046 2049 0
-2047 2045 2048 0
-2047 -2045 -2048 0
2047 -2045 2048 0
2047 2045 -2048 0
-2048 1990 1992 0
-2048 -1990 -1992 0
2048 -1990 1992 0
2048 1990 -1992 0
-2049 2050 2052 0
-2049 2052 2108 0
-2049 2050 2108 0
2049 -2050 -2108 0
2049 -2052 -2108 0
2049 -2050 -2052 0
-2050 2033 2051 0
-2050 -2033 -2051 0
2050 -2033 2051 0
2050 2033 -2051 0
-2051 1993 1995 0
-2051 -1993 -1995 0
2051 -1993 1995 0
2051 1993 -1995 0
-2052 2053 2055 0
-2052 2055 2096 0
-2052 2053 2096 0
2052 -2053 -2096 0
2052 -2055 -2096 0
2052 -2053 -2055 0
-2053 2019 2054 0
-2053 -2019 -2054 0
2053 -2019 2054 0
2053 2019 -2054 0
-2054 1996 1997 0
-2054 -1996 -1997 0
2054 -1996 1997 0
2054 1996 -1997 0
-2055 2056 2058 0
-2055 2058 2082 0
-2055 2056 2082 0
2055 -2056 -2082 0
2055 -2058 -2082 0
2055 -2056 -2058 0
-2056 2010 2057 0
-2056 -2010 -2057 0
2056 -2010 2057 0
2056 2010 -2057 0
-2057 1998 2000 0
-2057 -1998 -2000 0
2057 -1998 2000 0
2057 1998 -2000 0
-2058 2059 2060 0
-2058 2060 2073 0
-2058 2059 2073 0
2058 -2059 -2073 0
2058 -2060 -2073 0
2058 -2059 -2060 0
-2059 2003 2008 0
-2059 -2003 -2008 0
2059 -2003 2008 0
2059 2003 -2008 0
-2060 2061 2064 0
-2060 2064 2068 0
-2060 2061 2068 0
2060 -2061 -2068 0
2060 -2064 -2068 0
2060 -2061 -2064 0
-2061 -2062 -2063 0
-2061 2062 2063 0
2061 2062 -2063 0
2061 -2062 2063 0
2062 -4958 -5021 0
-2062 4958 0
-2062 5021 0
2063 -5007 -5018 0
-2063 5007 0
-2063 5018 0
-2064 2065 2067 0
-2064 2066 2067 0
-2064 2065 2066 0
2064 -2065 -2066 0
2064 -2066 -2067 0
2064 -2065 -2067 0
2065 -5008 -5021 0
-2065 5008 0
-2065 5021 0
2066 -4958 -5007 0
-2066 4958 0
-2066 5007 0
2067 -4948 -5018 0
-2067 4948 0
-2067 5018 0
-2068 -2069 -2072 0
-2068 2069 2072 0
2068 2069 -2072 0
2068 -2069 2072 0
-2069 -2070 -2071 0
-2069 2070 2071 0
2069 2070 -2071 0
2069 -2070 2071 0
2070 -4948 -5014 0
-2070 4948 0
-2070 5014 0
2071 -4954 -5032 0
-2071 4954 0
-2071 5032 0
2072 -5019 -5022 0
-2072 5019 0
-2072 5022 0
-2073 2074 2078 0
-2073 -2074 -2078 0
2073 -2074 2078 0
2073 2074 -2078 0
-2074 2075 2076 0
-2074 -2075 -2076 0
2074 -2075 2076 0
2074 2075 -2076 0
-2075 2070 2072 0
-2075 2071 2072 0
-2075 2070 2071 0
2075 -2070 -2071 0
2075 -2071 -2072 0
2075 -2070 -2072 0
-2076 2018 2077 0
-2076 -2018 -2077 0
2076 -2018 2077 0
2076 2018 -2077 0
-2077 -2016 -2017 0
-2077 2016 2017 0
2077 2016 -2017 0
2077 -2016 2017 0
-2078 2079 2081 0
-2078 2080 2081 0
-2078 2079 2080 0
2078 -2079 -2080 0
2078 -2080 -2081 0
2078 -2079 -2081 0
2079 -5020 -5024 0
-2079 5020 0
-2079 5024 0
2080 -5004 -5026 0
-2080 5004 0
-2080 5026 0
2081 -4951 -5027 0
-2081 4951 0
-2081 5027 0
-2082 2083 2087 0
-2082 -2083 -2087 0
2082 -2083 2087 0
2082 2083 -2087 0
-2083 2084 2085 0
-2083 -2084 -2085 0
2083 -2084 2085 0
2083 2084 -2085 0
-2084 2075 2076 0
-2084 2076 2078 0
-2084 2075 2078 0
2084 -2075 -2078 0
2084 -2076 -2078 0
2084 -2075 -2076 0
-2085 2031 2086 0
-2085 -2031 -2086 0
2085 -2031 2086 0
2085 2031 -2086 0
-2086 2025 2027 0
-2086 -2025 -2027 0
2086 -2025 2027 0
2086 2025 -2027 0
-2087 2088 2090 0
-2087 2090 2094 0
-2087 2088 2094 0
2087 -2088 -2094 0
2087 -2090 -2094 0
2087 -2088 -2090 0
-2088 2030 2089 0
-2088 -2030 -2089 0
2088 -2030 2089 0
2088 2030 -2089 0
-2089 -2028 -2029 0
-2089 2028 2029 0
2089 2028 -2029 0
2089 -2028 2029 0
-2090 2091 2093 0
-2090 2092 2093 0
-2090 2091 2092 0
2090 -2091 -2092 0
2090 -2092 -2093 0
2090 -2091 -2093 0
2091 -4968 -5016 0
-2091 4968 0
-2091 5016 0
2092 -4988 -5010 0
-2092 4988 0
-2092 5010 0
2093 -5023 -5029 0
-2093 5023 0
-2093 5029 0
-2094 2044 2095 0
-2094 -2044 -2095 0
2094 -2044 2095 0
2094 2044 -2095 0
-2095 -2042 -2043 0
-2095 2042 2043 0
2095 2042 -2043 0
2095 -2042 2043 0
-2096 -2097 -2100 0
-2096 2097 2100 0
2096 2097 -2100 0
2096 -2097 2100 0
-2097 2098 2099 0
-2097 -2098 -2099 0
2097 -2098 2099 0
2097 2098 -2099 0
-2098 -2038 -2039 0
-2098 2038 2039 0
2098 2038 -2039 0
2098 -2038 2039 0
-2099 2084 2085 0
-2099 2085 2087 0
-2099 2084 2087 0
2099 -2084 -2087 0
2099 -2085 -2087 0
2099 -2084 -2085 0
2100 -2101 -2102 0
-2100 2101 0
-2100 2102 0
-2101 2040 2041 0
-2101 -2040 -2041 0
2101 -2040 2041 0
2101 2040 -2041 0
2102 -2103 -2104 0
-2102 2103 0
-2102 2104 0
2103 -4994 -5017 0
-2103 4994 0
-2103 5017 0
-2104 2105 2107 0
-2104 2106 2107 0
-2104 2105 2106 0
2104 -2105 -2106 0
2104 -2106 -2107 0
2104 -2105 -2107 0
2105 -5025 -5030 0
-2105 5025 0
-2105 5030 0
2106 -5011 -5031 0
-2106 5011 0
-2106 5031 0
2107 -5017 -5028 0
-2107 5017 0
-2107 5028 0
-2108 2098 2099 0
-2108 2099 2100 0
-2108 2098 2100 0
2108 -2099 -2100 0
2108 -2098 -2099 0
2108 -2098 -2100 0
2109 -2110 -2111 0
-2109 2110 0
-2109 2111 0
-2110 2047 2049 0
-2110 -2047 -2049 0
2110 -2047 2049 0
2110 2047 -2049 0
2111 -2112 -2114 0
-2111 2112 0
-2111 2114 0
-2112 2108 2113 0
-2112 -2108 -2113 0
2112 -2108 2113 0
2112 2108 -2113 0
-2113 2050 2052 0
-2113 -2050 -2052 0
2113 -2050 2052 0
2113 2050 -2052 0
-2114 2115 2117 0
-2114 2117 2173 0
-2114 2115 2173 0
2114 -2115 -2173 0
2114 -2117 -2173 0
2114 -2115 -2117 0
-2115 2096 2116 0
-2115 -2096 -2116 0
2115 -2096 2116 0
2115 2096 -2116 0
-2116 2053 2055 0
-2116 -2053 -2055 0
2116 -2053 2055 0
2116 2053 -2055 0
-2117 2118 2120 0
-2117 2120 2161 0
-2117 2118 2161 0
2117 -2118 -2161 0
2117 -2120 -2161 0
2117 -2118 -2120 0
-2118 2082 2119 0
-2118 -2082 -2119 0
2118 -2082 2119 0
2118 2082 -2119 0
-2119 2056 2058 0
-2119 -2056 -2058 0
2119 -2056 2058 0
2119 2056 -2058 0
-2120 2121 2123 0
-2120 2123 2147 0
-2120 2121 2147 0
2120 -2121 -2147 0
2120 -2123 -2147 0
2120 -2121 -2123 0
-2121 2073 2122 0
-2121 -2073 -2122 0
2121 -2073 2122 0
2121 2073 -2122 0
-2122 2059 2060 0
-2122 -2059 -2060 0
2122 -2059 2060 0
2122 2059 -2060 0
-2123 2124 2126 0
-2123 2126 2138 0
-2123 2124 2138 0
2123 -2124 -2138 0
2123 -2126 -2138 0
2123 -2124 -2126 0
-2124 2068 2125 0
-2124 -2068 -2125 0
2124 -2068 2125 0
2124 2068 -2125 0
-2125 2061 2064 0
-2125 -2061 -2064 0
2125 -2061 2064 0
2125 2061 -2064 0
-2126 2127 2129 0
-2126 2129 2133 0
-2126 2127 2133 0
2126 -2127 -2133 0
2126 -2129 -2133 0
2126 -2127 -2129 0
-2127 2067 2128 0
-2127 -2067 -2128 0
2127 -2067 2128 0
2127 2067 -2128 0
-2128 -2065 -2066 0
-2128 2065 2066 0
2128 2065 -2066 0
2128 -2065 2066 0
-2129 2130 2132 0
-2129 2131 2132 0
-2129 2130 2131 0
2129 -2130 -2131 0
2129 -2131 -2132 0
2129 -2130 -2132 0
2130 -5007 -5008 0
-2130 5007 0
-2130 5008 0
2131 -4948 -4958 0
-2131 4948 0
-2131 4958 0
2132 -5018 -5032 0
-2132 5018 0
-2132 5032 0
-2133 -2134 -2137 0
-2133 2134 2137 0
2133 2134 -2137 0
2133 -2134 2137 0
-2134 -2135 -2136 0
-2134 2135 2136 0
2134 2135 -2136 0
2134 -2135 2136 0
2135 -5014 -5032 0
-2135 5014 0
-2135 5032 0
2136 -4954 -5022 0
-2136 4954 0
-2136 5022 0
2137 -5019 -5024 0
-2137 5019 0
-2137 5024 0
-2138 2139 2143 0
-2138 -2139 -2143 0
2138 -2139 2143 0
2138 2139 -2143 0
-2139 2140 2141 0
-2139 -2140 -2141 0
2139 -2140 2141 0
2139 2140 -2141 0
-2140 2135 2137 0
-2140 2136 2137 0
-2140 2135 2136 0
2140 -2135 -2136 0
2140 -2136 -2137 0
2140 -2135 -2137 0
-2141 2081 2142 0
-2141 -2081 -2142 0
2141 -2081 2142 0
2141 2081 -2142 0
-2142 -2079 -2080 0
-2142 2079 2080 0
2142 2079 -2080 0
2142 -2079 2080 0
-2143 2144 2146 0
-2143 2145 2146 0
-2143 2144 2145 0
2143 -2144 -2145 0
2143 -2145 -2146 0
2143 -2144 -2146 0
2144 -5020 -5026 0
-2144 5020 0
-2144 5026 0
2145 -5004 -5027 0
-2145 5004 0
-2145 5027 0
2146 -4951 -4968 0
-2146 4951 0
-2146 4968 0
-2147 2148 2152 0
-2147 -2148 -2152 0
2147 -2148 2152 0
2147 2148 -2152 0
-2148 2149 2150 0
-2148 -2149 -2150 0
2148 -2149 2150 0
2148 2149 -2150 0
-2149 2140 2141 0
-2149 2141 2143 0
-2149 2140 2143 0
2149 -2140 -2143 0
2149 -2141 -2143 0
2149 -2140 -2141 0
-2150 2094 2151 0
-2150 -2094 -2151 0
2150 -2094 2151 0
2150 2094 -2151 0
-2151 2088 2090 0
-2151 -2088 -2090 0
2151 -2088 2090 0
2151 2088 -2090 0
-2152 2153 2155 0
-2152 2155 2159 0
-2152 2153 2159 0
2152 -2153 -2159 0
2152 -2155 -2159 0
2152 -2153 -2155 0
-2153 2093 2154 0
-2153 -2093 -2154 0
2153 -2093 2154 0
2153 2093 -2154 0
-2154 -2091 -2092 0
-2154 2091 2092 0
2154 2091 -2092 0
2154 -2091 2092 0
-2155 2156 2158 0
-2155 2157 2158 0
-2155 2156 2157 0
2155 -2156 -2157 0
2155 -2157 -2158 0
2155 -2156 -2158 0
2156 -5010 -5016 0
-2156 5010 0
-2156 5016 0
2157 -4988 -5029 0
-2157 4988 0
-2157 5029 0
2158 -5023 -5030 0
-2158 5023 0
-2158 5030 0
-2159 2107 2160 0
-2159 -2107 -2160 0
2159 -2107 2160 0
2159 2107 -2160 0
-2160 -2105 -2106 0
-2160 2105 2106 0
2160 2105 -2106 0
2160 -2105 2106 0
-2161 -2162 -2165 0
-2161 2162 2165 0
2161 2162 -2165 0
2161 -2162 2165 0
-2162 2163 2164 0
-2162 -2163 -2164 0
2162 -2163 2164 0
2162 2163 -2164 0
-2163 -2101 -2102 0
-2163 2101 2102 0
2163 2101 -2102 0
2163 -2101 2102 0
-2164 2149 2150 0
-2164 2150 2152 0
-2164 2149 2152 0
2164 -2149 -2152 0
2164 -2150 -2152 0
2164 -2149 -2150 0
2165 -2166 -2167 0
-2165 2166 0
-2165 2167 0
-2166 2103 2104 0
-2166 -2103 -2104 0
2166 -2103 2104 0
2166 2103 -2104 0
2167 -2168 -2169 0
-2167 2168 0
-2167 2169 0
2168 -4994 -5012 0
-2168 4994 0
-2168 5012 0
-2169 2170 2172 0
-2169 2171 2172 0
-2169 2170 2171 0
2169 -2170 -2171 0
2169 -2171 -2172 0
2169 -2170 -2172 0
2170 -5025 -5031 0
-2170 5025 0
-2170 5031 0
2171 -5011 -5017 0
-2171 5011 0
-2171 5017 0
2172 -5012 -5028 0
-2172 5012 0
-2172 5028 0
-2173 2163 2164 0
-2173 2164 2165 0
-2173 2163 2165 0
2173 -2164 -2165 0
2173 -2163 -2164 0
2173 -2163 -2165 0
-2174 2175 2242 0
-2174 2242 2301 0
-2174 2242 2302 0
2174 -2242 0
2174 -2175 -2301 -2302 0
-2175 -2176 -2177 0
-2175 2176 2177 0
2175 2176 -2177 0
2175 -2176 2177 0
-2176 -2110 -2111 0
-2176 2110 2111 0
2176 2110 -2111 0
2176 -2110 2111 0
2177 -2178 -2179 0
-2177 2178 0
-2177 2179 0
-2178 2112 2114 0
-2178 -2112 -2114 0
2178 -2112 2114 0
2178 2112 -2114 0
2179 -2180 -2182 0
-2179 2180 0
-2179 2182 0
-2180 2173 2181 0
-2180 -2173 -2181 0
2180 -2173 2181 0
2180 2173 -2181 0
-2181 2115 2117 0
-2181 -2115 -2117 0
2181 -2115 2117 0
2181 2115 -2117 0
-2182 2183 2185 0
-2182 2185 2241 0
-2182 2183 2241 0
2182 -2183 -2241 0
2182 -2185 -2241 0
2182 -2183 -2185 0
-2183 2161 2184 0
-2183 -2161 -2184 0
2183 -2161 2184 0
2183 2161 -2184 0
-2184 2118 2120 0
-2184 -2118 -2120 0
2184 -2118 2120 0
2184 2118 -2120 0
-2185 2186 2188 0
-2185 2188 2229 0
-2185 2186 2229 0
2185 -2186 -2229 0
2185 -2188 -2229 0
2185 -2186 -2188 0
-2186 2147 2187 0
-2186 -2147 -2187 0
2186 -2147 2187 0
2186 2147 -2187 0
-2187 2121 2123 0
-2187 -2121 -2123 0
2187 -2121 2123 0
2187 2121 -2123 0
-2188 2189 2191 0
-2188 2191 2215 0
-2188 2189 2215 0
2188 -2189 -2215 0
2188 -2191 -2215 0
2188 -2189 -2191 0
-2189 2138 2190 0
-2189 -2138 -2190 0
2189 -2138 2190 0
2189 2138 -2190 0
-2190 2124 2126 0
-2190 -2124 -2126 0
2190 -2124 2126 0
2190 2124 -2126 0
-2191 2192 2194 0
-2191 2194 2206 0
-2191 2192 2206 0
2191 -2192 -2206 0
2191 -2194 -2206 0
2191 -2192 -2194 0
-2192 2133 2193 0
-2192 -2133 -2193 0
2192 -2133 2193 0
2192 2133 -2193 0
-2193 2127 2129 0
-2193 -2127 -2129 0
2193 -2127 2129 0
2193 2127 -2129 0
-2194 2195 2197 0
-2194 2197 2201 0
-2194 2195 2201 0
2194 -2195 -2201 0
2194 -2197 -2201 0
2194 -2195 -2197 0
-2195 2132 2196 0
-2195 -2132 -2196 0
2195 -2132 2196 0
2195 2132 -2196 0
-2196 -2130 -2131 0
-2196 2130 2131 0
2196 2130 -2131 0
2196 -2130 2131 0
-2197 2198 2200 0
-2197 2199 2200 0
-2197 2198 2199 0
2197 -2198 -2199 0
2197 -2199 -2200 0
2197 -2198 -2200 0
2198 -4948 -5008 0
-2198 4948 0
-2198 5008 0
2199 -4958 -5032 0
-2199 4958 0
-2199 5032 0
2200 -5018 -5022 0
-2200 5018 0
-2200 5022 0
-2201 -2202 -2205 0
-2201 2202 2205 0
2201 2202 -2205 0
2201 -2202 2205 0
-2202 -2203 -2204 0
-2202 2203 2204 0
2202 2203 -2204 0
2202 -2203 2204 0
2203 -5014 -5022 0
-2203 5014 0
-2203 5022 0
2204 -4954 -5024 0
-2204 4954 0
-2204 5024 0
2205 -5019 -5026 0
-2205 5019 0
-2205 5026 0
-2206 2207 2211 0
-2206 -2207 -2211 0
2206 -2207 2211 0
2206 2207 -2211 0
-2207 2208 2209 0
-2207 -2208 -2209 0
2207 -2208 2209 0
2207 2208 -2209 0
-2208 2203 2205 0
-2208 2204 2205 0
-2208 2203 2204 0
2208 -2203 -2204 0
2208 -2204 -2205 0
2208 -2203 -2205 0
-2209 2146 2210 0
-2209 -2146 -2210 0
2209 -2146 2210 0
2209 2146 -2210 0
-2210 -2144 -2145 0
-2210 2144 2145 0
2210 2144 -2145 0
2210 -2144 2145 0
-2211 2212 2214 0
-2211 2213 2214 0
-2211 2212 2213 0
2211 -2212 -2213 0
2211 -2213 -2214 0
2211 -2212 -2214 0
2212 -5020 -5027 0
-2212 5020 0
-2212 5027 0
2213 -4968 -5004 0
-2213 4968 0
-2213 5004 0
2214 -4951 -5010 0
-2214 4951 0
-2214 5010 0
-2215 2216 2220 0
-2215 -2216 -2220 0
2215 -2216 2220 0
2215 2216 -2220 0
-2216 2217 2218 0
-2216 -2217 -2218 0
2216 -2217 2218 0
2216 2217 -2218 0
-2217 2208 2209 0
-2217 2209 2211 0
-2217 2208 2211 0
2217 -2208 -2211 0
2217 -2209 -2211 0
2217 -2208 -2209 0
-2218 2159 2219 0
-2218 -2159 -2219 0
2218 -2159 2219 0
2218 2159 -2219 0
-2219 2153 2155 0
-2219 -2153 -2155 0
2219 -2153 2155 0
2219 2153 -2155 0
-2220 2221 2223 0
-2220 2223 2227 0
-2220 2221 2227 0
2220 -2221 -2227 0
2220 -2223 -2227 0
2220 -2221 -2223 0
-2221 2158 2222 0
-2221 -2158 -2222 0
2221 -2158 2222 0
2221 2158 -2222 0
-2222 -2156 -2157 0
-2222 2156 2157 0
2222 2156 -2157 0
2222 -2156 2157 0
-2223 2224 2226 0
-2223 2225 2226 0
-2223 2224 2225 0
2223 -2224 -2225 0
2223 -2225 -2226 0
2223 -2224 -2226 0
2224 -5016 -5029 0
-2224 5016 0
-2224 5029 0
2225 -4988 -5030 0
-2225 4988 0
-2225 5030 0
2226 -5023 -5031 0
-2226 5023 0
-2226 5031 0
-2227 2172 2228 0
-2227 -2172 -2228 0
2227 -2172 2228 0
2227 2172 -2228 0
-2228 -2170 -2171 0
-2228 2170 2171 0
2228 2170 -2171 0
2228 -2170 2171 0
-2229 -2230 -2233 0
-2229 2230 2233 0
2229 2230 -2233 0
2229 -2230 2233 0
-2230 2231 2232 0
-2230 -2231 -2232 0
2230 -2231 2232 0
2230 2231 -2232 0
-2231 -2166 -2167 0
-2231 2166 2167 0
2231 2166 -2167 0
2231 -2166 2167 0
-2232 2217 2218 0
-2232 2218 2220 0
-2232 2217 2220 0
2232 -2217 -2220 0
2232 -2218 -2220 0
2232 -2217 -2218 0
2233 -2234 -2235 0
-2233 2234 0
-2233 2235 0
-2234 2168 2169 0
-2234 -2168 -2169 0
2234 -2168 2169 0
2234 2168 -2169 0
2235 -2236 -2237 0
-2235 2236 0
-2235 2237 0
2236 -4955 -4994 0
-2236 4955 0
-2236 4994 0
-2237 2238 2240 0
-2237 2239 2240 0
-2237 2238 2239 0
2237 -2238 -2239 0
2237 -2239 -2240 0
2237 -2238 -2240 0
2238 -5017 -5025 0
-2238 5017 0
-2238 5025 0
2239 -5011 -5012 0
-2239 5011 0
-2239 5012 0
2240 -4955 -5028 0
-2240 4955 0
-2240 5028 0
-2241 2231 2232 0
-2241 2232 2233 0
-2241 2231 2233 0
2241 -2232 -2233 0
2241 -2231 -2232 0
2241 -2231 -2233 0
-2242 2177 2243 0
-2242 2176 2177 0
-2242 2176 2243 0
2242 -2176 -2177 0
2242 -2177 -2243 0
2242 -2176 -2243 0
2243 -2244 -2245 0
-2243 2244 0
-2243 2245 0
-2244 -2178 -2179 0
-2244 2178 2179 0
2244 2178 -2179 0
2244 -2178 2179 0
2245 -2246 -2247 0
-2245 2246 0
-2245 2247 0
-2246 2180 2182 0
-2246 -2180 -2182 0
2246 -2180 2182 0
2246 2180 -2182 0
2247 -2248 -2250 0
-2247 2248 0
-2247 2250 0
-2248 2241 2249 0
-2248 -2241 -2249 0
2248 -2241 2249 0
2248 2241 -2249 0
-2249 2183 2185 0
-2249 -2183 -2185 0
2249 -2183 2185 0
2249 2183 -2185 0
-2250 2251 2253 0
-2250 2253 2300 0
-2250 2251 2300 0
2250 -2253 -2300 0
2250 -2251 -2253 0
2250 -2251 -2300 0
-2251 2229 2252 0
-2251 -2229 -2252 0
2251 -2229 2252 0
2251 2229 -2252 0
-2252 2186 2188 0
-2252 -2186 -2188 0
2252 -2186 2188 0
2252 2186 -2188 0
-2253 2254 2256 0
-2253 2256 2297 0
-2253 2254 2297 0
2253 -2254 -2297 0
2253 -2256 -2297 0
2253 -2254 -2256 0
-2254 2215 2255 0
-2254 -2215 -2255 0
2254 -2215 2255 0
2254 2215 -2255 0
-2255 2189 2191 0
-2255 -2189 -2191 0
2255 -2189 2191 0
2255 2189 -2191 0
-2256 2257 2259 0
-2256 2259 2283 0
-2256 2257 2283 0
2256 -2257 -2283 0
2256 -2259 -2283 0
2256 -2257 -2259 0
-2257 2206 2258 0
-2257 -2206 -2258 0
2257 -2206 2258 0
2257 2206 -2258 0
-2258 2192 2194 0
-2258 -2192 -2194 0
2258 -2192 2194 0
2258 2192 -2194 0
-2259 2260 2262 0
-2259 2262 2274 0
-2259 2260 2274 0
2259 -2260 -2274 0
2259 -2262 -2274 0
2259 -2260 -2262 0
-2260 2201 2261 0
-2260 -2201 -2261 0
2260 -2201 2261 0
2260 2201 -2261 0
-2261 2195 2197 0
-2261 -2195 -2197 0
2261 -2195 2197 0
2261 2195 -2197 0
-2262 2263 2265 0
-2262 2265 2269 0
-2262 2263 2269 0
2262 -2263 -2269 0
2262 -2265 -2269 0
2262 -2263 -2265 0
-2263 2200 2264 0
-2263 -2200 -2264 0
2263 -2200 2264 0
2263 2200 -2264 0
-2264 -2198 -2199 0
-2264 2198 2199 0
2264 2198 -2199 0
2264 -2198 2199 0
-2265 2266 2268 0
-2265 2267 2268 0
-2265 2266 2267 0
2265 -2266 -2267 0
2265 -2267 -2268 0
2265 -2266 -2268 0
2266 -5008 -5032 0
-2266 5008 0
-2266 5032 0
2267 -4958 -5022 0
-2267 4958 0
-2267 5022 0
2268 -5018 -5024 0
-2268 5018 0
-2268 5024 0
-2269 -2270 -2273 0
-2269 2270 2273 0
2269 2270 -2273 0
2269 -2270 2273 0
-2270 -2271 -2272 0
-2270 2271 2272 0
2270 2271 -2272 0
2270 -2271 2272 0
2271 -5014 -5024 0
-2271 5014 0
-2271 5024 0
2272 -4954 -5026 0
-2272 4954 0
-2272 5026 0
2273 -5019 -5027 0
-2273 5019 0
-2273 5027 0
-2274 2275 2279 0
-2274 -2275 -2279 0
2274 -2275 2279 0
2274 2275 -2279 0
-2275 2276 2277 0
-2275 -2276 -2277 0
2275 -2276 2277 0
2275 2276 -2277 0
-2276 2271 2273 0
-2276 2272 2273 0
-2276 2271 2272 0
2276 -2271 -2272 0
2276 -2272 -2273 0
2276 -2271 -2273 0
-2277 2214 2278 0
-2277 -2214 -2278 0
2277 -2214 2278 0
2277 2214 -2278 0
-2278 -2212 -2213 0
-2278 2212 2213 0
2278 2212 -2213 0
2278 -2212 2213 0
-2279 2280 2282 0
-2279 2281 2282 0
-2279 2280 2281 0
2279 -2280 -2281 0
2279 -2281 -2282 0
2279 -2280 -2282 0
2280 -4968 -5020 0
-2280 4968 0
-2280 5020 0
2281 -5004 -5010 0
-2281 5004 0
-2281 5010 0
2282 -4951 -5029 0
-2282 4951 0
-2282 5029 0
-2283 2284 2288 0
-2283 -2284 -2288 0
2283 -2284 2288 0
2283 2284 -2288 0
-2284 2285 2286 0
-2284 -2285 -2286 0
2284 -2285 2286 0
2284 2285 -2286 0
-2285 2276 2277 0
-2285 2277 2279 0
-2285 2276 2279 0
2285 -2276 -2279 0
2285 -2277 -2279 0
2285 -2276 -2277 0
-2286 2227 2287 0
-2286 -2227 -2287 0
2286 -2227 2287 0
2286 2227 -2287 0
-2287 2221 2223 0
-2287 -2221 -2223 0
2287 -2221 2223 0
2287 2221 -2223 0
-2288 2289 2291 0
-2288 2291 2295 0
-2288 2289 2295 0
2288 -2289 -2295 0
2288 -2291 -2295 0
2288 -2289 -2291 0
-2289 2226 2290 0
-2289 -2226 -2290 0
2289 -2226 2290 0
2289 2226 -2290 0
-2290 -2224 -2225 0
-2290 2224 2225 0
2290 2224 -2225 0
2290 -2224 2225 0
-2291 2292 2294 0
-2291 2293 2294 0
-2291 2292 2293 0
2291 -2292 -2293 0
2291 -2293 -2294 0
2291 -2292 -2294 0
2292 -5016 -5030 0
-2292 5016 0
-2292 5030 0
2293 -4988 -5031 0
-2293 4988 0
-2293 5031 0
2294 -5017 -5023 0
-2294 5017 0
-2294 5023 0
-2295 2240 2296 0
-2295 -2240 -2296 0
2295 -2240 2296 0
2295 2240 -2296 0
-2296 -2238 -2239 0
-2296 2238 2239 0
2296 2238 -2239 0
2296 -2238 2239 0
-2297 2298 2299 0
-2297 -2298 -2299 0
2297 -2298 2299 0
2297 2298 -2299 0
-2298 -2234 -2235 0
-2298 2234 2235 0
2298 2234 -2235 0
2298 -2234 2235 0
-2299 2285 2286 0
-2299 2286 2288 0
-2299 2285 2288 0
2299 -2285 -2288 0
2299 -2286 -2288 0
2299 -2285 -2286 0
2300 -2298 -2299 0
-2300 2298 0
-2300 2299 0
-2301 -2244 -2245 0
-2301 2244 2245 0
2301 2244 -2245 0
2301 -2244 2245 0
-2302 2303 2420 0
-2302 2420 2516 0
-2302 2420 2519 0
2302 -2420 0
2302 -2303 -2516 -2519 0
2303 -2304 -2363 0
-2303 2304 0
-2303 2363 0
-2304 -2305 -2306 0
-2304 2305 2306 0
2304 2305 -2306 0
2304 -2305 2306 0
-2305 -2246 -2247 0
-2305 2246 2247 0
2305 2246 -2247 0
2305 -2246 2247 0
2306 -2307 -2308 0
-2306 2307 0
-2306 2308 0
-2307 2248 2250 0
-2307 -2248 -2250 0
2307 -2248 2250 0
2307 2248 -2250 0
2308 -2309 -2311 0
-2308 2309 0
-2308 2311 0
-2309 2300 2310 0
-2309 -2300 -2310 0
2309 -2300 2310 0
2309 2300 -2310 0
-2310 2251 2253 0
-2310 -2251 -2253 0
2310 -2251 2253 0
2310 2251 -2253 0
-2311 2312 2314 0
-2311 2314 2362 0
-2311 2312 2362 0
2311 -2314 -2362 0
2311 -2312 -2314 0
2311 -2312 -2362 0
-2312 2297 2313 0
-2312 -2297 -2313 0
2312 -2297 2313 0
2312 2297 -2313 0
-2313 2254 2256 0
-2313 -2254 -2256 0
2313 -2254 2256 0
2313 2254 -2256 0
-2314 2315 2317 0
-2314 2317 2359 0
-2314 2315 2359 0
2314 -2315 -2359 0
2314 -2317 -2359 0
2314 -2315 -2317 0
-2315 2283 2316 0
-2315 -2283 -2316 0
2315 -2283 2316 0
2315 2283 -2316 0
-2316 2257 2259 0
-2316 -2257 -2259 0
2316 -2257 2259 0
2316 2257 -2259 0
-2317 2318 2320 0
-2317 2320 2344 0
-2317 2318 2344 0
2317 -2318 -2344 0
2317 -2320 -2344 0
2317 -2318 -2320 0
-2318 2274 2319 0
-2318 -2274 -2319 0
2318 -2274 2319 0
2318 2274 -2319 0
-2319 2260 2262 0
-2319 -2260 -2262 0
2319 -2260 2262 0
2319 2260 -2262 0
-2320 2321 2323 0
-2320 2323 2335 0
-2320 2321 2335 0
2320 -2321 -2335 0
2320 -2323 -2335 0
2320 -2321 -2323 0
-2321 2269 2322 0
-2321 -2269 -2322 0
2321 -2269 2322 0
2321 2269 -2322 0
-2322 2263 2265 0
-2322 -2263 -2265 0
2322 -2263 2265 0
2322 2263 -2265 0
-2323 2324 2326 0
-2323 2326 2330 0
-2323 2324 2330 0
2323 -2324 -2330 0
2323 -2326 -2330 0
2323 -2324 -2326 0
-2324 2268 2325 0
-2324 -2268 -2325 0
2324 -2268 2325 0
2324 2268 -2325 0
-2325 -2266 -2267 0
-2325 2266 2267 0
2325 2266 -2267 0
2325 -2266 2267 0
-2326 2327 2329 0
-2326 2328 2329 0
-2326 2327 2328 0
2326 -2327 -2328 0
2326 -2328 -2329 0
2326 -2327 -2329 0
2327 -5008 -5022 0
-2327 5008 0
-2327 5022 0
2328 -4958 -5024 0
-2328 4958 0
-2328 5024 0
2329 -5018 -5026 0
-2329 5018 0
-2329 5026 0
-2330 -2331 -2334 0
-2330 2331 2334 0
2330 2331 -2334 0
2330 -2331 2334 0
-2331 -2332 -2333 0
-2331 2332 2333 0
2331 2332 -2333 0
2331 -2332 2333 0
2332 -5014 -5026 0
-2332 5014 0
-2332 5026 0
2333 -4954 -5027 0
-2333 4954 0
-2333 5027 0
2334 -4968 -5019 0
-2334 4968 0
-2334 5019 0
-2335 2336 2340 0
-2335 -2336 -2340 0
2335 -2336 2340 0
2335 2336 -2340 0
-2336 2337 2338 0
-2336 -2337 -2338 0
2336 -2337 2338 0
2336 2337 -2338 0
-2337 2332 2334 0
-2337 2333 2334 0
-2337 2332 2333 0
2337 -2332 -2333 0
2337 -2333 -2334 0
2337 -2332 -2334 0
-2338 2282 2339 0
-2338 -2282 -2339 0
2338 -2282 2339 0
2338 2282 -2339 0
-2339 -2280 -2281 0
-2339 2280 2281 0
2339 2280 -2281 0
2339 -2280 2281 0
-2340 2341 2343 0
-2340 2342 2343 0
-2340 2341 2342 0
2340 -2341 -2342 0
2340 -2342 -2343 0
2340 -2341 -2343 0
2341 -5010 -5020 0
-2341 5010 0
-2341 5020 0
2342 -5004 -5029 0
-2342 5004 0
-2342 5029 0
2343 -4951 -5030 0
-2343 4951 0
-2343 5030 0
-2344 2345 2349 0
-2344 -2345 -2349 0
2344 -2345 2349 0
2344 2345 -2349 0
-2345 2346 2347 0
-2345 -2346 -2347 0
2345 -2346 2347 0
2345 2346 -2347 0
-2346 2337 2338 0
-2346 2338 2340 0
-2346 2337 2340 0
2346 -2337 -2340 0
2346 -2338 -2340 0
2346 -2337 -2338 0
-2347 2295 2348 0
-2347 -2295 -2348 0
2347 -2295 2348 0
2347 2295 -2348 0
-2348 2289 2291 0
-2348 -2289 -2291 0
2348 -2289 2291 0
2348 2289 -2291 0
-2349 2350 2352 0
-2349 2352 2356 0
-2349 2350 2356 0
2349 -2350 -2356 0
2349 -2352 -2356 0
2349 -2350 -2352 0
-2350 2294 2351 0
-2350 -2294 -2351 0
2350 -2294 2351 0
2350 2294 -2351 0
-2351 -2292 -2293 0
-2351 2292 2293 0
2351 2292 -2293 0
2351 -2292 2293 0
-2352 2353 2355 0
-2352 2354 2355 0
-2352 2353 2354 0
2352 -2353 -2354 0
2352 -2354 -2355 0
2352 -2353 -2355 0
2353 -5016 -5031 0
-2353 5016 0
-2353 5031 0
2354 -4988 -5017 0
-2354 4988 0
-2354 5017 0
2355 -5012 -5023 0
-2355 5012 0
-2355 5023 0
-2356 -2357 -2358 0
-2356 2357 2358 0
2356 2357 -2358 0
2356 -2357 2358 0
2357 -5012 -5025 0
-2357 5012 0
-2357 5025 0
2358 -4955 -5011 0
-2358 4955 0
-2358 5011 0
-2359 2360 2361 0
-2359 -2360 -2361 0
2359 -2360 2361 0
2359 2360 -2361 0
-2360 2236 2237 0
-2360 -2236 -2237 0
2360 -2236 2237 0
2360 2236 -2237 0
-2361 2346 2347 0
-2361 2347 2349 0
-2361 2346 2349 0
2361 -2346 -2349 0
2361 -2347 -2349 0
2361 -2346 -2347 0
2362 -2360 -2361 0
-2362 2360 0
-2362 2361 0
-2363 -2364 -2365 0
-2363 2364 2365 0
2363 2364 -2365 0
2363 -2364 2365 0
-2364 -2307 -2308 0
-2364 2307 2308 0
2364 2307 -2308 0
2364 -2307 2308 0
2365 -2366 -2367 0
-2365 2366 0
-2365 2367 0
-2366 2309 2311 0
-2366 -2309 -2311 0
2366 -2309 2311 0
2366 2309 -2311 0
2367 -2368 -2370 0
-2367 2368 0
-2367 2370 0
-2368 2362 2369 0
-2368 -2362 -2369 0
2368 -2362 2369 0
2368 2362 -2369 0
-2369 2312 2314 0
-2369 -2312 -2314 0
2369 -2312 2314 0
2369 2312 -2314 0
-2370 2371 2373 0
-2370 2373 2419 0
-2370 2371 2419 0
2370 -2373 -2419 0
2370 -2371 -2373 0
2370 -2371 -2419 0
-2371 2359 2372 0
-2371 -2359 -2372 0
2371 -2359 2372 0
2371 2359 -2372 0
-2372 2315 2317 0
-2372 -2315 -2317 0
2372 -2315 2317 0
2372 2315 -2317 0
-2373 2374 2376 0
-2373 2376 2416 0
-2373 2374 2416 0
2373 -2374 -2416 0
2373 -2376 -2416 0
2373 -2374 -2376 0
-2374 2344 2375 0
-2374 -2344 -2375 0
2374 -2344 2375 0
2374 2344 -2375 0
-2375 2318 2320 0
-2375 -2318 -2320 0
2375 -2318 2320 0
2375 2318 -2320 0
-2376 2377 2379 0
-2376 2379 2403 0
-2376 2377 2403 0
2376 -2377 -2403 0
2376 -2379 -2403 0
2376 -2377 -2379 0
-2377 2335 2378 0
-2377 -2335 -2378 0
2377 -2335 2378 0
2377 2335 -2378 0
-2378 2321 2323 0
-2378 -2321 -2323 0
2378 -2321 2323 0
2378 2321 -2323 0
-2379 2380 2382 0
-2379 2382 2394 0
-2379 2380 2394 0
2379 -2380 -2394 0
2379 -2382 -2394 0
2379 -2380 -2382 0
-2380 2330 2381 0
-2380 -2330 -2381 0
2380 -2330 2381 0
2380 2330 -2381 0
-2381 2324 2326 0
-2381 -2324 -2326 0
2381 -2324 2326 0
2381 2324 -2326 0
-2382 2383 2385 0
-2382 2385 2389 0
-2382 2383 2389 0
2382 -2383 -2389 0
2382 -2385 -2389 0
2382 -2383 -2385 0
-2383 2329 2384 0
-2383 -2329 -2384 0
2383 -2329 2384 0
2383 2329 -2384 0
-2384 -2327 -2328 0
-2384 2327 2328 0
2384 2327 -2328 0
2384 -2327 2328 0
-2385 2386 2388 0
-2385 2387 2388 0
-2385 2386 2387 0
2385 -2386 -2387 0
2385 -2387 -2388 0
2385 -2386 -2388 0
2386 -5008 -5024 0
-2386 5008 0
-2386 5024 0
2387 -4958 -5026 0
-2387 4958 0
-2387 5026 0
2388 -5018 -5027 0
-2388 5018 0
-2388 5027 0
-2389 -2390 -2393 0
-2389 2390 2393 0
2389 2390 -2393 0
2389 -2390 2393 0
-2390 -2391 -2392 0
-2390 2391 2392 0
2390 2391 -2392 0
2390 -2391 2392 0
2391 -5014 -5027 0
-2391 5014 0
-2391 5027 0
2392 -4954 -4968 0
-2392 4954 0
-2392 4968 0
2393 -5010 -5019 0
-2393 5010 0
-2393 5019 0
-2394 2395 2399 0
-2394 -2395 -2399 0
2394 -2395 2399 0
2394 2395 -2399 0
-2395 2396 2397 0
-2395 -2396 -2397 0
2395 -2396 2397 0
2395 2396 -2397 0
-2396 2391 2393 0
-2396 2392 2393 0
-2396 2391 2392 0
2396 -2391 -2392 0
2396 -2392 -2393 0
2396 -2391 -2393 0
-2397 2343 2398 0
-2397 -2343 -2398 0
2397 -2343 2398 0
2397 2343 -2398 0
-2398 -2341 -2342 0
-2398 2341 2342 0
2398 2341 -2342 0
2398 -2341 2342 0
-2399 2400 2402 0
-2399 2401 2402 0
-2399 2400 2401 0
2399 -2400 -2401 0
2399 -2401 -2402 0
2399 -2400 -2402 0
2400 -5020 -5029 0
-2400 5020 0
-2400 5029 0
2401 -5004 -5030 0
-2401 5004 0
-2401 5030 0
2402 -4951 -5031 0
-2402 4951 0
-2402 5031 0
-2403 2404 2408 0
-2403 -2404 -2408 0
2403 -2404 2408 0
2403 2404 -2408 0
-2404 2405 2406 0
-2404 -2405 -2406 0
2404 -2405 2406 0
2404 2405 -2406 0
-2405 2396 2397 0
-2405 2397 2399 0
-2405 2396 2399 0
2405 -2396 -2399 0
2405 -2397 -2399 0
2405 -2396 -2397 0
-2406 2356 2407 0
-2406 -2356 -2407 0
2406 -2356 2407 0
2406 2356 -2407 0
-2407 2350 2352 0
-2407 -2350 -2352 0
2407 -2350 2352 0
2407 2350 -2352 0
-2408 2409 2411 0
-2408 2411 2415 0
-2408 2409 2415 0
2408 -2411 -2415 0
2408 -2409 -2411 0
2408 -2409 -2415 0
-2409 2355 2410 0
-2409 -2355 -2410 0
2409 -2355 2410 0
2409 2355 -2410 0
-2410 -2353 -2354 0
-2410 2353 2354 0
2410 2353 -2354 0
2410 -2353 2354 0
-2411 2412 2414 0
-2411 2413 2414 0
-2411 2412 2413 0
2411 -2412 -2413 0
2411 -2413 -2414 0
2411 -2412 -2414 0
2412 -5016 -5017 0
-2412 5016 0
-2412 5017 0
2413 -4988 -5012 0
-2413 4988 0
-2413 5012 0
2414 -4955 -5023 0
-2414 4955 0
-2414 5023 0
2415 -4955 -5025 0
-2415 4955 0
-2415 5025 0
-2416 2417 2418 0
-2416 -2417 -2418 0
2416 -2417 2418 0
2416 2417 -2418 0
2417 -4955 -5011 -5012 -5025 0
-2417 5025 0
-2417 4955 0
-2417 5012 0
-2417 5011 0
-2418 2405 2406 0
-2418 2406 2408 0
-2418 2405 2408 0
2418 -2405 -2408 0
2418 -2406 -2408 0
2418 -2405 -2406 0
2419 -2417 -2418 0
-2419 2417 0
-2419 2418 0
-2420 2305 2306 2422 0
-2420 2305 2421 2422 0
-2420 2306 2421 2422 0
2420 -2305 -2306 0
2420 -2306 -2421 0
2420 -2422 0
2420 -2305 -2421 0
2421 -2364 -2365 0
-2421 2364 0
-2421 2365 0
2422 -2303 -2423 0
-2422 2303 0
-2422 2423 0
-2423 2425 2473 0
-2423 2424 2425 0
-2423 2424 2473 0
2423 -2424 -2425 0
2423 -2425 -2473 0
2423 -2424 -2473 0
-2424 -2366 -2367 0
-2424 2366 2367 0
2424 2366 -2367 0
2424 -2366 2367 0
2425 -2426 -2427 0
-2425 2426 0
-2425 2427 0
-2426 2368 2370 0
-2426 -2368 -2370 0
2426 -2368 2370 0
2426 2368 -2370 0
2427 -2428 -2430 0
-2427 2428 0
-2427 2430 0
-2428 2419 2429 0
-2428 -2419 -2429 0
2428 -2419 2429 0
2428 2419 -2429 0
-2429 2371 2373 0
-2429 -2371 -2373 0
2429 -2371 2373 0
2429 2371 -2373 0
2430 -2431 -2433 0
-2430 2431 0
-2430 2433 0
-2431 2416 2432 0
-2431 -2416 -2432 0
2431 -2416 2432 0
2431 2416 -2432 0
-2432 2374 2376 0
-2432 -2374 -2376 0
2432 -2374 2376 0
2432 2374 -2376 0
-2433 2434 2436 0
-2433 2436 2472 0
-2433 2434 2472 0
2433 -2434 -2472 0
2433 -2436 -2472 0
2433 -2434 -2436 0
-2434 2403 2435 0
-2434 -2403 -2435 0
2434 -2403 2435 0
2434 2403 -2435 0
-2435 2377 2379 0
-2435 -2377 -2379 0
2435 -2377 2379 0
2435 2377 -2379 0
-2436 2437 2439 0
-2436 2439 2463 0
-2436 2437 2463 0
2436 -2437 -2463 0
2436 -2439 -2463 0
2436 -2437 -2439 0
-2437 2394 2438 0
-2437 -2394 -2438 0
2437 -2394 2438 0
2437 2394 -2438 0
-2438 2380 2382 0
-2438 -2380 -2382 0
2438 -2380 2382 0
2438 2380 -2382 0
-2439 2440 2442 0
-2439 2442 2454 0
-2439 2440 2454 0
2439 -2440 -2454 0
2439 -2442 -2454 0
2439 -2440 -2442 0
-2440 2389 2441 0
-2440 -2389 -2441 0
2440 -2389 2441 0
2440 2389 -2441 0
-2441 2383 2385 0
-2441 -2383 -2385 0
2441 -2383 2385 0
2441 2383 -2385 0
-2442 2443 2445 0
-2442 2445 2449 0
-2442 2443 2449 0
2442 -2443 -2449 0
2442 -2445 -2449 0
2442 -2443 -2445 0
-2443 2388 2444 0
-2443 -2388 -2444 0
2443 -2388 2444 0
2443 2388 -2444 0
-2444 -2386 -2387 0
-2444 2386 2387 0
2444 2386 -2387 0
2444 -2386 2387 0
-2445 2446 2448 0
-2445 2447 2448 0
-2445 2446 2447 0
2445 -2446 -2447 0
2445 -2447 -2448 0
2445 -2446 -2448 0
2446 -5008 -5026 0
-2446 5008 0
-2446 5026 0
2447 -4958 -5027 0
-2447 4958 0
-2447 5027 0
2448 -4968 -5018 0
-2448 4968 0
-2448 5018 0
-2449 -2450 -2453 0
-2449 2450 2453 0
2449 2450 -2453 0
2449 -2450 2453 0
-2450 -2451 -2452 0
-2450 2451 2452 0
2450 2451 -2452 0
2450 -2451 2452 0
2451 -4968 -5014 0
-2451 4968 0
-2451 5014 0
2452 -4954 -5010 0
-2452 4954 0
-2452 5010 0
2453 -5019 -5029 0
-2453 5019 0
-2453 5029 0
-2454 2455 2459 0
-2454 -2455 -2459 0
2454 -2455 2459 0
2454 2455 -2459 0
-2455 2456 2457 0
-2455 -2456 -2457 0
2455 -2456 2457 0
2455 2456 -2457 0
-2456 2451 2453 0
-2456 2452 2453 0
-2456 2451 2452 0
2456 -2451 -2452 0
2456 -2452 -2453 0
2456 -2451 -2453 0
-2457 2402 2458 0
-2457 -2402 -2458 0
2457 -2402 2458 0
2457 2402 -2458 0
-2458 -2400 -2401 0
-2458 2400 2401 0
2458 2400 -2401 0
2458 -2400 2401 0
-2459 2460 2462 0
-2459 2461 2462 0
-2459 2460 2461 0
2459 -2460 -2461 0
2459 -2461 -2462 0
2459 -2460 -2462 0
2460 -5020 -5030 0
-2460 5020 0
-2460 5030 0
2461 -5004 -5031 0
-2461 5004 0
-2461 5031 0
2462 -4951 -5017 0
-2462 4951 0
-2462 5017 0
-2463 -2464 -2468 0
-2463 2464 2468 0
2463 2464 -2468 0
2463 -2464 2468 0
-2464 2465 2466 0
-2464 -2465 -2466 0
2464 -2465 2466 0
2464 2465 -2466 0
-2465 2456 2457 0
-2465 2457 2459 0
-2465 2456 2459 0
2465 -2456 -2459 0
2465 -2457 -2459 0
2465 -2456 -2457 0
-2466 2415 2467 0
-2466 -2415 -2467 0
2466 -2415 2467 0
2466 2415 -2467 0
-2467 2409 2411 0
-2467 -2409 -2411 0
2467 -2409 2411 0
2467 2409 -2411 0
2468 -2469 -2471 0
-2468 2469 0
-2468 2471 0
-2469 2414 2470 0
-2469 -2414 -2470 0
2469 -2414 2470 0
2469 2414 -2470 0
-2470 -2412 -2413 0
-2470 2412 2413 0
2470 2412 -2413 0
2470 -2412 2413 0
2471 -4955 -4988 -5012 -5016 0
-2471 5016 0
-2471 4955 0
-2471 5012 0
-2471 4988 0
-2472 2465 2466 0
-2472 2466 2468 0
-2472 2465 2468 0
2472 -2466 -2468 0
2472 -2465 -2466 0
2472 -2465 -2468 0
2473 -2474 -2475 0
-2473 2474 0
-2473 2475 0
-2474 -2426 -2427 0
-2474 2426 2427 0
2474 2426 -2427 0
2474 -2426 2427 0
2475 -2476 -2477 0
-2475 2476 0
-2475 2477 0
-2476 -2428 -2430 0
-2476 2428 2430 0
2476 2428 -2430 0
2476 -2428 2430 0
2477 -2478 -2479 0
-2477 2478 0
-2477 2479 0
-2478 2431 2433 0
-2478 -2431 -2433 0
2478 -2431 2433 0
2478 2431 -2433 0
2479 -2480 -2482 0
-2479 2480 0
-2479 2482 0
-2480 2472 2481 0
-2480 -2472 -2481 0
2480 -2472 2481 0
2480 2472 -2481 0
-2481 2434 2436 0
-2481 -2434 -2436 0
2481 -2434 2436 0
2481 2434 -2436 0
-2482 2483 2485 0
-2482 2485 2515 0
-2482 2483 2515 0
2482 -2485 -2515 0
2482 -2483 -2485 0
2482 -2483 -2515 0
-2483 2463 2484 0
-2483 -2463 -2484 0
2483 -2463 2484 0
2483 2463 -2484 0
-2484 2437 2439 0
-2484 -2437 -2439 0
2484 -2437 2439 0
2484 2437 -2439 0
-2485 2486 2488 0
-2485 2488 2512 0
-2485 2486 2512 0
2485 -2486 -2512 0
2485 -2488 -2512 0
2485 -2486 -2488 0
-2486 2454 2487 0
-2486 -2454 -2487 0
2486 -2454 2487 0
2486 2454 -2487 0
-2487 2440 2442 0
-2487 -2440 -2442 0
2487 -2440 2442 0
2487 2440 -2442 0
-2488 2489 2491 0
-2488 2491 2503 0
-2488 2489 2503 0
2488 -2489 -2503 0
2488 -2491 -2503 0
2488 -2489 -2491 0
-2489 2449 2490 0
-2489 -2449 -2490 0
2489 -2449 2490 0
2489 2449 -2490 0
-2490 2443 2445 0
-2490 -2443 -2445 0
2490 -2443 2445 0
2490 2443 -2445 0
-2491 2492 2494 0
-2491 2494 2498 0
-2491 2492 2498 0
2491 -2492 -2498 0
2491 -2494 -2498 0
2491 -2492 -2494 0
-2492 2448 2493 0
-2492 -2448 -2493 0
2492 -2448 2493 0
2492 2448 -2493 0
-2493 -2446 -2447 0
-2493 2446 2447 0
2493 2446 -2447 0
2493 -2446 2447 0
-2494 2495 2497 0
-2494 2496 2497 0
-2494 2495 2496 0
2494 -2495 -2496 0
2494 -2496 -2497 0
2494 -2495 -2497 0
2495 -5008 -5027 0
-2495 5008 0
-2495 5027 0
2496 -4958 -4968 0
-2496 4958 0
-2496 4968 0
2497 -5010 -5018 0
-2497 5010 0
-2497 5018 0
-2498 -2499 -2502 0
-2498 2499 2502 0
2498 2499 -2502 0
2498 -2499 2502 0
-2499 -2500 -2501 0
-2499 2500 2501 0
2499 2500 -2501 0
2499 -2500 2501 0
2500 -5010 -5014 0
-2500 5010 0
-2500 5014 0
2501 -4954 -5029 0
-2501 4954 0
-2501 5029 0
2502 -5019 -5030 0
-2502 5019 0
-2502 5030 0
-2503 2504 2508 0
-2503 -2504 -2508 0
2503 -2504 2508 0
2503 2504 -2508 0
-2504 2505 2506 0
-2504 -2505 -2506 0
2504 -2505 2506 0
2504 2505 -2506 0
-2505 2500 2502 0
-2505 2501 2502 0
-2505 2500 2501 0
2505 -2500 -2501 0
2505 -2501 -2502 0
2505 -2500 -2502 0
-2506 2462 2507 0
-2506 -2462 -2507 0
2506 -2462 2507 0
2506 2462 -2507 0
-2507 -2460 -2461 0
-2507 2460 2461 0
2507 2460 -2461 0
2507 -2460 2461 0
-2508 2509 2511 0
-2508 2510 2511 0
-2508 2509 2510 0
2508 -2509 -2510 0
2508 -2510 -2511 0
2508 -2509 -2511 0
2509 -5020 -5031 0
-2509 5020 0
-2509 5031 0
2510 -5004 -5017 0
-2510 5004 0
-2510 5017 0
2511 -4951 -5012 0
-2511 4951 0
-2511 5012 0
-2512 2513 2514 0
-2512 -2513 -2514 0
2512 -2513 2514 0
2512 2513 -2514 0
-2513 -2469 -2471 0
-2513 2469 2471 0
2513 2469 -2471 0
2513 -2469 2471 0
-2514 2505 2506 0
-2514 2506 2508 0
-2514 2505 2508 0
2514 -2505 -2508 0
2514 -2506 -2508 0
2514 -2505 -2506 0
2515 -2513 -2514 0
-2515 2513 0
-2515 2514 0
2516 -2517 -2518 0
-2516 2517 0
-2516 2518 0
-2517 -2424 -2425 0
-2517 2424 2425 0
2517 2424 -2425 0
2517 -2424 2425 0
-2518 -2474 -2475 0
-2518 2474 2475 0
2518 2474 -2475 0
2518 -2474 2475 0
-2519 2520 2606 0
-2519 2606 2675 0
-2519 2606 2680 0
2519 -2606 0
2519 -2520 -2675 -2680 0
2520 -2521 -2566 0
-2520 2521 0
-2520 2566 0
-2521 -2522 -2523 0
-2521 2522 2523 0
2521 2522 -2523 0
2521 -2522 2523 0
-2522 -2476 -2477 0
-2522 2476 2477 0
2522 2476 -2477 0
2522 -2476 2477 0
2523 -2524 -2525 0
-2523 2524 0
-2523 2525 0
-2524 -2478 -2479 0
-2524 2478 2479 0
2524 2478 -2479 0
2524 -2478 2479 0
2525 -2526 -2527 0
-2525 2526 0
-2525 2527 0
-2526 2480 2482 0
-2526 -2480 -2482 0
2526 -2480 2482 0
2526 2480 -2482 0
2527 -2528 -2530 0
-2527 2528 0
-2527 2530 0
-2528 2515 2529 0
-2528 -2515 -2529 0
2528 -2515 2529 0
2528 2515 -2529 0
-2529 2483 2485 0
-2529 -2483 -2485 0
2529 -2483 2485 0
2529 2483 -2485 0
-2530 2531 2533 0
-2530 2533 2565 0
-2530 2531 2565 0
2530 -2533 -2565 0
2530 -2531 -2533 0
2530 -2531 -2565 0
-2531 2512 2532 0
-2531 -2512 -2532 0
2531 -2512 2532 0
2531 2512 -2532 0
-2532 2486 2488 0
-2532 -2486 -2488 0
2532 -2486 2488 0
2532 2486 -2488 0
-2533 2534 2536 0
-2533 2536 2560 0
-2533 2534 2560 0
2533 -2534 -2560 0
2533 -2536 -2560 0
2533 -2534 -2536 0
-2534 2503 2535 0
-2534 -2503 -2535 0
2534 -2503 2535 0
2534 2503 -2535 0
-2535 2489 2491 0
-2535 -2489 -2491 0
2535 -2489 2491 0
2535 2489 -2491 0
-2536 2537 2539 0
-2536 2539 2551 0
-2536 2537 2551 0
2536 -2537 -2551 0
2536 -2539 -2551 0
2536 -2537 -2539 0
-2537 2498 2538 0
-2537 -2498 -2538 0
2537 -2498 2538 0
2537 2498 -2538 0
-2538 2492 2494 0
-2538 -2492 -2494 0
2538 -2492 2494 0
2538 2492 -2494 0
-2539 2540 2542 0
-2539 2542 2546 0
-2539 2540 2546 0
2539 -2540 -2546 0
2539 -2542 -2546 0
2539 -2540 -2542 0
-2540 2497 2541 0
-2540 -2497 -2541 0
2540 -2497 2541 0
2540 2497 -2541 0
-2541 -2495 -2496 0
-2541 2495 2496 0
2541 2495 -2496 0
2541 -2495 2496 0
-2542 2543 2545 0
-2542 2544 2545 0
-2542 2543 2544 0
2542 -2543 -2544 0
2542 -2544 -2545 0
2542 -2543 -2545 0
2543 -4968 -5008 0
-2543 4968 0
-2543 5008 0
2544 -4958 -5010 0
-2544 4958 0
-2544 5010 0
2545 -5018 -5029 0
-2545 5018 0
-2545 5029 0
-2546 -2547 -2550 0
-2546 2547 2550 0
2546 2547 -2550 0
2546 -2547 2550 0
-2547 -2548 -2549 0
-2547 2548 2549 0
2547 2548 -2549 0
2547 -2548 2549 0
2548 -5014 -5029 0
-2548 5014 0
-2548 5029 0
2549 -4954 -5030 0
-2549 4954 0
-2549 5030 0
2550 -5019 -5031 0
-2550 5019 0
-2550 5031 0
-2551 2552 2556 0
-2551 -2552 -2556 0
2551 -2552 2556 0
2551 2552 -2556 0
-2552 2553 2554 0
-2552 -2553 -2554 0
2552 -2553 2554 0
2552 2553 -2554 0
-2553 2548 2550 0
-2553 2549 2550 0
-2553 2548 2549 0
2553 -2548 -2549 0
2553 -2549 -2550 0
2553 -2548 -2550 0
-2554 2511 2555 0
-2554 -2511 -2555 0
2554 -2511 2555 0
2554 2511 -2555 0
-2555 -2509 -2510 0
-2555 2509 2510 0
2555 2509 -2510 0
2555 -2509 2510 0
-2556 2557 2559 0
-2556 2558 2559 0
-2556 2557 2558 0
2556 -2557 -2558 0
2556 -2558 -2559 0
2556 -2557 -2559 0
2557 -5017 -5020 0
-2557 5017 0
-2557 5020 0
2558 -5004 -5012 0
-2558 5004 0
-2558 5012 0
2559 -4951 -4955 0
-2559 4951 0
-2559 4955 0
-2560 2561 2564 0
-2560 -2561 -2564 0
2560 -2561 2564 0
2560 2561 -2564 0
-2561 -2562 -2563 0
-2561 2562 2563 0
2561 2562 -2563 0
2561 -2562 2563 0
2562 -5012 -5016 0
-2562 5012 0
-2562 5016 0
2563 -4955 -4988 0
-2563 4955 0
-2563 4988 0
-2564 2553 2554 0
-2564 2554 2556 0
-2564 2553 2556 0
2564 -2553 -2556 0
2564 -2554 -2556 0
2564 -2553 -2554 0
2565 -2561 -2564 0
-2565 2561 0
-2565 2564 0
-2566 -2567 -2568 0
-2566 2567 2568 0
2566 2567 -2568 0
2566 -2567 2568 0
-2567 -2524 -2525 0
-2567 2524 2525 0
2567 2524 -2525 0
2567 -2524 2525 0
2568 -2569 -2570 0
-2568 2569 0
-2568 2570 0
-2569 -2526 -2527 0
-2569 2526 2527 0
2569 2526 -2527 0
2569 -2526 2527 0
2570 -2571 -2572 0
-2570 2571 0
-2570 2572 0
-2571 2528 2530 0
-2571 -2528 -2530 0
2571 -2528 2530 0
2571 2528 -2530 0
2572 -2573 -2575 0
-2572 2573 0
-2572 2575 0
-2573 2565 2574 0
-2573 -2565 -2574 0
2573 -2565 2574 0
2573 2565 -2574 0
-2574 2531 2533 0
-2574 -2531 -2533 0
2574 -2531 2533 0
2574 2531 -2533 0
-2575 2576 2578 0
-2575 2578 2605 0
-2575 2576 2605 0
2575 -2578 -2605 0
2575 -2576 -2578 0
2575 -2576 -2605 0
-2576 2560 2577 0
-2576 -2560 -2577 0
2576 -2560 2577 0
2576 2560 -2577 0
-2577 2534 2536 0
-2577 -2534 -2536 0
2577 -2534 2536 0
2577 2534 -2536 0
-2578 2579 2581 0
-2578 2581 2602 0
-2578 2579 2602 0
2578 -2579 -2602 0
2578 -2581 -2602 0
2578 -2579 -2581 0
-2579 2551 2580 0
-2579 -2551 -2580 0
2579 -2551 2580 0
2579 2551 -2580 0
-2580 2537 2539 0
-2580 -2537 -2539 0
2580 -2537 2539 0
2580 2537 -2539 0
-2581 2582 2584 0
-2581 2584 2596 0
-2581 2582 2596 0
2581 -2582 -2596 0
2581 -2584 -2596 0
2581 -2582 -2584 0
-2582 2546 2583 0
-2582 -2546 -2583 0
2582 -2546 2583 0
2582 2546 -2583 0
-2583 2540 2542 0
-2583 -2540 -2542 0
2583 -2540 2542 0
2583 2540 -2542 0
-2584 2585 2587 0
-2584 2587 2591 0
-2584 2585 2591 0
2584 -2585 -2591 0
2584 -2587 -2591 0
2584 -2585 -2587 0
-2585 2545 2586 0
-2585 -2545 -2586 0
2585 -2545 2586 0
2585 2545 -2586 0
-2586 -2543 -2544 0
-2586 2543 2544 0
2586 2543 -2544 0
2586 -2543 2544 0
-2587 2588 2590 0
-2587 2589 2590 0
-2587 2588 2589 0
2587 -2588 -2589 0
2587 -2589 -2590 0
2587 -2588 -2590 0
2588 -5008 -5010 0
-2588 5008 0
-2588 5010 0
2589 -4958 -5029 0
-2589 4958 0
-2589 5029 0
2590 -5018 -5030 0
-2590 5018 0
-2590 5030 0
-2591 -2592 -2595 0
-2591 2592 2595 0
2591 2592 -2595 0
2591 -2592 2595 0
-2592 -2593 -2594 0
-2592 2593 2594 0
2592 2593 -2594 0
2592 -2593 2594 0
2593 -5014 -5030 0
-2593 5014 0
-2593 5030 0
2594 -4954 -5031 0
-2594 4954 0
-2594 5031 0
2595 -5017 -5019 0
-2595 5017 0
-2595 5019 0
-2596 -2597 -2601 0
-2596 2597 2601 0
2596 2597 -2601 0
2596 -2597 2601 0
-2597 2598 2599 0
-2597 -2598 -2599 0
2597 -2598 2599 0
2597 2598 -2599 0
-2598 2593 2595 0
-2598 2594 2595 0
-2598 2593 2594 0
2598 -2593 -2594 0
2598 -2594 -2595 0
2598 -2593 -2595 0
-2599 2559 2600 0
-2599 -2559 -2600 0
2599 -2559 2600 0
2599 2559 -2600 0
-2600 -2557 -2558 0
-2600 2557 2558 0
2600 2557 -2558 0
2600 -2557 2558 0
2601 -4955 -5004 -5012 -5020 0
-2601 5020 0
-2601 4955 0
-2601 5012 0
-2601 5004 0
-2602 2603 2604 0
-2602 -2603 -2604 0
2602 -2603 2604 0
2602 2603 -2604 0
2603 -4955 -5016 0
-2603 4955 0
-2603 5016 0
-2604 2598 2599 0
-2604 2599 2601 0
-2604 2598 2601 0
2604 -2599 -2601 0
2604 -2598 -2599 0
2604 -2598 -2601 0
2605 -4955 -5016 -2604 0
-2605 4955 0
-2605 5016 0
-2605 2604 0
-2606 2607 2609 0
-2606 2607 2520 0
2606 -2607 0
2606 -2520 -2609 0
-2607 2522 2608 0
-2607 2523 2521 0
-2607 2523 2608 0
-2607 2522 2521 0
2607 -2522 -2523 0
2607 -2521 -2608 0
2608 -2567 -2568 0
-2608 2567 0
-2608 2568 0
-2609 2611 2612 0
-2609 2612 2644 0
-2609 2610 0
-2609 2611 2644 0
2609 -2610 -2611 -2644 0
2609 -2610 -2612 -2644 0
2609 -2610 -2611 -2612 0
-2610 -2569 -2570 0
-2610 2569 2570 0
2610 2569 -2570 0
2610 -2569 2570 0
-2611 -2571 -2572 0
-2611 2571 2572 0
2611 2571 -2572 0
2611 -2571 2572 0
2612 -2613 -2614 0
-2612 2613 0
-2612 2614 0
-2613 2573 2575 0
-2613 -2573 -2575 0
2613 -2573 2575 0
2613 2573 -2575 0
2614 -2615 -2617 0
-2614 2615 0
-2614 2617 0
-2615 2605 2616 0
-2615 -2605 -2616 0
2615 -2605 2616 0
2615 2605 -2616 0
-2616 2576 2578 0
-2616 -2576 -2578 0
2616 -2576 2578 0
2616 2576 -2578 0
2617 -2618 -2620 0
-2617 2618 0
-2617 2620 0
-2618 2602 2619 0
-2618 -2602 -2619 0
2618 -2602 2619 0
2618 2602 -2619 0
-2619 2579 2581 0
-2619 -2579 -2581 0
2619 -2579 2581 0
2619 2579 -2581 0
-2620 2621 2623 0
-2620 2623 2643 0
-2620 2621 2643 0
2620 -2623 -2643 0
2620 -2621 -2623 0
2620 -2621 -2643 0
-2621 2596 2622 0
-2621 -2596 -2622 0
2621 -2596 2622 0
2621 2596 -2622 0
-2622 2582 2584 0
-2622 -2582 -2584 0
2622 -2582 2584 0
2622 2582 -2584 0
-2623 2624 2626 0
-2623 2626 2638 0
-2623 2624 2638 0
2623 -2624 -2638 0
2623 -2626 -2638 0
2623 -2624 -2626 0
-2624 2591 2625 0
-2624 -2591 -2625 0
2624 -2591 2625 0
2624 2591 -2625 0
-2625 2585 2587 0
-2625 -2585 -2587 0
2625 -2585 2587 0
2625 2585 -2587 0
-2626 2627 2629 0
-2626 2629 2633 0
-2626 2627 2633 0
2626 -2627 -2633 0
2626 -2629 -2633 0
2626 -2627 -2629 0
-2627 2590 2628 0
-2627 -2590 -2628 0
2627 -2590 2628 0
2627 2590 -2628 0
-2628 -2588 -2589 0
-2628 2588 2589 0
2628 2588 -2589 0
2628 -2588 2589 0
-2629 2630 2632 0
-2629 2631 2632 0
-2629 2630 2631 0
2629 -2630 -2631 0
2629 -2631 -2632 0
2629 -2630 -2632 0
2630 -5008 -5029 0
-2630 5008 0
-2630 5029 0
2631 -4958 -5030 0
-2631 4958 0
-2631 5030 0
2632 -5018 -5031 0
-2632 5018 0
-2632 5031 0
-2633 -2634 -2637 0
-2633 2634 2637 0
2633 2634 -2637 0
2633 -2634 2637 0
-2634 -2635 -2636 0
-2634 2635 2636 0
2634 2635 -2636 0
2634 -2635 2636 0
2635 -5014 -5031 0
-2635 5014 0
-2635 5031 0
2636 -4954 -5017 0
-2636 4954 0
-2636 5017 0
2637 -5012 -5019 0
-2637 5012 0
-2637 5019 0
-2638 2639 2642 0
-2638 -2639 -2642 0
2638 -2639 2642 0
2638 2639 -2642 0
-2639 -2640 -2641 0
-2639 2640 2641 0
2639 2640 -2641 0
2639 -2640 2641 0
2640 -5012 -5020 0
-2640 5012 0
-2640 5020 0
2641 -4955 -5004 0
-2641 4955 0
-2641 5004 0
-2642 2635 2637 0
-2642 2636 2637 0
-2642 2635 2636 0
2642 -2635 -2636 0
2642 -2636 -2637 0
2642 -2635 -2637 0
2643 -2639 -2642 0
-2643 2639 0
-2643 2642 0
2644 -2645 -2646 0
-2644 2645 0
-2644 2646 0
-2645 -2613 -2614 0
-2645 2613 2614 0
2645 2613 -2614 0
2645 -2613 2614 0
2646 -2647 -2648 0
-2646 2647 0
-2646 2648 0
-2647 -2615 -2617 0
-2647 2615 2617 0
2647 2615 -2617 0
2647 -2615 2617 0
2648 -2649 -2650 0
-2648 2649 0
-2648 2650 0
-2649 2618 2620 0
-2649 -2618 -2620 0
2649 -2618 2620 0
2649 2618 -2620 0
2650 -2651 -2653 0
-2650 2651 0
-2650 2653 0
-2651 2643 2652 0
-2651 -2643 -2652 0
2651 -2643 2652 0
2651 2643 -2652 0
-2652 2621 2623 0
-2652 -2621 -2623 0
2652 -2621 2623 0
2652 2621 -2623 0
-2653 2654 2656 0
-2653 2656 2674 0
-2653 2654 2674 0
2653 -2656 -2674 0
2653 -2654 -2656 0
2653 -2654 -2674 0
-2654 2638 2655 0
-2654 -2638 -2655 0
2654 -2638 2655 0
2654 2638 -2655 0
-2655 2624 2626 0
-2655 -2624 -2626 0
2655 -2624 2626 0
2655 2624 -2626 0
-2656 2657 2659 0
-2656 2659 2671 0
-2656 2657 2671 0
2656 -2657 -2671 0
2656 -2659 -2671 0
2656 -2657 -2659 0
-2657 2633 2658 0
-2657 -2633 -2658 0
2657 -2633 2658 0
2657 2633 -2658 0
-2658 2627 2629 0
-2658 -2627 -2629 0
2658 -2627 2629 0
2658 2627 -2629 0
-2659 2660 2662 0
-2659 2662 2666 0
-2659 2660 2666 0
2659 -2660 -2666 0
2659 -2662 -2666 0
2659 -2660 -2662 0
-2660 2632 2661 0
-2660 -2632 -2661 0
2660 -2632 2661 0
2660 2632 -2661 0
-2661 -2630 -2631 0
-2661 2630 2631 0
2661 2630 -2631 0
2661 -2630 2631 0
-2662 2663 2665 0
-2662 2664 2665 0
-2662 2663 2664 0
2662 -2663 -2664 0
2662 -2664 -2665 0
2662 -2663 -2665 0
2663 -5008 -5030 0
-2663 5008 0
-2663 5030 0
2664 -4958 -5031 0
-2664 4958 0
-2664 5031 0
2665 -5017 -5018 0
-2665 5017 0
-2665 5018 0
-2666 -2667 -2670 0
-2666 2667 2670 0
2666 2667 -2670 0
2666 -2667 2670 0
-2667 -2668 -2669 0
-2667 2668 2669 0
2667 2668 -2669 0
2667 -2668 2669 0
2668 -5014 -5017 0
-2668 5014 0
-2668 5017 0
2669 -4954 -5012 0
-2669 4954 0
-2669 5012 0
2670 -4955 -5019 0
-2670 4955 0
-2670 5019 0
-2671 2672 2673 0
-2671 -2672 -2673 0
2671 -2672 2673 0
2671 2672 -2673 0
2672 -4955 -5020 0
-2672 4955 0
-2672 5020 0
-2673 2668 2670 0
-2673 2669 2670 0
-2673 2668 2669 0
2673 -2668 -2669 0
2673 -2669 -2670 0
2673 -2668 -2670 0
2674 -4955 -5020 -2673 0
-2674 4955 0
-2674 5020 0
-2674 2673 0
2675 -2676 -2678 0
-2675 2676 0
-2675 2678 0
-2676 -2610 -2677 0
-2676 2610 2677 0
2676 2610 -2677 0
2676 -2610 2677 0
2677 -2611 -2612 0
-2677 2611 0
-2677 2612 0
-2678 -2679 -2644 0
-2678 2679 2644 0
2678 2679 -2644 0
2678 -2679 2644 0
-2679 -2611 -2612 0
-2679 2611 2612 0
2679 2611 -2612 0
2679 -2611 2612 0
-2680 2681 2709 0
-2680 2709 2734 0
-2680 2709 2735 0
2680 -2709 0
2680 -2681 -2734 -2735 0
-2681 -2682 -2683 0
-2681 2682 2683 0
2681 2682 -2683 0
2681 -2682 2683 0
-2682 -2645 -2646 0
-2682 2645 2646 0
2682 2645 -2646 0
2682 -2645 2646 0
2683 -2684 -2685 0
-2683 2684 0
-2683 2685 0
-2684 -2647 -2648 0
-2684 2647 2648 0
2684 2647 -2648 0
2684 -2647 2648 0
2685 -2686 -2687 0
-2685 2686 0
-2685 2687 0
-2686 -2649 -2650 0
-2686 2649 2650 0
2686 2649 -2650 0
2686 -2649 2650 0
2687 -2688 -2689 0
-2687 2688 0
-2687 2689 0
-2688 2651 2653 0
-2688 -2651 -2653 0
2688 -2651 2653 0
2688 2651 -2653 0
2689 -2690 -2692 0
-2689 2690 0
-2689 2692 0
-2690 2674 2691 0
-2690 -2674 -2691 0
2690 -2674 2691 0
2690 2674 -2691 0
-2691 2654 2656 0
-2691 -2654 -2656 0
2691 -2654 2656 0
2691 2654 -2656 0
2692 -2693 -2695 0
-2692 2693 0
-2692 2695 0
-2693 2671 2694 0
-2693 -2671 -2694 0
2693 -2671 2694 0
2693 2671 -2694 0
-2694 2657 2659 0
-2694 -2657 -2659 0
2694 -2657 2659 0
2694 2657 -2659 0
-2695 2696 2698 0
-2695 2698 2708 0
-2695 2696 2708 0
2695 -2698 -2708 0
2695 -2696 -2698 0
2695 -2696 -2708 0
-2696 2666 2697 0
-2696 -2666 -2697 0
2696 -2666 2697 0
2696 2666 -2697 0
-2697 2660 2662 0
-2697 -2660 -2662 0
2697 -2660 2662 0
2697 2660 -2662 0
-2698 2699 2701 0
-2698 2701 2705 0
-2698 2699 2705 0
2698 -2699 -2705 0
2698 -2701 -2705 0
2698 -2699 -2701 0
-2699 2665 2700 0
-2699 -2665 -2700 0
2699 -2665 2700 0
2699 2665 -2700 0
-2700 -2663 -2664 0
-2700 2663 2664 0
2700 2663 -2664 0
2700 -2663 2664 0
-2701 2702 2704 0
-2701 2703 2704 0
-2701 2702 2703 0
2701 -2702 -2703 0
2701 -2703 -2704 0
2701 -2702 -2704 0
2702 -5008 -5031 0
-2702 5008 0
-2702 5031 0
2703 -4958 -5017 0
-2703 4958 0
-2703 5017 0
2704 -5012 -5018 0
-2704 5012 0
-2704 5018 0
-2705 -2706 -2707 0
-2705 2706 2707 0
2705 2706 -2707 0
2705 -2706 2707 0
2706 -5012 -5014 0
-2706 5012 0
-2706 5014 0
2707 -4954 -4955 0
-2707 4954 0
-2707 4955 0
2708 -4954 -4955 -5012 -5014 0
-2708 5014 0
-2708 4954 0
-2708 5012 0
-2708 4955 0
-2709 2683 2710 0
-2709 2682 2683 0
-2709 2682 2710 0
2709 -2682 -2683 0
2709 -2683 -2710 0
2709 -2682 -2710 0
2710 -2711 -2712 0
-2710 2711 0
-2710 2712 0
-2711 -2684 -2685 0
-2711 2684 2685 0
2711 2684 -2685 0
2711 -2684 2685 0
2712 -2713 -2714 0
-2712 2713 0
-2712 2714 0
-2713 -2686 -2687 0
-2713 2686 2687 0
2713 2686 -2687 0
2713 -2686 2687 0
2714 -2715 -2716 0
-2714 2715 0
-2714 2716 0
-2715 -2688 -2689 0
-2715 2688 2689 0
2715 2688 -2689 0
2715 -2688 2689 0
2716 -2717 -2718 0
-2716 2717 0
-2716 2718 0
-2717 -2690 -2692 0
-2717 2690 2692 0
2717 2690 -2692 0
2717 -2690 2692 0
2718 -2719 -2720 0
-2718 2719 0
-2718 2720 0
-2719 2693 2695 0
-2719 -2693 -2695 0
2719 -2693 2695 0
2719 2693 -2695 0
2720 -2721 -2723 0
-2720 2721 0
-2720 2723 0
-2721 2708 2722 0
-2721 -2708 -2722 0
2721 -2708 2722 0
2721 2708 -2722 0
-2722 2696 2698 0
-2722 -2696 -2698 0
2722 -2696 2698 0
2722 2696 -2698 0
2723 -2724 -2726 0
-2723 2724 0
-2723 2726 0
-2724 2705 2725 0
-2724 -2705 -2725 0
2724 -2705 2725 0
2724 2705 -2725 0
-2725 2699 2701 0
-2725 -2699 -2701 0
2725 -2699 2701 0
2725 2699 -2701 0
-2726 2727 2729 0
-2726 2729 2733 0
-2726 2727 2733 0
2726 -2729 -2733 0
2726 -2727 -2729 0
2726 -2727 -2733 0
-2727 2704 2728 0
-2727 -2704 -2728 0
2727 -2704 2728 0
2727 2704 -2728 0
-2728 -2702 -2703 0
-2728 2702 2703 0
2728 2702 -2703 0
2728 -2702 2703 0
-2729 2730 2732 0
-2729 2731 2732 0
-2729 2730 2731 0
2729 -2730 -2731 0
2729 -2731 -2732 0
2729 -2730 -2732 0
2730 -5008 -5017 0
-2730 5008 0
-2730 5017 0
2731 -4958 -5012 0
-2731 4958 0
-2731 5012 0
2732 -4955 -5018 0
-2732 4955 0
-2732 5018 0
2733 -4955 -5014 0
-2733 4955 0
-2733 5014 0
-2734 -2711 -2712 0
-2734 2711 2712 0
2734 2711 -2712 0
2734 -2711 2712 0
2735 -2736 -2737 0
-2735 2736 0
-2735 2737 0
-2736 -2713 -2714 0
-2736 2713 2714 0
2736 2713 -2714 0
2736 -2713 2714 0
2737 -2738 -2739 0
-2737 2738 0
-2737 2739 0
-2738 -2715 -2716 0
-2738 2715 2716 0
2738 2715 -2716 0
2738 -2715 2716 0
2739 -2740 -2741 0
-2739 2740 0
-2739 2741 0
-2740 -2717 -2718 0
-2740 2717 2718 0
2740 2717 -2718 0
2740 -2717 2718 0
2741 -2742 -2743 0
-2741 2742 0
-2741 2743 0
-2742 -2719 -2720 0
-2742 2719 2720 0
2742 2719 -2720 0
2742 -2719 2720 0
2743 -2744 -2745 0
-2743 2744 0
-2743 2745 0
-2744 -2721 -2723 0
-2744 2721 2723 0
2744 2721 -2723 0
2744 -2721 2723 0
2745 -2746 -2747 0
-2745 2746 0
-2745 2747 0
-2746 2724 2726 0
-2746 -2724 -2726 0
2746 -2724 2726 0
2746 2724 -2726 0
2747 -2748 -2750 0
-2747 2748 0
-2747 2750 0
-2748 2733 2749 0
-2748 -2733 -2749 0
2748 -2733 2749 0
2748 2733 -2749 0
-2749 2727 2729 0
-2749 -2727 -2729 0
2749 -2727 2729 0
2749 2727 -2729 0
2750 -2751 -2753 0
-2750 2751 0
-2750 2753 0
-2751 2732 2752 0
-2751 -2732 -2752 0
2751 -2732 2752 0
2751 2732 -2752 0
-2752 -2730 -2731 0
-2752 2730 2731 0
2752 2730 -2731 0
2752 -2730 2731 0
2753 -4955 -4958 -2754 0
-2753 4955 0
-2753 4958 0
-2753 2754 0
2754 -5008 -5012 0
-2754 5008 0
-2754 5012 0
-2755 2756 2761 0
-2755 2761 2765 0
-2755 2761 2766 0
2755 -2761 0
2755 -2756 -2765 -2766 0
-2756 2757 2759 0
-2756 -2757 -2759 0
2756 -2757 2759 0
2756 2757 -2759 0
-2757 1259 2758 0
-2757 -1259 -2758 0
2757 -1259 2758 0
2757 1259 -2758 0
-2758 1327 1385 0
-2758 1327 1386 0
2758 -1327 0
2758 -1385 -1386 0
-2759 2175 2760 0
-2759 -2175 -2760 0
2759 -2175 2760 0
2759 2175 -2760 0
-2760 2243 2301 0
-2760 2243 2302 0
2760 -2243 0
2760 -2301 -2302 0
-2761 2757 2759 0
-2761 2759 2762 0
-2761 2757 2762 0
2761 -2759 -2762 0
2761 -2757 -2759 0
2761 -2757 -2762 0
2762 -2763 -2764 0
-2762 2763 0
-2762 2764 0
-2763 1385 1386 0
-2763 -1385 -1386 0
2763 -1385 1386 0
2763 1385 -1386 0
-2764 2301 2302 0
-2764 -2301 -2302 0
2764 -2301 2302 0
2764 2301 -2302 0
-2765 2763 2764 0
-2765 -2763 -2764 0
2765 -2763 2764 0
2765 2763 -2764 0
-2766 2767 2778 0
-2766 2778 2789 0
-2766 2778 2792 0
2766 -2778 0
2766 -2767 -2789 -2792 0
2767 -2768 -2775 0
-2767 2768 0
-2767 2775 0
-2768 2769 2772 0
-2768 -2769 -2772 0
2768 -2769 2772 0
2768 2769 -2772 0
-2769 1388 2770 0
-2769 -1388 -2770 0
2769 -1388 2770 0
2769 1388 -2770 0
-2770 1505 1447 0
-2770 1505 2771 0
2770 -1505 0
2770 -1447 -2771 0
-2771 1507 1603 0
-2771 1507 1600 0
2771 -1507 0
2771 -1600 -1603 0
-2772 2304 2773 0
-2772 -2304 -2773 0
2772 -2304 2773 0
2772 2304 -2773 0
-2773 2421 2363 0
-2773 2421 2774 0
2773 -2421 0
2773 -2363 -2774 0
-2774 2423 2519 0
-2774 2423 2516 0
2774 -2423 0
2774 -2516 -2519 0
-2775 2776 2777 0
-2775 -2776 -2777 0
2775 -2776 2777 0
2775 2776 -2777 0
-2776 1447 2771 0
-2776 -1447 -2771 0
2776 -1447 2771 0
2776 1447 -2771 0
-2777 2363 2774 0
-2777 -2363 -2774 0
2777 -2363 2774 0
2777 2363 -2774 0
-2778 2769 2772 2780 0
-2778 2769 2779 2780 0
-2778 2772 2779 2780 0
2778 -2772 -2779 0
2778 -2769 -2772 0
2778 -2780 0
2778 -2769 -2779 0
2779 -2776 -2777 0
-2779 2776 0
-2779 2777 0
2780 -2767 -2781 0
-2780 2767 0
-2780 2781 0
-2781 2782 2784 0
-2781 2784 2786 0
-2781 2782 2786 0
2781 -2784 -2786 0
2781 -2782 -2784 0
2781 -2782 -2786 0
-2782 1601 2783 0
-2782 -1601 -2783 0
2782 -1601 2783 0
2782 1601 -2783 0
-2783 1557 1602 0
-2783 1557 1603 0
2783 -1557 0
2783 -1602 -1603 0
-2784 2517 2785 0
-2784 -2517 -2785 0
2784 -2517 2785 0
2784 2517 -2785 0
-2785 2473 2518 0
-2785 2473 2519 0
2785 -2473 0
2785 -2518 -2519 0
2786 -2787 -2788 0
-2786 2787 0
-2786 2788 0
-2787 1602 1603 0
-2787 -1602 -1603 0
2787 -1602 1603 0
2787 1602 -1603 0
-2788 2518 2519 0
-2788 -2518 -2519 0
2788 -2518 2519 0
2788 2518 -2519 0
2789 -2790 -2791 0
-2789 2790 0
-2789 2791 0
-2790 2782 2784 0
-2790 -2782 -2784 0
2790 -2782 2784 0
2790 2782 -2784 0
-2791 2787 2788 0
-2791 -2787 -2788 0
2791 -2787 2788 0
2791 2787 -2788 0
-2792 2793 2816 0
-2792 2816 2840 0
-2792 2816 2844 0
2792 -2816 0
2792 -2793 -2840 -2844 0
2793 -2794 -2805 0
-2793 2794 0
-2793 2805 0
2794 -2795 -2802 0
-2794 2795 0
-2794 2802 0
-2795 2796 2799 0
-2795 -2796 -2799 0
2795 -2796 2799 0
2795 2796 -2799 0
-2796 1605 2797 0
-2796 -1605 -2797 0
2796 -1605 2797 0
2796 1605 -2797 0
-2797 1692 1650 0
-2797 1692 2798 0
2797 -1692 0
2797 -1650 -2798 0
-2798 1693 1764 0
-2798 1693 1759 0
2798 -1693 0
2798 -1759 -1764 0
-2799 2521 2800 0
-2799 -2521 -2800 0
2799 -2521 2800 0
2799 2521 -2800 0
-2800 2608 2566 0
-2800 2608 2801 0
2800 -2608 0
2800 -2566 -2801 0
-2801 2609 2680 0
-2801 2609 2675 0
2801 -2609 0
2801 -2675 -2680 0
-2802 2803 2804 0
-2802 -2803 -2804 0
2802 -2803 2804 0
2802 2803 -2804 0
-2803 1650 2798 0
-2803 -1650 -2798 0
2803 -1650 2798 0
2803 1650 -2798 0
-2804 2566 2801 0
-2804 -2566 -2801 0
2804 -2566 2801 0
2804 2566 -2801 0
2805 -2806 -2813 0
-2805 2806 0
-2805 2813 0
-2806 2807 2810 0
-2806 -2807 -2810 0
2806 -2807 2810 0
2806 2807 -2810 0
-2807 1760 2808 0
-2807 -1760 -2808 0
2807 -1760 2808 0
2807 1760 -2808 0
-2808 2809 1762 0
-2808 2809 1764 0
2808 -2809 0
2808 -1762 -1764 0
2809 -1763 -1728 0
-2809 1763 0
-2809 1728 0
-2810 2676 2811 0
-2810 -2676 -2811 0
2810 -2676 2811 0
2810 2676 -2811 0
-2811 2812 2678 0
-2811 2812 2680 0
2811 -2812 0
2811 -2678 -2680 0
2812 -2679 -2644 0
-2812 2679 0
-2812 2644 0
-2813 2814 2815 0
-2813 -2814 -2815 0
2813 -2814 2815 0
2813 2814 -2815 0
-2814 1762 1764 0
-2814 -1762 -1764 0
2814 -1762 1764 0
2814 1762 -1764 0
-2815 2678 2680 0
-2815 -2678 -2680 0
2815 -2678 2680 0
2815 2678 -2680 0
-2816 2817 2819 2793 0
-2816 2817 2819 2822 0
2816 -2817 0
2816 -2819 0
2816 -2793 -2822 0
-2817 2796 2799 0
-2817 2799 2818 0
-2817 2796 2818 0
2817 -2799 -2818 0
2817 -2796 -2799 0
2817 -2796 -2818 0
2818 -2803 -2804 0
-2818 2803 0
-2818 2804 0
2819 -2794 -2820 0
-2819 2794 0
-2819 2820 0
-2820 2807 2810 0
-2820 2810 2821 0
-2820 2807 2821 0
2820 -2810 -2821 0
2820 -2807 -2810 0
2820 -2807 -2821 0
2821 -2814 -2815 0
-2821 2814 0
-2821 2815 0
-2822 2823 2825 2830 0
-2822 2823 2827 2830 0
-2822 2825 2827 2830 0
2822 -2825 -2827 0
2822 -2823 -2825 0
2822 -2830 0
2822 -2823 -2827 0
-2823 1765 2824 0
-2823 -1765 -2824 0
2823 -1765 2824 0
2823 1765 -2824 0
-2824 1794 1818 0
-2824 1794 1819 0
2824 -1794 0
2824 -1818 -1819 0
-2825 2681 2826 0
-2825 -2681 -2826 0
2825 -2681 2826 0
2825 2681 -2826 0
-2826 2710 2734 0
-2826 2710 2735 0
2826 -2710 0
2826 -2734 -2735 0
2827 -2828 -2829 0
-2827 2828 0
-2827 2829 0
-2828 -1818 -1819 0
-2828 1818 1819 0
2828 1818 -1819 0
2828 -1818 1819 0
-2829 -2734 -2735 0
-2829 2734 2735 0
2829 2734 -2735 0
2829 -2734 2735 0
2830 -2831 -2834 0
-2830 2831 0
-2830 2834 0
2831 -2832 -2833 0
-2831 2832 0
-2831 2833 0
-2832 2823 2825 0
-2832 -2823 -2825 0
2832 -2823 2825 0
2832 2823 -2825 0
-2833 2828 2829 0
-2833 -2828 -2829 0
2833 -2828 2829 0
2833 2828 -2829 0
-2834 2835 2836 0
-2834 2836 2837 0
-2834 2835 2837 0
2834 -2836 -2837 0
2834 -2835 -2836 0
2834 -2835 -2837 0
-2835 -1820 -1821 0
-2835 1820 1821 0
2835 1820 -1821 0
2835 -1820 1821 0
-2836 -2736 -2737 0
-2836 2736 2737 0
2836 2736 -2737 0
2836 -2736 2737 0
2837 -2838 -2839 0
-2837 2838 0
-2837 2839 0
-2838 -1822 -1823 0
-2838 1822 1823 0
2838 1822 -1823 0
2838 -1822 1823 0
-2839 -2738 -2739 0
-2839 2738 2739 0
2839 2738 -2739 0
2839 -2738 2739 0
2840 -2831 -2841 0
-2840 2831 0
-2840 2841 0
2841 -2842 -2843 0
-2841 2842 0
-2841 2843 0
-2842 2835 2836 0
-2842 -2835 -2836 0
2842 -2835 2836 0
2842 2835 -2836 0
-2843 2838 2839 0
-2843 -2838 -2839 0
2843 -2838 2839 0
2843 2838 -2839 0
-2844 2845 2852 0
-2844 2852 2861 0
-2844 2852 2864 0
2844 -2852 0
2844 -2845 -2861 -2864 0
2845 -2846 -2849 0
-2845 2846 0
-2845 2849 0
-2846 2847 2848 0
-2846 -2847 -2848 0
2846 -2847 2848 0
2846 2847 -2848 0
-2847 -1824 -1825 0
-2847 1824 1825 0
2847 1824 -1825 0
2847 -1824 1825 0
-2848 -2740 -2741 0
-2848 2740 2741 0
2848 2740 -2741 0
2848 -2740 2741 0
-2849 2850 2851 0
-2849 -2850 -2851 0
2849 -2850 2851 0
2849 2850 -2851 0
-2850 -1826 -1827 0
-2850 1826 1827 0
2850 1826 -1827 0
2850 -1826 1827 0
-2851 -2742 -2743 0
-2851 2742 2743 0
2851 2742 -2743 0
2851 -2742 2743 0
-2852 2847 2848 2854 0
-2852 2847 2853 2854 0
-2852 2848 2853 2854 0
2852 -2848 -2853 0
2852 -2847 -2848 0
2852 -2854 0
2852 -2847 -2853 0
2853 -2850 -2851 0
-2853 2850 0
-2853 2851 0
2854 -2845 -2855 0
-2854 2845 0
-2854 2855 0
-2855 2856 2857 0
-2855 2857 2858 0
-2855 2856 2858 0
2855 -2857 -2858 0
2855 -2856 -2857 0
2855 -2856 -2858 0
-2856 -1828 -1829 0
-2856 1828 1829 0
2856 1828 -1829 0
2856 -1828 1829 0
-2857 -2744 -2745 0
-2857 2744 2745 0
2857 2744 -2745 0
2857 -2744 2745 0
2858 -2859 -2860 0
-2858 2859 0
-2858 2860 0
-2859 -1830 -1831 0
-2859 1830 1831 0
2859 1830 -1831 0
2859 -1830 1831 0
-2860 -2746 -2747 0
-2860 2746 2747 0
2860 2746 -2747 0
2860 -2746 2747 0
2861 -2862 -2863 0
-2861 2862 0
-2861 2863 0
-2862 2856 2857 0
-2862 -2856 -2857 0
2862 -2856 2857 0
2862 2856 -2857 0
-2863 2859 2860 0
-2863 -2859 -2860 0
2863 -2859 2860 0
2863 2859 -2860 0
-2864 2865 2868 0
-2864 2868 2872 0
-2864 2868 2873 0
2864 -2868 0
2864 -2865 -2872 -2873 0
-2865 2866 2867 0
-2865 -2866 -2867 0
2865 -2866 2867 0
2865 2866 -2867 0
-2866 -1832 -1834 0
-2866 1832 1834 0
2866 1832 -1834 0
2866 -1832 1834 0
-2867 -2748 -2750 0
-2867 2748 2750 0
2867 2748 -2750 0
2867 -2748 2750 0
-2868 2866 2867 0
-2868 2867 2869 0
-2868 2866 2869 0
2868 -2867 -2869 0
2868 -2866 -2867 0
2868 -2866 -2869 0
2869 -2870 -2871 0
-2869 2870 0
-2869 2871 0
-2870 -1835 -1837 0
-2870 1835 1837 0
2870 1835 -1837 0
2870 -1835 1837 0
-2871 -2751 -2753 0
-2871 2751 2753 0
2871 2751 -2753 0
2871 -2751 2753 0
-2872 2870 2871 0
-2872 -2870 -2871 0
2872 -2870 2871 0
2872 2870 -2871 0
-2873 2874 2876 0
-2873 2876 2878 0
-2873 2874 2878 0
2873 -2876 -2878 0
2873 -2874 -2876 0
2873 -2874 -2878 0
-2874 -1838 -2875 0
-2874 1838 2875 0
2874 1838 -2875 0
2874 -1838 2875 0
2875 -4949 -5001 0
-2875 4949 0
-2875 5001 0
-2876 -2754 -2877 0
-2876 2754 2877 0
2876 2754 -2877 0
2876 -2754 2877 0
2877 -4955 -4958 0
-2877 4955 0
-2877 4958 0
2878 -2879 -2880 0
-2878 2879 0
-2878 2880 0
2879 -4945 -5001 0
-2879 4945 0
-2879 5001 0
2880 -4955 -5008 0
-2880 4955 0
-2880 5008 0
-2881 2882 2884 2889 0
-2881 2882 2886 2889 0
-2881 2884 2886 2889 0
2881 -2884 -2886 0
2881 -2882 -2884 0
2881 -2889 0
2881 -2882 -2886 0
-2882 341 2883 0
-2882 -341 -2883 0
2882 -341 2883 0
2882 341 -2883 0
-2883 409 467 0
-2883 409 468 0
2883 -409 0
2883 -467 -468 0
-2884 2756 2885 0
-2884 -2756 -2885 0
2884 -2756 2885 0
2884 2756 -2885 0
-2885 2762 2765 0
-2885 2762 2766 0
2885 -2762 0
2885 -2765 -2766 0
2886 -2887 -2888 0
-2886 2887 0
-2886 2888 0
-2887 467 468 0
-2887 -467 -468 0
2887 -467 468 0
2887 467 -468 0
-2888 2765 2766 0
-2888 -2765 -2766 0
2888 -2765 2766 0
2888 2765 -2766 0
2889 -2890 -2887 2888 -2891 0
2889 -2890 2887 -2888 -2891 0
-2889 2891 0
-2889 2887 2888 0
-2889 2890 0
-2889 -2887 -2888 0
-2890 2882 2884 0
-2890 -2882 -2884 0
2890 -2882 2884 0
2890 2882 -2884 0
-2891 2892 2901 2910 0
-2891 2892 2903 2910 0
2891 -2892 0
2891 -2910 0
2891 -2901 -2903 0
-2892 2893 2896 0
-2892 2896 2900 0
-2892 2893 2900 0
-2892 2896 2899 0
-2892 2893 2899 0
2892 -2893 -2896 0
2892 -2893 -2899 -2900 0
2892 -2896 -2899 -2900 0
-2893 470 2894 0
-2893 -470 -2894 0
2893 -470 2894 0
2893 470 -2894 0
-2894 587 529 0
-2894 587 2895 0
2894 -587 0
2894 -529 -2895 0
-2895 589 685 0
-2895 589 682 0
2895 -589 0
2895 -682 -685 0
-2896 2768 2897 0
-2896 -2768 -2897 0
2896 -2768 2897 0
2896 2768 -2897 0
-2897 2779 2775 0
-2897 2779 2898 0
2897 -2779 0
2897 -2775 -2898 0
-2898 2781 2792 0
-2898 2781 2789 0
2898 -2781 0
2898 -2789 -2792 0
-2899 529 2895 0
-2899 -529 -2895 0
2899 -529 2895 0
2899 529 -2895 0
-2900 2775 2898 0
-2900 -2775 -2898 0
2900 -2775 2898 0
2900 2775 -2898 0
2901 -2902 2899 -2900 0
2901 -2902 -2899 2900 0
-2901 2902 0
-2901 2899 2900 0
-2901 -2899 -2900 0
-2902 2893 2896 0
-2902 -2893 -2896 0
2902 -2893 2896 0
2902 2893 -2896 0
-2903 2904 2906 0
-2903 2906 2909 0
-2903 2904 2909 0
-2903 2906 2908 0
-2903 2904 2908 0
2903 -2904 -2906 0
2903 -2904 -2908 -2909 0
2903 -2906 -2908 -2909 0
-2904 683 2905 0
-2904 -683 -2905 0
2904 -683 2905 0
2904 683 -2905 0
-2905 639 684 0
-2905 639 685 0
2905 -639 0
2905 -684 -685 0
-2906 2790 2907 0
-2906 -2790 -2907 0
2906 -2790 2907 0
2906 2790 -2907 0
-2907 2786 2791 0
-2907 2786 2792 0
2907 -2786 0
2907 -2791 -2792 0
-2908 684 685 0
-2908 -684 -685 0
2908 -684 685 0
2908 684 -685 0
-2909 2791 2792 0
-2909 -2791 -2792 0
2909 -2791 2792 0
2909 2791 -2792 0
2910 -2901 -2911 -2912 -2913 0
-2910 2913 0
-2910 2912 0
-2910 2901 0
-2910 2911 0
-2911 2904 2906 0
-2911 -2904 -2906 0
2911 -2904 2906 0
2911 2904 -2906 0
-2912 2908 2909 0
-2912 -2908 -2909 0
2912 -2908 2909 0
2912 2908 -2909 0
-2913 2914 2934 0
-2913 2934 2954 0
-2913 2934 2956 0
2913 -2934 0
2913 -2914 -2954 -2956 0
2914 -2915 -2926 -2932 2933 0
2914 -2915 -2926 2932 -2933 0
-2914 2926 0
-2914 -2932 -2933 0
-2914 2915 0
-2914 2932 2933 0
2915 -2916 2924 -2925 0
2915 -2916 -2924 2925 0
-2915 2916 0
-2915 2924 2925 0
-2915 -2924 -2925 0
-2916 2917 2920 0
-2916 -2917 -2920 0
2916 -2917 2920 0
2916 2917 -2920 0
-2917 687 2918 0
-2917 -687 -2918 0
2917 -687 2918 0
2917 687 -2918 0
-2918 774 732 0
-2918 774 2919 0
2918 -774 0
2918 -732 -2919 0
-2919 775 846 0
-2919 775 841 0
2919 -775 0
2919 -841 -846 0
-2920 2795 2921 0
-2920 -2795 -2921 0
2920 -2795 2921 0
2920 2795 -2921 0
-2921 2818 2802 0
-2921 2818 2922 0
2921 -2818 0
2921 -2802 -2922 0
-2922 2820 2923 0
-2922 2820 2805 0
2922 -2820 0
2922 -2805 -2923 0
-2923 2822 2844 0
-2923 2822 2840 0
2923 -2822 0
2923 -2840 -2844 0
-2924 732 2919 0
-2924 -732 -2919 0
2924 -732 2919 0
2924 732 -2919 0
-2925 2802 2922 0
-2925 -2802 -2922 0
2925 -2802 2922 0
2925 2802 -2922 0
-2926 2927 2930 0
-2926 -2927 -2930 0
2926 -2927 2930 0
2926 2927 -2930 0
-2927 842 2928 0
-2927 -842 -2928 0
2927 -842 2928 0
2927 842 -2928 0
-2928 2929 844 0
-2928 2929 846 0
2928 -2929 0
2928 -844 -846 0
2929 -845 -810 0
-2929 845 0
-2929 810 0
-2930 2806 2931 0
-2930 -2806 -2931 0
2930 -2806 2931 0
2930 2806 -2931 0
-2931 2821 2813 0
-2931 2821 2923 0
2931 -2821 0
2931 -2813 -2923 0
-2932 844 846 0
-2932 -844 -846 0
2932 -844 846 0
2932 844 -846 0
-2933 2813 2923 0
-2933 -2813 -2923 0
2933 -2813 2923 0
2933 2813 -2923 0
-2934 2935 2915 2937 0
-2934 2935 2936 2937 0
2934 -2935 0
2934 -2937 0
2934 -2915 -2936 0
-2935 2917 2920 0
-2935 2920 2925 0
-2935 2917 2925 0
-2935 2920 2924 0
-2935 2917 2924 0
2935 -2917 -2920 0
2935 -2917 -2924 -2925 0
2935 -2920 -2924 -2925 0
-2936 2927 2930 0
-2936 2930 2933 0
-2936 2927 2933 0
-2936 2930 2932 0
-2936 2927 2932 0
2936 -2927 -2930 0
2936 -2927 -2932 -2933 0
2936 -2930 -2932 -2933 0
2937 -2914 -2938 0
2937 -2914 -2946 -2948 0
-2937 2914 0
-2937 2938 2946 0
-2937 2938 2948 0
-2938 2939 2941 0
-2938 2941 2945 0
-2938 2939 2945 0
-2938 2941 2944 0
-2938 2939 2944 0
2938 -2939 -2941 0
2938 -2939 -2944 -2945 0
2938 -2941 -2944 -2945 0
-2939 847 2940 0
-2939 -847 -2940 0
2939 -847 2940 0
2939 847 -2940 0
-2940 876 900 0
-2940 876 901 0
2940 -876 0
2940 -900 -901 0
-2941 2832 2942 0
-2941 -2832 -2942 0
2941 -2832 2942 0
2941 2832 -2942 0
-2942 2828 2829 0
-2942 2829 2943 0
-2942 2828 2943 0
2942 -2828 -2943 0
2942 -2829 -2943 0
2942 -2828 -2829 0
-2943 2834 2844 0
-2943 2834 2841 0
2943 -2834 0
2943 -2841 -2844 0
-2944 -900 -901 0
-2944 900 901 0
2944 900 -901 0
2944 -900 901 0
-2945 2833 2943 0
-2945 -2833 -2943 0
2945 -2833 2943 0
2945 2833 -2943 0
2946 -2947 2944 -2945 0
2946 -2947 -2944 2945 0
-2946 2947 0
-2946 2944 2945 0
-2946 -2944 -2945 0
-2947 2939 2941 0
-2947 -2939 -2941 0
2947 -2939 2941 0
2947 2939 -2941 0
-2948 2949 2950 0
-2948 2950 2953 0
-2948 2949 2953 0
-2948 2950 2952 0
-2948 2949 2952 0
2948 -2949 -2950 0
2948 -2949 -2952 -2953 0
2948 -2950 -2952 -2953 0
-2949 -902 -903 0
-2949 902 903 0
2949 902 -903 0
2949 -902 903 0
-2950 2842 2951 0
-2950 -2842 -2951 0
2950 -2842 2951 0
2950 2842 -2951 0
-2951 2837 2843 0
-2951 2837 2844 0
2951 -2837 0
2951 -2843 -2844 0
-2952 -904 -905 0
-2952 904 905 0
2952 904 -905 0
2952 -904 905 0
-2953 2843 2844 0
-2953 -2843 -2844 0
2953 -2843 2844 0
2953 2843 -2844 0
2954 -2946 -2955 -2952 2953 0
2954 -2946 -2955 2952 -2953 0
-2954 2955 0
-2954 -2952 -2953 0
-2954 2946 0
-2954 2952 2953 0
-2955 2949 2950 0
-2955 -2949 -2950 0
2955 -2949 2950 0
2955 2949 -2950 0
-2956 2957 2964 2972 0
-2956 2957 2966 2972 0
2956 -2957 0
2956 -2972 0
2956 -2964 -2966 0
-2957 2958 2959 0
-2957 2959 2963 0
-2957 2958 2963 0
-2957 2959 2962 0
-2957 2958 2962 0
2957 -2958 -2959 0
2957 -2958 -2962 -2963 0
2957 -2959 -2962 -2963 0
-2958 -906 -907 0
-2958 906 907 0
2958 906 -907 0
2958 -906 907 0
-2959 2846 2960 0
-2959 -2846 -2960 0
2959 -2846 2960 0
2959 2846 -2960 0
-2960 2853 2849 0
-2960 2853 2961 0
2960 -2853 0
2960 -2849 -2961 0
-2961 2855 2864 0
-2961 2855 2861 0
2961 -2855 0
2961 -2861 -2864 0
-2962 -908 -909 0
-2962 908 909 0
2962 908 -909 0
2962 -908 909 0
-2963 2849 2961 0
-2963 -2849 -2961 0
2963 -2849 2961 0
2963 2849 -2961 0
2964 -2965 2962 -2963 0
2964 -2965 -2962 2963 0
-2964 2965 0
-2964 2962 2963 0
-2964 -2962 -2963 0
-2965 2958 2959 0
-2965 -2958 -2959 0
2965 -2958 2959 0
2965 2958 -2959 0
-2966 2967 2968 0
-2966 2968 2971 0
-2966 2967 2971 0
-2966 2968 2970 0
-2966 2967 2970 0
2966 -2967 -2968 0
2966 -2967 -2970 -2971 0
2966 -2968 -2970 -2971 0
-2967 -910 -911 0
-2967 910 911 0
2967 910 -911 0
2967 -910 911 0
-2968 2862 2969 0
-2968 -2862 -2969 0
2968 -2862 2969 0
2968 2862 -2969 0
-2969 2858 2863 0
-2969 2858 2864 0
2969 -2858 0
2969 -2863 -2864 0
-2970 -912 -913 0
-2970 912 913 0
2970 912 -913 0
2970 -912 913 0
-2971 2863 2864 0
-2971 -2863 -2864 0
2971 -2863 2864 0
2971 2863 -2864 0
2972 -2964 -2973 -2981 0
2972 -2964 -2973 -2975 0
-2972 2964 0
-2972 2973 0
-2972 2975 2981 0
2973 -2974 2970 -2971 0
2973 -2974 -2970 2971 0
-2973 2974 0
-2973 2970 2971 0
-2973 -2970 -2971 0
-2974 2967 2968 0
-2974 -2967 -2968 0
2974 -2967 2968 0
2974 2967 -2968 0
-2975 2976 2977 0
-2975 2977 2980 0
-2975 2976 2980 0
-2975 2977 2979 0
-2975 2976 2979 0
2975 -2976 -2977 0
2975 -2976 -2979 -2980 0
2975 -2977 -2979 -2980 0
-2976 -914 -916 0
-2976 914 916 0
2976 914 -916 0
2976 -914 916 0
-2977 2865 2978 0
-2977 -2865 -2978 0
2977 -2865 2978 0
2977 2865 -2978 0
-2978 2869 2872 0
-2978 2869 2873 0
2978 -2869 0
2978 -2872 -2873 0
-2979 -917 -919 0
-2979 917 919 0
2979 917 -919 0
2979 -917 919 0
-2980 2872 2873 0
-2980 -2872 -2873 0
2980 -2872 2873 0
2980 2872 -2873 0
2981 -2982 -2979 2980 -2983 0
2981 -2982 2979 -2980 -2983 0
-2981 2983 0
-2981 2979 2980 0
-2981 2982 0
-2981 -2979 -2980 0
-2982 2976 2977 0
-2982 -2976 -2977 0
2982 -2976 2977 0
2982 2976 -2977 0
-2983 2984 2986 0
-2983 2986 2988 0
-2983 2984 2988 0
2983 -2986 -2988 0
2983 -2984 -2986 0
2983 -2984 -2988 0
-2984 -920 -2985 0
-2984 920 2985 0
2984 920 -2985 0
2984 -920 2985 0
2985 -4974 -4982 0
-2985 4974 0
-2985 4982 0
-2986 -2987 -2878 0
-2986 2987 2878 0
2986 2987 -2878 0
2986 -2987 2878 0
-2987 2874 2876 0
-2987 -2874 -2876 0
2987 -2874 2876 0
2987 2874 -2876 0
2988 2879 -2880 -2989 0
2988 -2879 2880 -2989 0
-2988 2989 0
-2988 2879 2880 0
-2988 -2879 -2880 0
2989 -4982 -5013 0
-2989 4982 0
-2989 5013 0
-2990 2991 4727 0
-2990 -2991 -4727 0
2990 -2991 4727 0
2990 2991 -4727 0
-2991 2992 4635 0
-2991 -2992 -4635 0
2991 -2992 4635 0
2991 2992 -4635 0
-2992 2993 3541 0
-2992 3541 4088 0
-2992 2993 4088 0
2992 -2993 -4088 0
2992 -3541 -4088 0
2992 -2993 -3541 0
-2993 2994 3127 0
-2993 -2994 -3127 0
2993 -2994 3127 0
2993 2994 -3127 0
-2994 -2995 -3100 0
-2994 2995 3100 0
2994 2995 -3100 0
2994 -2995 3100 0
2995 -2996 3025 0
2995 3025 -3073 0
2995 -2996 -3073 0
-2995 2996 3073 0
-2995 -3025 3073 0
-2995 2996 -3025 0
2996 -1983 2997 0
2996 1983 -2997 0
-2996 1983 2997 0
-2996 -1983 -2997 0
-2997 2998 3011 0
-2997 -2998 -3011 0
2997 -2998 3011 0
2997 2998 -3011 0
-2998 2999 3007 0
-2998 -2999 -3007 0
2998 -2999 3007 0
2998 2999 -3007 0
-2999 3000 3003 0
-2999 -3000 -3003 0
2999 -3000 3003 0
2999 3000 -3003 0
-3000 -5019 -3001 0
-3000 5019 3001 0
3000 5019 -3001 0
3000 -5019 3001 0
3001 -5021 -3002 0
-3001 5021 0
-3001 3002 0
-3002 -4954 -5019 0
-3002 5014 5019 0
-3002 4954 -5014 0
3002 -4954 -5014 5019 0
3002 4954 5014 -5019 0
-3003 5004 3004 0
-3003 -5004 -3004 0
3003 -5004 3004 0
3003 5004 -3004 0
-3004 3005 3006 0
-3004 4948 5007 0
-3004 5007 3006 0
-3004 4948 3005 0
3004 -5007 -3005 0
3004 -4948 -3006 0
3005 5019 -5020 0
3005 -5019 5020 0
-3005 -5019 -5020 0
-3005 5019 5020 0
-3006 -5019 5020 0
-3006 -5004 -5020 0
-3006 5004 5019 0
3006 5004 -5019 -5020 0
3006 -5004 5019 5020 0
-3007 5016 3008 0
-3007 -5016 -3008 0
3007 -5016 3008 0
3007 5016 -3008 0
-3008 3009 3010 0
-3008 5022 5032 0
-3008 5032 3010 0
-3008 5022 3009 0
3008 -5032 -3009 0
3008 -5022 -3010 0
3009 4951 -5004 0
3009 -4951 5004 0
-3009 -4951 -5004 0
-3009 4951 5004 0
-3010 -4951 -5016 0
-3010 5004 5016 0
-3010 4951 -5004 0
3010 -4951 -5004 5016 0
3010 4951 5004 -5016 0
-3011 3012 3021 0
-3011 -3012 -3021 0
3011 -3012 3021 0
3011 3012 -3021 0
-3012 3013 3017 0
-3012 -3013 -3017 0
3012 -3013 3017 0
3012 3013 -3017 0
-3013 5023 3014 0
-3013 -5023 -3014 0
3013 -5023 3014 0
3013 5023 -3014 0
-3014 3015 3016 0
-3014 5024 5026 0
-3014 5024 3016 0
-3014 5026 3015 0
3014 -5024 -3015 0
3014 -5026 -3016 0
3015 4988 -5016 0
3015 -4988 5016 0
-3015 -4988 -5016 0
-3015 4988 5016 0
-3016 -4988 -5023 0
-3016 5016 5023 0
-3016 4988 -5016 0
3016 -4988 -5016 5023 0
3016 4988 5016 -5023 0
-3017 5011 3018 0
-3017 -5011 -3018 0
3017 -5011 3018 0
3017 5011 -3018 0
-3018 3019 3020 0
-3018 4968 5027 0
-3018 5027 3020 0
-3018 4968 3019 0
3018 -5027 -3019 0
3018 -4968 -3020 0
3019 5023 -5025 0
3019 -5023 5025 0
-3019 -5023 -5025 0
-3019 5023 5025 0
-3020 -5023 5025 0
-3020 -5011 -5025 0
-3020 5011 5023 0
3020 5011 -5023 -5025 0
3020 -5011 5023 5025 0
-3021 4994 3022 0
-3021 -4994 -3022 0
3021 -4994 3022 0
3021 4994 -3022 0
-3022 3023 3024 0
-3022 5010 5029 0
-3022 5010 3024 0
-3022 5029 3023 0
3022 -5010 -3023 0
3022 -5029 -3024 0
3023 5011 -5028 0
3023 -5011 5028 0
-3023 -5011 -5028 0
-3023 5011 5028 0
-3024 -5011 5028 0
-3024 -4994 -5028 0
-3024 4994 5011 0
3024 4994 -5011 -5028 0
3024 -4994 5011 5028 0
-3025 3026 3047 0
-3025 3047 3068 0
-3025 3026 3068 0
3025 -3026 -3068 0
3025 -3047 -3068 0
3025 -3026 -3047 0
-3026 3027 3035 0
-3026 3035 3042 0
-3026 3027 3042 0
3026 -3027 -3042 0
3026 -3035 -3042 0
3026 -3027 -3035 0
-3027 4958 3028 0
-3027 3028 3032 0
-3027 4958 3032 0
3027 -3028 -3032 0
3027 -4958 -3028 0
3027 -4958 -3032 0
-3028 5014 3029 0
-3028 -5014 -3029 0
3028 -5014 3029 0
3028 5014 -3029 0
-3029 3030 3031 0
-3029 5007 5021 0
-3029 5021 3031 0
-3029 5007 3030 0
3029 -5021 -3030 0
3029 -5007 -3031 0
3030 4958 -5018 0
3030 -4958 5018 0
-3030 -4958 -5018 0
-3030 4958 5018 0
-3031 -4958 -5014 0
-3031 5014 5018 0
-3031 4958 -5018 0
3031 4958 -5014 5018 0
3031 -4958 5014 -5018 0
-3032 5019 3033 0
-3032 -5019 -3033 0
3032 -5019 3033 0
3032 5019 -3033 0
-3033 4948 5032 0
-3033 3002 3034 0
-3033 5032 3034 0
-3033 4948 3002 0
3033 -4948 -3034 0
3033 -5032 -3002 0
3034 4954 -5014 0
3034 -4954 5014 0
-3034 -4954 -5014 0
-3034 4954 5014 0
-3035 3036 3038 0
-3035 3038 3040 0
-3035 3036 3040 0
3035 -3036 -3040 0
3035 -3038 -3040 0
3035 -3036 -3038 0
-3036 5004 3037 0
-3036 -5004 -3037 0
3036 -5004 3037 0
3036 5004 -3037 0
-3037 3005 3006 0
-3037 5022 5024 0
-3037 5022 3006 0
-3037 5024 3005 0
3037 -5022 -3005 0
3037 -5024 -3006 0
-3038 5016 3039 0
-3038 -5016 -3039 0
3038 -5016 3039 0
3038 5016 -3039 0
-3039 3009 3010 0
-3039 5026 5027 0
-3039 5026 3010 0
-3039 5027 3009 0
3039 -5026 -3009 0
3039 -5027 -3010 0
-3040 5023 3041 0
-3040 -5023 -3041 0
3040 -5023 3041 0
3040 5023 -3041 0
-3041 3015 3016 0
-3041 4968 5010 0
-3041 4968 3016 0
-3041 5010 3015 0
3041 -4968 -3015 0
3041 -5010 -3016 0
-3042 2168 3043 0
-3042 3043 3045 0
-3042 2168 3045 0
3042 -3043 -3045 0
3042 -2168 -3043 0
3042 -2168 -3045 0
-3043 5011 3044 0
-3043 -5011 -3044 0
3043 -5011 3044 0
3043 5011 -3044 0
-3044 3019 3020 0
-3044 5029 5030 0
-3044 5029 3020 0
-3044 5030 3019 0
3044 -5029 -3019 0
3044 -5030 -3020 0
-3045 4994 3046 0
-3045 -4994 -3046 0
3045 -4994 3046 0
3045 4994 -3046 0
-3046 3023 3024 0
-3046 5017 5031 0
-3046 5031 3024 0
-3046 5017 3023 0
3046 -5031 -3023 0
3046 -5017 -3024 0
-3047 3048 3054 0
-3047 3054 3062 0
-3047 3048 3062 0
3047 -3048 -3062 0
3047 -3054 -3062 0
3047 -3048 -3054 0
-3048 3049 3052 0
-3048 -3049 -3052 0
3048 -3049 3052 0
3048 3049 -3052 0
-3049 4958 3050 0
-3049 -4958 -3050 0
3049 -4958 3050 0
3049 4958 -3050 0
-3050 -5014 -3051 0
-3050 5014 3051 0
3050 5014 -3051 0
3050 -5014 3051 0
3051 -5021 -3031 0
-3051 5021 0
-3051 3031 0
-3052 5019 3053 0
-3052 -5019 -3053 0
3052 -5019 3053 0
3052 5019 -3053 0
-3053 4948 5007 0
-3053 3002 3034 0
-3053 5007 3002 0
-3053 4948 3034 0
3053 -4948 -3002 0
3053 -5007 -3034 0
-3054 3055 3060 0
-3054 -3055 -3060 0
3054 -3055 3060 0
3054 3055 -3060 0
-3055 3056 3058 0
-3055 -3056 -3058 0
3055 -3056 3058 0
3055 3056 -3058 0
-3056 5004 3057 0
-3056 -5004 -3057 0
3056 -5004 3057 0
3056 5004 -3057 0
-3057 3005 3006 0
-3057 5022 5032 0
-3057 5032 3006 0
-3057 5022 3005 0
3057 -5032 -3005 0
3057 -5022 -3006 0
-3058 5016 3059 0
-3058 -5016 -3059 0
3058 -5016 3059 0
3058 5016 -3059 0
-3059 3009 3010 0
-3059 5024 5026 0
-3059 5024 3010 0
-3059 5026 3009 0
3059 -5024 -3009 0
3059 -5026 -3010 0
-3060 5023 3061 0
-3060 -5023 -3061 0
3060 -5023 3061 0
3060 5023 -3061 0
-3061 3015 3016 0
-3061 4968 5027 0
-3061 5027 3016 0
-3061 4968 3015 0
3061 -5027 -3015 0
3061 -4968 -3016 0
-3062 2103 3063 0
-3062 -2103 -3063 0
3062 -2103 3063 0
3062 2103 -3063 0
-3063 3064 3066 0
-3063 -3064 -3066 0
3063 -3064 3066 0
3063 3064 -3066 0
-3064 5011 3065 0
-3064 -5011 -3065 0
3064 -5011 3065 0
3064 5011 -3065 0
-3065 3019 3020 0
-3065 5010 5029 0
-3065 5010 3020 0
-3065 5029 3019 0
3065 -5010 -3019 0
3065 -5029 -3020 0
-3066 4994 3067 0
-3066 -4994 -3067 0
3066 -4994 3067 0
3066 4994 -3067 0
-3067 3023 3024 0
-3067 5030 5031 0
-3067 5030 3024 0
-3067 5031 3023 0
3067 -5030 -3023 0
3067 -5031 -3024 0
-3068 3069 3072 0
-3068 -3069 -3072 0
3068 -3069 3072 0
3068 3069 -3072 0
-3069 3070 3071 0
-3069 -3070 -3071 0
3069 -3070 3071 0
3069 3070 -3071 0
-3070 4958 3050 0
-3070 3050 3052 0
-3070 4958 3052 0
3070 -3050 -3052 0
3070 -4958 -3050 0
3070 -4958 -3052 0
-3071 3056 3058 0
-3071 3058 3060 0
-3071 3056 3060 0
3071 -3056 -3060 0
3071 -3058 -3060 0
3071 -3056 -3058 0
-3072 2103 3064 0
-3072 3064 3066 0
-3072 2103 3066 0
3072 -3064 -3066 0
3072 -2103 -3064 0
3072 -2103 -3066 0
3073 3074 -3095 0
3073 -3074 3095 0
-3073 -3074 -3095 0
-3073 3074 3095 0
-3074 3075 3076 0
-3074 -3075 -3076 0
3074 -3075 3076 0
3074 3075 -3076 0
-3075 3070 3071 0
-3075 3071 3072 0
-3075 3070 3072 0
3075 -3070 -3072 0
3075 -3071 -3072 0
3075 -3070 -3071 0
-3076 3077 3081 0
-3076 3081 3089 0
-3076 3077 3089 0
3076 -3077 -3089 0
3076 -3081 -3089 0
3076 -3077 -3081 0
-3077 3078 3079 0
-3077 -3078 -3079 0
3077 -3078 3079 0
3077 3078 -3079 0
-3078 -4958 -5014 0
-3078 4958 5014 0
3078 4958 -5014 0
3078 -4958 5014 0
-3079 5019 3080 0
-3079 -5019 -3080 0
3079 -5019 3080 0
3079 5019 -3080 0
-3080 5007 5021 0
-3080 3002 3034 0
-3080 5021 3002 0
-3080 5007 3034 0
3080 -5007 -3002 0
3080 -5021 -3034 0
-3081 3082 3087 0
-3081 -3082 -3087 0
3081 -3082 3087 0
3081 3082 -3087 0
-3082 3083 3085 0
-3082 -3083 -3085 0
3082 -3083 3085 0
3082 3083 -3085 0
-3083 5004 3084 0
-3083 -5004 -3084 0
3083 -5004 3084 0
3083 5004 -3084 0
-3084 3005 3006 0
-3084 4948 5032 0
-3084 4948 3006 0
-3084 5032 3005 0
3084 -4948 -3005 0
3084 -5032 -3006 0
-3085 5016 3086 0
-3085 -5016 -3086 0
3085 -5016 3086 0
3085 5016 -3086 0
-3086 3009 3010 0
-3086 5022 5024 0
-3086 5022 3010 0
-3086 5024 3009 0
3086 -5022 -3009 0
3086 -5024 -3010 0
-3087 5023 3088 0
-3087 -5023 -3088 0
3087 -5023 3088 0
3087 5023 -3088 0
-3088 3015 3016 0
-3088 5026 5027 0
-3088 5026 3016 0
-3088 5027 3015 0
3088 -5026 -3015 0
3088 -5027 -3016 0
-3089 2040 3090 0
-3089 -2040 -3090 0
3089 -2040 3090 0
3089 2040 -3090 0
-3090 3091 3093 0
-3090 -3091 -3093 0
3090 -3091 3093 0
3090 3091 -3093 0
-3091 5011 3092 0
-3091 -5011 -3092 0
3091 -5011 3092 0
3091 5011 -3092 0
-3092 3019 3020 0
-3092 4968 5010 0
-3092 4968 3020 0
-3092 5010 3019 0
3092 -4968 -3019 0
3092 -5010 -3020 0
-3093 4994 3094 0
-3093 -4994 -3094 0
3093 -4994 3094 0
3093 4994 -3094 0
-3094 3023 3024 0
-3094 5029 5030 0
-3094 5029 3024 0
-3094 5030 3023 0
3094 -5029 -3023 0
3094 -5030 -3024 0
3095 -3096 3099 0
3095 3096 -3099 0
-3095 3096 3099 0
-3095 -3096 -3099 0
3096 -3097 3098 0
3096 3097 -3098 0
-3096 3097 3098 0
-3096 -3097 -3098 0
3097 -4958 -5014 0
3097 -5014 3079 0
3097 -4958 3079 0
-3097 4958 -3079 0
-3097 5014 -3079 0
-3097 4958 5014 0
-3098 3083 3085 0
-3098 3085 3087 0
-3098 3083 3087 0
3098 -3083 -3087 0
3098 -3085 -3087 0
3098 -3083 -3085 0
-3099 4994 3093 0
-3099 3091 3093 0
-3099 4994 3091 0
-3099 5031 3093 0
-3099 5031 3091 0
3099 -3091 -3093 0
3099 -4994 -5031 -3093 0
3099 -4994 -5031 -3091 0
3100 -3101 3119 0
3100 3101 -3119 0
-3100 3101 3119 0
-3100 -3101 -3119 0
3101 -3102 3118 0
3101 3102 -3118 0
-3101 3102 3118 0
-3101 -3102 -3118 0
3102 -3103 3110 0
3102 3103 -3110 0
-3102 3103 3110 0
-3102 -3103 -3110 0
3103 1983 -3104 0
3103 -1983 3104 0
-3103 -1983 -3104 0
-3103 1983 3104 0
3104 -3105 3108 0
3104 3105 -3108 0
-3104 3105 3108 0
-3104 -3105 -3108 0
3105 -5019 3106 0
3105 5019 -3106 0
-3105 5019 3106 0
-3105 -5019 -3106 0
-3106 5004 3107 0
-3106 -5004 -3107 0
3106 -5004 3107 0
3106 5004 -3107 0
-3107 3005 3006 0
-3107 5007 5021 0
-3107 5021 3006 0
-3107 5007 3005 0
3107 -5021 -3005 0
3107 -5007 -3006 0
-3108 5016 3109 0
-3108 -5016 -3109 0
3108 -5016 3109 0
3108 5016 -3109 0
-3109 3009 3010 0
-3109 4948 5032 0
-3109 4948 3010 0
-3109 5032 3009 0
3109 -4948 -3009 0
3109 -5032 -3010 0
-3110 3111 3116 0
-3110 -3111 -3116 0
3110 -3111 3116 0
3110 3111 -3116 0
-3111 3112 3114 0
-3111 -3112 -3114 0
3111 -3112 3114 0
3111 3112 -3114 0
-3112 5023 3113 0
-3112 -5023 -3113 0
3112 -5023 3113 0
3112 5023 -3113 0
-3113 3015 3016 0
-3113 5022 5024 0
-3113 5022 3016 0
-3113 5024 3015 0
3113 -5022 -3015 0
3113 -5024 -3016 0
-3114 5011 3115 0
-3114 -5011 -3115 0
3114 -5011 3115 0
3114 5011 -3115 0
-3115 3019 3020 0
-3115 5026 5027 0
-3115 5026 3020 0
-3115 5027 3019 0
3115 -5026 -3019 0
3115 -5027 -3020 0
-3116 4994 3117 0
-3116 -4994 -3117 0
3116 -4994 3117 0
3116 4994 -3117 0
-3117 3023 3024 0
-3117 4968 5010 0
-3117 4968 3024 0
-3117 5010 3023 0
3117 -4968 -3023 0
3117 -5010 -3024 0
-3118 3075 3076 0
-3118 3076 -3095 0
-3118 3075 -3095 0
3118 -3075 3095 0
3118 -3076 3095 0
3118 -3075 -3076 0
-3119 3120 3123 0
-3119 -3120 -3123 0
3119 -3120 3123 0
3119 3120 -3123 0
-3120 3121 3122 0
-3120 -3121 -3122 0
3120 -3121 3122 0
3120 3121 -3122 0
-3121 -3097 3098 0
-3121 3098 3099 0
-3121 -3097 3099 0
3121 3097 -3099 0
3121 -3098 -3099 0
3121 3097 -3098 0
-3122 -1983 2998 0
-3122 2998 3011 0
-3122 -1983 3011 0
3122 1983 -3011 0
3122 -2998 -3011 0
3122 1983 -2998 0
-3123 3124 3126 0
-3123 -3124 -3126 0
3123 -3124 3126 0
3123 3124 -3126 0
-3124 1935 3125 0
-3124 -1935 -3125 0
3124 -1935 3125 0
3124 1935 -3125 0
-3125 3000 3003 0
-3125 3003 3007 0
-3125 3000 3007 0
3125 -3000 -3007 0
3125 -3003 -3007 0
3125 -3000 -3003 0
-3126 3013 3017 0
-3126 3017 3021 0
-3126 3013 3021 0
3126 -3013 -3021 0
3126 -3017 -3021 0
3126 -3013 -3017 0
-3127 3128 3165 0
-3127 3128 3166 0
3127 -3128 0
3127 -3165 -3166 0
3128 -3129 -3163 0
-3128 3129 0
-3128 3163 0
-3129 3130 3132 0
-3129 3132 3161 0
-3129 3130 3161 0
3129 -3130 -3161 0
3129 -3132 -3161 0
3129 -3130 -3132 0
-3130 3089 3131 0
-3130 -3089 -3131 0
3130 -3089 3131 0
3130 3089 -3131 0
-3131 3077 3081 0
-3131 -3077 -3081 0
3131 -3077 3081 0
3131 3077 -3081 0
-3132 3133 3152 0
-3132 3152 3159 0
-3132 3133 3159 0
3132 -3133 -3159 0
3132 -3152 -3159 0
3132 -3133 -3152 0
-3133 3134 3140 0
-3133 3140 3147 0
-3133 3134 3147 0
3133 -3134 -3147 0
3133 -3140 -3147 0
3133 -3134 -3140 0
-3134 3135 3137 0
-3134 5019 3135 3139 0
-3134 -5019 3137 -3139 0
-3134 -5019 3135 -3139 0
-3134 5019 3137 3139 0
3134 -3135 -3137 0
3134 -5019 -3137 3139 0
3134 5019 -3135 -3139 0
3134 5019 -3137 -3139 0
3134 -5019 -3135 3139 0
-3135 3136 0
3135 -3136 0
3136 -4958 -5008 0
3136 -4958 5021 0
-3136 4958 0
-3136 5008 -5021 0
-3137 5014 3138 0
-3137 -5014 -3138 0
3137 -5014 3138 0
3137 5014 -3138 0
-3138 3030 3031 0
-3138 4948 5007 0
-3138 5007 3031 0
-3138 4948 3030 0
3138 -5007 -3030 0
3138 -4948 -3031 0
-3139 5022 5032 0
-3139 3002 3034 0
-3139 5032 3002 0
-3139 5022 3034 0
3139 -5022 -3002 0
3139 -5032 -3034 0
-3140 3141 3143 0
-3140 3143 3145 0
-3140 3141 3145 0
3140 -3141 -3145 0
3140 -3143 -3145 0
3140 -3141 -3143 0
-3141 5004 3142 0
-3141 -5004 -3142 0
3141 -5004 3142 0
3141 5004 -3142 0
-3142 3005 3006 0
-3142 5024 5026 0
-3142 5024 3006 0
-3142 5026 3005 0
3142 -5024 -3005 0
3142 -5026 -3006 0
-3143 5016 3144 0
-3143 -5016 -3144 0
3143 -5016 3144 0
3143 5016 -3144 0
-3144 3009 3010 0
-3144 4968 5027 0
-3144 5027 3010 0
-3144 4968 3009 0
3144 -5027 -3009 0
3144 -4968 -3010 0
-3145 5023 3146 0
-3145 -5023 -3146 0
3145 -5023 3146 0
3145 5023 -3146 0
-3146 3015 3016 0
-3146 5010 5029 0
-3146 5010 3016 0
-3146 5029 3015 0
3146 -5010 -3015 0
3146 -5029 -3016 0
-3147 2236 3148 0
-3147 3148 3150 0
-3147 2236 3150 0
3147 -3148 -3150 0
3147 -2236 -3148 0
3147 -2236 -3150 0
-3148 5011 3149 0
-3148 -5011 -3149 0
3148 -5011 3149 0
3148 5011 -3149 0
-3149 3019 3020 0
-3149 5030 5031 0
-3149 5030 3020 0
-3149 5031 3019 0
3149 -5030 -3019 0
3149 -5031 -3020 0
-3150 4994 3151 0
-3150 -4994 -3151 0
3150 -4994 3151 0
3150 4994 -3151 0
-3151 3023 3024 0
-3151 5012 5017 0
-3151 5017 3024 0
-3151 5012 3023 0
3151 -5017 -3023 0
3151 -5012 -3024 0
-3152 3153 3155 0
-3152 3155 3157 0
-3152 3153 3157 0
3152 -3153 -3157 0
3152 -3155 -3157 0
3152 -3153 -3155 0
-3153 3032 3154 0
-3153 -3032 -3154 0
3153 -3032 3154 0
3153 3032 -3154 0
-3154 4958 3028 0
-3154 -4958 -3028 0
3154 -4958 3028 0
3154 4958 -3028 0
-3155 3040 3156 0
-3155 -3040 -3156 0
3155 -3040 3156 0
3155 3040 -3156 0
-3156 3036 3038 0
-3156 -3036 -3038 0
3156 -3036 3038 0
3156 3036 -3038 0
-3157 2168 3158 0
-3157 -2168 -3158 0
3157 -2168 3158 0
3157 2168 -3158 0
-3158 3043 3045 0
-3158 -3043 -3045 0
3158 -3043 3045 0
3158 3043 -3045 0
-3159 3042 3160 0
-3159 -3042 -3160 0
3159 -3042 3160 0
3159 3042 -3160 0
-3160 3027 3035 0
-3160 -3027 -3035 0
3160 -3027 3035 0
3160 3027 -3035 0
-3161 3068 3162 0
-3161 -3068 -3162 0
3161 -3068 3162 0
3161 3068 -3162 0
-3162 3026 3047 0
-3162 -3026 -3047 0
3162 -3026 3047 0
3162 3026 -3047 0
-3163 -3073 -3164 0
-3163 3073 3164 0
3163 3073 -3164 0
3163 -3073 3164 0
3164 -2996 3025 0
3164 2996 -3025 0
-3164 2996 3025 0
-3164 -2996 -3025 0
-3165 3129 3163 0
-3165 -3129 -3163 0
3165 -3129 3163 0
3165 3129 -3163 0
-3166 3167 3244 0
-3166 3244 3306 0
-3166 3244 3309 0
3166 -3244 0
3166 -3167 -3306 -3309 0
3167 -3168 -3211 0
-3167 3168 0
-3167 3211 0
-3168 3169 3209 0
-3168 -3169 -3209 0
3168 -3169 3209 0
3168 3169 -3209 0
-3169 3170 3172 0
-3169 3172 3207 0
-3169 3170 3207 0
3169 -3170 -3207 0
3169 -3172 -3207 0
3169 -3170 -3172 0
-3170 3062 3171 0
-3170 -3062 -3171 0
3170 -3062 3171 0
3170 3062 -3171 0
-3171 3048 3054 0
-3171 -3048 -3054 0
3171 -3048 3054 0
3171 3048 -3054 0
-3172 3173 3196 0
-3172 3196 3205 0
-3172 3173 3205 0
3172 -3173 -3205 0
3172 -3196 -3205 0
3172 -3173 -3196 0
-3173 3174 3182 0
-3173 3182 3189 0
-3173 3174 3189 0
3173 -3174 -3189 0
3173 -3182 -3189 0
3173 -3174 -3182 0
-3174 3175 3178 0
-3174 3178 3180 0
-3174 3175 3180 0
3174 -3175 -3180 0
3174 -3178 -3180 0
3174 -3175 -3178 0
-3175 4958 3176 0
-3175 -4958 -3176 0
3175 -4958 3176 0
3175 4958 -3176 0
-3176 2065 3177 0
-3176 5007 2065 0
3176 -2065 0
3176 -5007 -3177 0
3177 -4958 5008 0
-3177 4958 0
-3177 -5008 0
-3178 5014 3179 0
-3178 -5014 -3179 0
3178 -5014 3179 0
3178 5014 -3179 0
-3179 3030 3031 0
-3179 4948 5032 0
-3179 4948 3031 0
-3179 5032 3030 0
3179 -4948 -3030 0
3179 -5032 -3031 0
-3180 5019 3181 0
-3180 -5019 -3181 0
3180 -5019 3181 0
3180 5019 -3181 0
-3181 5022 5024 0
-3181 3002 3034 0
-3181 5024 3034 0
-3181 5022 3002 0
3181 -5022 -3034 0
3181 -5024 -3002 0
-3182 3183 3185 0
-3182 3185 3187 0
-3182 3183 3187 0
3182 -3183 -3187 0
3182 -3185 -3187 0
3182 -3183 -3185 0
-3183 5004 3184 0
-3183 -5004 -3184 0
3183 -5004 3184 0
3183 5004 -3184 0
-3184 3005 3006 0
-3184 5026 5027 0
-3184 5026 3006 0
-3184 5027 3005 0
3184 -5026 -3005 0
3184 -5027 -3006 0
-3185 5016 3186 0
-3185 -5016 -3186 0
3185 -5016 3186 0
3185 5016 -3186 0
-3186 3009 3010 0
-3186 4968 5010 0
-3186 4968 3010 0
-3186 5010 3009 0
3186 -4968 -3009 0
3186 -5010 -3010 0
-3187 5023 3188 0
-3187 -5023 -3188 0
3187 -5023 3188 0
3187 5023 -3188 0
-3188 3015 3016 0
-3188 5029 5030 0
-3188 5029 3016 0
-3188 5030 3015 0
3188 -5029 -3015 0
3188 -5030 -3016 0
-3189 3190 3192 0
-3189 3192 3194 0
-3189 3190 3194 0
3189 -3192 -3194 0
3189 -3190 -3192 0
3189 -3190 -3194 0
-3190 5011 3191 0
-3190 -5011 -3191 0
3190 -5011 3191 0
3190 5011 -3191 0
-3191 3019 3020 0
-3191 5017 5031 0
-3191 5031 3020 0
-3191 5017 3019 0
3191 -5031 -3019 0
3191 -5017 -3020 0
-3192 4994 3193 0
-3192 -4994 -3193 0
3192 -4994 3193 0
3192 4994 -3193 0
-3193 3023 3024 0
-3193 4955 5012 0
-3193 5012 3024 0
-3193 4955 3023 0
3193 -5012 -3023 0
3193 -4955 -3024 0
3194 -4994 3195 0
-3194 4994 0
-3194 -3195 0
3195 -4955 -3023 0
-3195 4955 0
-3195 3023 0
-3196 3200 3202 0
-3196 3197 3204 0
-3196 3197 3202 0
-3196 3200 3204 0
3196 -3202 -3204 0
3196 -3197 -3200 0
-3197 3198 3199 0
-3197 -3198 -3199 0
3197 -3198 3199 0
3197 3198 -3199 0
-3198 5019 3139 0
-3198 -5019 -3139 0
3198 -5019 3139 0
3198 5019 -3139 0
-3199 3135 3137 0
-3199 -3135 -3137 0
3199 -3135 3137 0
3199 3135 -3137 0
-3200 3145 3201 0
-3200 -3145 -3201 0
3200 -3145 3201 0
3200 3145 -3201 0
-3201 3141 3143 0
-3201 -3141 -3143 0
3201 -3141 3143 0
3201 3141 -3143 0
-3202 2236 3203 0
-3202 -2236 -3203 0
3202 -2236 3203 0
3202 2236 -3203 0
-3203 3148 3150 0
-3203 -3148 -3150 0
3203 -3148 3150 0
3203 3148 -3150 0
-3204 3197 3200 0
-3204 -3197 -3200 0
3204 -3197 3200 0
3204 3197 -3200 0
-3205 3147 3206 0
-3205 -3147 -3206 0
3205 -3147 3206 0
3205 3147 -3206 0
-3206 3134 3140 0
-3206 -3134 -3140 0
3206 -3134 3140 0
3206 3134 -3140 0
-3207 3159 3208 0
-3207 -3159 -3208 0
3207 -3159 3208 0
3207 3159 -3208 0
-3208 3133 3152 0
-3208 -3133 -3152 0
3208 -3133 3152 0
3208 3133 -3152 0
-3209 3161 3210 0
-3209 -3161 -3210 0
3209 -3161 3210 0
3209 3161 -3210 0
-3210 3130 3132 0
-3210 -3130 -3132 0
3210 -3130 3132 0
3210 3130 -3132 0
-3211 3212 3242 0
-3211 -3212 -3242 0
3211 -3212 3242 0
3211 3212 -3242 0
-3212 3213 3215 0
-3212 3215 3240 0
-3212 3213 3240 0
3212 -3213 -3240 0
3212 -3215 -3240 0
3212 -3213 -3215 0
-3213 3157 3214 0
-3213 -3157 -3214 0
3213 -3157 3214 0
3213 3157 -3214 0
-3214 3153 3155 0
-3214 -3153 -3155 0
3214 -3153 3155 0
3214 3153 -3155 0
-3215 3216 3238 0
-3215 3216 3233 0
-3215 3233 3238 0
3215 -3233 -3238 0
3215 -3216 -3238 0
3215 -3216 -3233 0
-3216 3217 3224 0
-3216 3224 3231 0
-3216 3217 3231 0
3216 -3217 -3231 0
3216 -3224 -3231 0
3216 -3217 -3224 0
-3217 3218 3220 0
-3217 3220 3222 0
-3217 3218 3222 0
3217 -3218 -3222 0
3217 -3220 -3222 0
3217 -3218 -3220 0
-3218 4958 3219 0
-3218 -4958 -3219 0
3218 -4958 3219 0
3218 4958 -3219 0
-3219 2130 3177 0
-3219 4948 2130 0
3219 -2130 0
3219 -4948 -3177 0
-3220 5014 3221 0
-3220 -5014 -3221 0
3220 -5014 3221 0
3220 5014 -3221 0
-3221 3030 3031 0
-3221 5022 5032 0
-3221 5032 3031 0
-3221 5022 3030 0
3221 -5032 -3030 0
3221 -5022 -3031 0
-3222 5019 3223 0
-3222 -5019 -3223 0
3222 -5019 3223 0
3222 5019 -3223 0
-3223 5024 5026 0
-3223 3002 3034 0
-3223 5026 3034 0
-3223 5024 3002 0
3223 -5024 -3034 0
3223 -5026 -3002 0
-3224 3225 3227 0
-3224 3227 3229 0
-3224 3225 3229 0
3224 -3225 -3229 0
3224 -3227 -3229 0
3224 -3225 -3227 0
-3225 5004 3226 0
-3225 -5004 -3226 0
3225 -5004 3226 0
3225 5004 -3226 0
-3226 3005 3006 0
-3226 4968 5027 0
-3226 5027 3006 0
-3226 4968 3005 0
3226 -5027 -3005 0
3226 -4968 -3006 0
-3227 5016 3228 0
-3227 -5016 -3228 0
3227 -5016 3228 0
3227 5016 -3228 0
-3228 3009 3010 0
-3228 5010 5029 0
-3228 5010 3010 0
-3228 5029 3009 0
3228 -5010 -3009 0
3228 -5029 -3010 0
-3229 5023 3230 0
-3229 -5023 -3230 0
3229 -5023 3230 0
3229 5023 -3230 0
-3230 3015 3016 0
-3230 5030 5031 0
-3230 5030 3016 0
-3230 5031 3015 0
3230 -5030 -3015 0
3230 -5031 -3016 0
-3231 3180 3232 0
-3231 -3180 -3232 0
3231 -3180 3232 0
3231 3180 -3232 0
-3232 3175 3178 0
-3232 -3175 -3178 0
3232 -3175 3178 0
3232 3175 -3178 0
3233 -3234 -3236 0
-3233 3234 0
-3233 3236 0
-3234 3187 3235 0
-3234 -3187 -3235 0
3234 -3187 3235 0
3234 3187 -3235 0
-3235 3183 3185 0
-3235 -3183 -3185 0
3235 -3183 3185 0
3235 3183 -3185 0
-3236 3194 3237 0
-3236 -3194 -3237 0
3236 -3194 3237 0
3236 3194 -3237 0
-3237 3190 3192 0
-3237 -3190 -3192 0
3237 -3190 3192 0
3237 3190 -3192 0
-3238 3189 3239 0
-3238 -3189 -3239 0
3238 -3189 3239 0
3238 3189 -3239 0
-3239 3174 3182 0
-3239 -3174 -3182 0
3239 -3174 3182 0
3239 3174 -3182 0
-3240 3205 3241 0
-3240 -3205 -3241 0
3240 -3205 3241 0
3240 3205 -3241 0
-3241 3173 3196 0
-3241 -3173 -3196 0
3241 -3173 3196 0
3241 3173 -3196 0
-3242 3207 3243 0
-3242 -3207 -3243 0
3242 -3207 3243 0
3242 3207 -3243 0
-3243 3170 3172 0
-3243 -3170 -3172 0
3243 -3170 3172 0
3243 3170 -3172 0
-3244 3169 3209 3246 0
-3244 3169 3245 3246 0
-3244 3209 3245 3246 0
3244 -3209 -3245 0
3244 -3169 -3209 0
3244 -3246 0
3244 -3169 -3245 0
3245 -3212 -3242 0
-3245 3212 0
-3245 3242 0
3246 -3167 -3247 0
-3246 3167 0
-3246 3247 0
-3247 3248 3277 0
-3247 3277 3279 0
-3247 3248 3279 0
3247 -3277 -3279 0
3247 -3248 -3277 0
3247 -3248 -3279 0
-3248 3249 3250 0
-3248 3250 3275 0
-3248 3249 3275 0
3248 -3249 -3275 0
3248 -3250 -3275 0
3248 -3249 -3250 0
-3249 3202 3204 0
-3249 -3202 -3204 0
3249 -3202 3204 0
3249 3202 -3204 0
-3250 3251 3261 0
-3250 3261 3273 0
-3250 3251 3273 0
3250 -3251 -3273 0
3250 -3261 -3273 0
3250 -3251 -3261 0
-3251 3195 3252 0
-3251 3252 3254 0
-3251 3195 3254 0
3251 -3252 -3254 0
3251 -3195 -3252 0
3251 -3195 -3254 0
-3252 5011 3253 0
-3252 -5011 -3253 0
3252 -5011 3253 0
3252 5011 -3253 0
-3253 3019 3020 0
-3253 5012 5017 0
-3253 5017 3020 0
-3253 5012 3019 0
3253 -5017 -3019 0
3253 -5012 -3020 0
-3254 3255 3257 0
-3254 3257 3259 0
-3254 3255 3259 0
3254 -3255 -3259 0
3254 -3257 -3259 0
3254 -3255 -3257 0
-3255 4958 3256 0
-3255 -4958 -3256 0
3255 -4958 3256 0
3255 4958 -3256 0
-3256 2198 3177 0
-3256 5032 2198 0
3256 -2198 0
3256 -5032 -3177 0
-3257 5014 3258 0
-3257 -5014 -3258 0
3257 -5014 3258 0
3257 5014 -3258 0
-3258 3030 3031 0
-3258 5022 5024 0
-3258 5022 3031 0
-3258 5024 3030 0
3258 -5022 -3030 0
3258 -5024 -3031 0
-3259 5019 3260 0
-3259 -5019 -3260 0
3259 -5019 3260 0
3259 5019 -3260 0
-3260 5026 5027 0
-3260 3002 3034 0
-3260 5027 3034 0
-3260 5026 3002 0
3260 -5026 -3034 0
3260 -5027 -3002 0
-3261 3262 3269 0
-3261 3269 3271 0
-3261 3262 3271 0
3261 -3262 -3271 0
3261 -3269 -3271 0
3261 -3262 -3269 0
-3262 3263 3265 0
-3262 3265 3267 0
-3262 3263 3267 0
3262 -3263 -3267 0
3262 -3265 -3267 0
3262 -3263 -3265 0
-3263 5004 3264 0
-3263 -5004 -3264 0
3263 -5004 3264 0
3263 5004 -3264 0
-3264 3005 3006 0
-3264 4968 5010 0
-3264 4968 3006 0
-3264 5010 3005 0
3264 -4968 -3005 0
3264 -5010 -3006 0
-3265 5016 3266 0
-3265 -5016 -3266 0
3265 -5016 3266 0
3265 5016 -3266 0
-3266 3009 3010 0
-3266 5029 5030 0
-3266 5029 3010 0
-3266 5030 3009 0
3266 -5029 -3009 0
3266 -5030 -3010 0
-3267 5023 3268 0
-3267 -5023 -3268 0
3267 -5023 3268 0
3267 5023 -3268 0
-3268 3015 3016 0
-3268 5017 5031 0
-3268 5031 3016 0
-3268 5017 3015 0
3268 -5031 -3015 0
3268 -5017 -3016 0
-3269 3222 3270 0
-3269 -3222 -3270 0
3269 -3222 3270 0
3269 3222 -3270 0
-3270 3218 3220 0
-3270 -3218 -3220 0
3270 -3218 3220 0
3270 3218 -3220 0
-3271 3229 3272 0
-3271 -3229 -3272 0
3271 -3229 3272 0
3271 3229 -3272 0
-3272 3225 3227 0
-3272 -3225 -3227 0
3272 -3225 3227 0
3272 3225 -3227 0
-3273 3231 3274 0
-3273 -3231 -3274 0
3273 -3231 3274 0
3273 3231 -3274 0
-3274 3217 3224 0
-3274 -3217 -3224 0
3274 -3217 3224 0
3274 3217 -3224 0
-3275 3238 3276 0
-3275 -3238 -3276 0
3275 -3238 3276 0
3275 3238 -3276 0
-3276 -3216 -3233 0
-3276 3216 3233 0
3276 3216 -3233 0
3276 -3216 3233 0
-3277 3240 3278 0
-3277 -3240 -3278 0
3277 -3240 3278 0
3277 3240 -3278 0
-3278 3213 3215 0
-3278 -3213 -3215 0
3278 -3213 3215 0
3278 3213 -3215 0
3279 -3280 -3304 0
-3279 3280 0
-3279 3304 0
-3280 3281 3282 0
-3280 3282 3302 0
-3280 3281 3302 0
3280 -3281 -3302 0
3280 -3282 -3302 0
3280 -3281 -3282 0
-3281 3234 3236 0
-3281 -3234 -3236 0
3281 -3234 3236 0
3281 3234 -3236 0
-3282 3283 3300 0
-3282 3283 3295 0
-3282 3295 3300 0
3282 -3295 -3300 0
3282 -3283 -3300 0
3282 -3283 -3295 0
-3283 3284 3288 0
-3283 3284 3286 0
-3283 3286 3288 0
3283 -3286 -3288 0
3283 -3284 -3288 0
3283 -3284 -3286 0
-3284 5011 3285 0
-3284 -5011 -3285 0
3284 -5011 3285 0
3284 5011 -3285 0
-3285 3019 3020 0
-3285 4955 5012 0
-3285 5012 3020 0
-3285 4955 3019 0
3285 -5012 -3019 0
3285 -4955 -3020 0
3286 -5011 3287 0
-3286 5011 0
-3286 -3287 0
3287 -4955 -3019 0
-3287 4955 0
-3287 3019 0
-3288 3289 3291 0
-3288 3291 3293 0
-3288 3289 3293 0
3288 -3289 -3293 0
3288 -3291 -3293 0
3288 -3289 -3291 0
-3289 4958 3290 0
-3289 -4958 -3290 0
3289 -4958 3290 0
3289 4958 -3290 0
-3290 2266 3177 0
-3290 5022 2266 0
3290 -2266 0
3290 -5022 -3177 0
-3291 5014 3292 0
-3291 -5014 -3292 0
3291 -5014 3292 0
3291 5014 -3292 0
-3292 3030 3031 0
-3292 5024 5026 0
-3292 5024 3031 0
-3292 5026 3030 0
3292 -5024 -3030 0
3292 -5026 -3031 0
-3293 5019 3294 0
-3293 -5019 -3294 0
3293 -5019 3294 0
3293 5019 -3294 0
-3294 4968 5027 0
-3294 3002 3034 0
-3294 5027 3002 0
-3294 4968 3034 0
3294 -4968 -3002 0
3294 -5027 -3034 0
3295 -3296 -3298 0
-3295 3296 0
-3295 3298 0
-3296 3259 3297 0
-3296 -3259 -3297 0
3296 -3259 3297 0
3296 3259 -3297 0
-3297 3255 3257 0
-3297 -3255 -3257 0
3297 -3255 3257 0
3297 3255 -3257 0
-3298 3267 3299 0
-3298 -3267 -3299 0
3298 -3267 3299 0
3298 3267 -3299 0
-3299 3263 3265 0
-3299 -3263 -3265 0
3299 -3263 3265 0
3299 3263 -3265 0
-3300 3254 3301 0
-3300 -3254 -3301 0
3300 -3254 3301 0
3300 3254 -3301 0
-3301 3195 3252 0
-3301 -3195 -3252 0
3301 -3195 3252 0
3301 3195 -3252 0
-3302 3273 3303 0
-3302 -3273 -3303 0
3302 -3273 3303 0
3302 3273 -3303 0
-3303 3251 3261 0
-3303 -3251 -3261 0
3303 -3251 3261 0
3303 3251 -3261 0
-3304 3275 3305 0
-3304 -3275 -3305 0
3304 -3275 3305 0
3304 3275 -3305 0
-3305 3249 3250 0
-3305 -3249 -3250 0
3305 -3249 3250 0
3305 3249 -3250 0
3306 -3307 -3308 0
-3306 3307 0
-3306 3308 0
-3307 3248 3277 0
-3307 -3248 -3277 0
3307 -3248 3277 0
3307 3248 -3277 0
-3308 3280 3304 0
-3308 -3280 -3304 0
3308 -3280 3304 0
3308 3280 -3304 0
-3309 3310 3410 0
-3309 3410 3484 0
-3309 3410 3488 0
3309 -3410 0
3309 -3310 -3484 -3488 0
3310 -3311 -3363 0
-3310 3311 0
-3310 3363 0
3311 -3312 -3342 0
-3311 3312 0
-3311 3342 0
-3312 3313 3340 0
-3312 -3313 -3340 0
3312 -3313 3340 0
3312 3313 -3340 0
-3313 3314 3316 0
-3313 3316 3338 0
-3313 3314 3338 0
3313 -3314 -3338 0
3313 -3316 -3338 0
3313 -3314 -3316 0
-3314 3271 3315 0
-3314 -3271 -3315 0
3314 -3271 3315 0
3314 3271 -3315 0
-3315 3262 3269 0
-3315 -3262 -3269 0
3315 -3262 3269 0
3315 3262 -3269 0
-3316 3317 3335 0
-3316 3317 3337 0
3316 -3317 0
3316 -3335 -3337 0
3317 -3318 -3325 0
-3317 3318 0
-3317 3325 0
-3318 3319 3321 0
-3318 3321 3323 0
-3318 3319 3323 0
3318 -3319 -3323 0
3318 -3321 -3323 0
3318 -3319 -3321 0
-3319 5004 3320 0
-3319 -5004 -3320 0
3319 -5004 3320 0
3319 5004 -3320 0
-3320 3005 3006 0
-3320 5010 5029 0
-3320 5010 3006 0
-3320 5029 3005 0
3320 -5010 -3005 0
3320 -5029 -3006 0
-3321 5016 3322 0
-3321 -5016 -3322 0
3321 -5016 3322 0
3321 5016 -3322 0
-3322 3009 3010 0
-3322 5030 5031 0
-3322 5030 3010 0
-3322 5031 3009 0
3322 -5030 -3009 0
3322 -5031 -3010 0
-3323 5023 3324 0
-3323 -5023 -3324 0
3323 -5023 3324 0
3323 5023 -3324 0
-3324 3015 3016 0
-3324 5012 5017 0
-3324 5017 3016 0
-3324 5012 3015 0
3324 -5017 -3015 0
3324 -5012 -3016 0
-3325 3287 3326 0
-3325 3326 3333 0
-3325 3287 3333 0
3325 -3326 -3333 0
3325 -3287 -3326 0
3325 -3287 -3333 0
-3326 3327 3329 0
-3326 3329 3331 0
-3326 3327 3331 0
3326 -3327 -3331 0
3326 -3329 -3331 0
3326 -3327 -3329 0
-3327 4958 3328 0
-3327 -4958 -3328 0
3327 -4958 3328 0
3327 4958 -3328 0
-3328 2327 3177 0
-3328 5024 2327 0
3328 -2327 0
3328 -5024 -3177 0
-3329 5014 3330 0
-3329 -5014 -3330 0
3329 -5014 3330 0
3329 5014 -3330 0
-3330 3030 3031 0
-3330 5026 5027 0
-3330 5026 3031 0
-3330 5027 3030 0
3330 -5026 -3030 0
3330 -5027 -3031 0
-3331 5019 3332 0
-3331 -5019 -3332 0
3331 -5019 3332 0
3331 5019 -3332 0
-3332 4968 5010 0
-3332 3002 3034 0
-3332 5010 3034 0
-3332 4968 3002 0
3332 -4968 -3034 0
3332 -5010 -3002 0
-3333 3293 3334 0
-3333 -3293 -3334 0
3333 -3293 3334 0
3333 3293 -3334 0
-3334 3289 3291 0
-3334 -3289 -3291 0
3334 -3289 3291 0
3334 3289 -3291 0
-3335 3288 3336 0
-3335 -3288 -3336 0
3335 -3288 3336 0
3335 3288 -3336 0
-3336 -3284 -3286 0
-3336 3284 3286 0
3336 3284 -3286 0
3336 -3284 3286 0
-3337 3318 3325 0
-3337 -3318 -3325 0
3337 -3318 3325 0
3337 3318 -3325 0
-3338 3300 3339 0
-3338 -3300 -3339 0
3338 -3300 3339 0
3338 3300 -3339 0
-3339 -3283 -3295 0
-3339 3283 3295 0
3339 3283 -3295 0
3339 -3283 3295 0
-3340 3302 3341 0
-3340 -3302 -3341 0
3340 -3302 3341 0
3340 3302 -3341 0
-3341 3281 3282 0
-3341 -3281 -3282 0
3341 -3281 3282 0
3341 3281 -3282 0
-3342 3343 3361 0
-3342 -3343 -3361 0
3342 -3343 3361 0
3342 3343 -3361 0
-3343 3344 3345 0
-3343 3345 3360 0
-3343 3344 3360 0
3343 -3344 -3360 0
3343 -3345 -3360 0
3343 -3344 -3345 0
-3344 3296 3298 0
-3344 -3296 -3298 0
3344 -3296 3298 0
3344 3296 -3298 0
-3345 3346 3358 0
-3345 3346 3353 0
-3345 3353 3358 0
3345 -3353 -3358 0
3345 -3346 -3358 0
3345 -3346 -3353 0
-3346 3347 3349 0
-3346 3349 3351 0
-3346 3347 3351 0
3346 -3347 -3351 0
3346 -3349 -3351 0
3346 -3347 -3349 0
-3347 5004 3348 0
-3347 -5004 -3348 0
3347 -5004 3348 0
3347 5004 -3348 0
-3348 3005 3006 0
-3348 5029 5030 0
-3348 5029 3006 0
-3348 5030 3005 0
3348 -5029 -3005 0
3348 -5030 -3006 0
-3349 5016 3350 0
-3349 -5016 -3350 0
3349 -5016 3350 0
3349 5016 -3350 0
-3350 3009 3010 0
-3350 5017 5031 0
-3350 5031 3010 0
-3350 5017 3009 0
3350 -5031 -3009 0
3350 -5017 -3010 0
-3351 5023 3352 0
-3351 -5023 -3352 0
3351 -5023 3352 0
3351 5023 -3352 0
-3352 3015 3016 0
-3352 4955 5012 0
-3352 5012 3016 0
-3352 4955 3015 0
3352 -5012 -3015 0
3352 -4955 -3016 0
3353 -3354 -3356 0
-3353 3354 0
-3353 3356 0
3354 -5023 3355 0
-3354 5023 0
-3354 -3355 0
3355 -4955 -3015 0
-3355 4955 0
-3355 3015 0
-3356 3331 3357 0
-3356 -3331 -3357 0
3356 -3331 3357 0
3356 3331 -3357 0
-3357 3327 3329 0
-3357 -3327 -3329 0
3357 -3327 3329 0
3357 3327 -3329 0
-3358 3323 3359 0
-3358 -3323 -3359 0
3358 -3323 3359 0
3358 3323 -3359 0
-3359 3319 3321 0
-3359 -3319 -3321 0
3359 -3319 3321 0
3359 3319 -3321 0
-3360 3335 3337 0
-3360 -3335 -3337 0
3360 -3335 3337 0
3360 3335 -3337 0
-3361 3338 3362 0
-3361 -3338 -3362 0
3361 -3338 3362 0
3361 3338 -3362 0
-3362 3314 3316 0
-3362 -3314 -3316 0
3362 -3314 3316 0
3362 3314 -3316 0
3363 -3364 -3387 0
-3363 3364 0
-3363 3387 0
-3364 3365 3385 0
-3364 -3365 -3385 0
3364 -3365 3385 0
3364 3365 -3385 0
-3365 3366 3368 0
-3365 3368 3383 0
-3365 3366 3383 0
3365 -3366 -3383 0
3365 -3368 -3383 0
3365 -3366 -3368 0
-3366 3333 3367 0
-3366 -3333 -3367 0
3366 -3333 3367 0
3366 3333 -3367 0
-3367 3287 3326 0
-3367 -3287 -3326 0
3367 -3287 3326 0
3367 3287 -3326 0
-3368 3369 3376 0
-3368 3376 3381 0
-3368 3369 3381 0
3368 -3369 -3381 0
3368 -3376 -3381 0
3368 -3369 -3376 0
-3369 3370 3372 0
-3369 3372 3374 0
-3369 3370 3374 0
3369 -3370 -3374 0
3369 -3372 -3374 0
3369 -3370 -3372 0
-3370 4958 3371 0
-3370 -4958 -3371 0
3370 -4958 3371 0
3370 4958 -3371 0
-3371 2386 3177 0
-3371 5026 2386 0
3371 -2386 0
3371 -5026 -3177 0
-3372 5014 3373 0
-3372 -5014 -3373 0
3372 -5014 3373 0
3372 5014 -3373 0
-3373 3030 3031 0
-3373 4968 5027 0
-3373 5027 3031 0
-3373 4968 3030 0
3373 -5027 -3030 0
3373 -4968 -3031 0
-3374 5019 3375 0
-3374 -5019 -3375 0
3374 -5019 3375 0
3374 5019 -3375 0
-3375 5010 5029 0
-3375 3002 3034 0
-3375 5029 3034 0
-3375 5010 3002 0
3375 -5010 -3034 0
3375 -5029 -3002 0
-3376 4955 3379 0
-3376 3377 3379 0
-3376 4955 3377 0
-3376 3015 3379 0
-3376 3015 3377 0
3376 -3377 -3379 0
3376 -4955 -3015 -3379 0
3376 -4955 -3015 -3377 0
-3377 5004 3378 0
-3377 -5004 -3378 0
3377 -5004 3378 0
3377 5004 -3378 0
-3378 3005 3006 0
-3378 5030 5031 0
-3378 5030 3006 0
-3378 5031 3005 0
3378 -5030 -3005 0
3378 -5031 -3006 0
-3379 5016 3380 0
-3379 -5016 -3380 0
3379 -5016 3380 0
3379 5016 -3380 0
-3380 3009 3010 0
-3380 5012 5017 0
-3380 5017 3010 0
-3380 5012 3009 0
3380 -5017 -3009 0
3380 -5012 -3010 0
-3381 3351 3382 0
-3381 -3351 -3382 0
3381 -3351 3382 0
3381 3351 -3382 0
-3382 3347 3349 0
-3382 -3347 -3349 0
3382 -3347 3349 0
3382 3347 -3349 0
-3383 3358 3384 0
-3383 -3358 -3384 0
3383 -3358 3384 0
3383 3358 -3384 0
-3384 -3346 -3353 0
-3384 3346 3353 0
3384 3346 -3353 0
3384 -3346 3353 0
-3385 3360 3386 0
-3385 -3360 -3386 0
3385 -3360 3386 0
3385 3360 -3386 0
-3386 3344 3345 0
-3386 -3344 -3345 0
3386 -3344 3345 0
3386 3344 -3345 0
-3387 3388 3408 0
-3387 -3388 -3408 0
3387 -3388 3408 0
3387 3388 -3408 0
-3388 3389 3390 0
-3388 3390 3406 0
-3388 3389 3406 0
3388 -3389 -3406 0
3388 -3390 -3406 0
3388 -3389 -3390 0
-3389 3354 3356 0
-3389 -3354 -3356 0
3389 -3354 3356 0
3389 3354 -3356 0
-3390 3391 3398 0
-3390 3398 3404 0
-3390 3391 3404 0
3390 -3391 -3404 0
3390 -3398 -3404 0
3390 -3391 -3398 0
-3391 3392 3394 0
-3391 3394 3396 0
-3391 3392 3396 0
3391 -3392 -3396 0
3391 -3394 -3396 0
3391 -3392 -3394 0
-3392 4958 3393 0
-3392 -4958 -3393 0
3392 -4958 3393 0
3392 4958 -3393 0
-3393 2446 3177 0
-3393 5027 2446 0
3393 -2446 0
3393 -5027 -3177 0
-3394 5014 3395 0
-3394 -5014 -3395 0
3394 -5014 3395 0
3394 5014 -3395 0
-3395 3030 3031 0
-3395 4968 5010 0
-3395 4968 3031 0
-3395 5010 3030 0
3395 -4968 -3030 0
3395 -5010 -3031 0
-3396 5019 3397 0
-3396 -5019 -3397 0
3396 -5019 3397 0
3396 5019 -3397 0
-3397 5029 5030 0
-3397 3002 3034 0
-3397 5030 3034 0
-3397 5029 3002 0
3397 -5029 -3034 0
3397 -5030 -3002 0
-3398 5016 3399 0
-3398 3399 3401 0
-3398 5016 3401 0
-3398 3401 -3403 0
-3398 3399 -3403 0
3398 -3399 -3401 0
3398 -5016 -3399 3403 0
3398 -5016 -3401 3403 0
-3399 5004 3400 0
-3399 -5004 -3400 0
3399 -5004 3400 0
3399 5004 -3400 0
-3400 3005 3006 0
-3400 5017 5031 0
-3400 5031 3006 0
-3400 5017 3005 0
3400 -5031 -3005 0
3400 -5017 -3006 0
-3401 5016 3402 0
-3401 -5016 -3402 0
3401 -5016 3402 0
3401 5016 -3402 0
-3402 3009 3010 0
-3402 4955 5012 0
-3402 5012 3010 0
-3402 4955 3009 0
3402 -5012 -3009 0
3402 -4955 -3010 0
3403 -4955 -3009 0
-3403 4955 0
-3403 3009 0
-3404 3374 3405 0
-3404 -3374 -3405 0
3404 -3374 3405 0
3404 3374 -3405 0
-3405 3370 3372 0
-3405 -3370 -3372 0
3405 -3370 3372 0
3405 3370 -3372 0
-3406 3381 3407 0
-3406 -3381 -3407 0
3406 -3381 3407 0
3406 3381 -3407 0
-3407 3369 3376 0
-3407 -3369 -3376 0
3407 -3369 3376 0
3407 3369 -3376 0
-3408 3383 3409 0
-3408 -3383 -3409 0
3408 -3383 3409 0
3408 3383 -3409 0
-3409 3366 3368 0
-3409 -3366 -3368 0
3409 -3366 3368 0
3409 3366 -3368 0
-3410 3411 3413 3310 0
-3410 3411 3413 3416 0
3410 -3411 0
3410 -3413 0
3410 -3310 -3416 0
-3411 3340 3312 0
-3411 3313 3412 0
-3411 3313 3312 0
-3411 3340 3412 0
3411 -3312 -3412 0
3411 -3313 -3340 0
3412 -3343 -3361 0
-3412 3343 0
-3412 3361 0
3413 -3311 -3414 0
-3413 3311 0
-3413 3414 0
-3414 3365 3385 0
-3414 3385 3415 0
-3414 3365 3415 0
3414 -3385 -3415 0
3414 -3365 -3385 0
3414 -3365 -3415 0
3415 -3388 -3408 0
-3415 3388 0
-3415 3408 0
-3416 3417 3435 3453 0
-3416 3417 3437 3453 0
-3416 3435 3437 3453 0
3416 -3435 -3437 0
3416 -3417 -3435 0
3416 -3453 0
3416 -3417 -3437 0
-3417 3418 3420 0
-3417 3420 3433 0
-3417 3418 3433 0
3417 -3418 -3433 0
3417 -3420 -3433 0
3417 -3418 -3420 0
-3418 3355 3419 0
-3418 -3355 -3419 0
3418 -3355 3419 0
3418 3355 -3419 0
-3419 3377 3379 0
-3419 -3377 -3379 0
3419 -3377 3379 0
3419 3377 -3379 0
-3420 3421 3428 0
-3420 3428 3430 0
-3420 3421 3430 0
3420 -3421 -3430 0
3420 -3428 -3430 0
3420 -3421 -3428 0
-3421 3422 3424 0
-3421 3424 3426 0
-3421 3422 3426 0
3421 -3422 -3426 0
3421 -3424 -3426 0
3421 -3422 -3424 0
-3422 4958 3423 0
-3422 -4958 -3423 0
3422 -4958 3423 0
3422 4958 -3423 0
-3423 2495 3177 0
-3423 4968 2495 0
3423 -2495 0
3423 -4968 -3177 0
-3424 5014 3425 0
-3424 -5014 -3425 0
3424 -5014 3425 0
3424 5014 -3425 0
-3425 3030 3031 0
-3425 5010 5029 0
-3425 5010 3031 0
-3425 5029 3030 0
3425 -5010 -3030 0
3425 -5029 -3031 0
-3426 5019 3427 0
-3426 -5019 -3427 0
3426 -5019 3427 0
3426 5019 -3427 0
-3427 5030 5031 0
-3427 3002 3034 0
-3427 5031 3034 0
-3427 5030 3002 0
3427 -5030 -3034 0
3427 -5031 -3002 0
-3428 3396 3429 0
-3428 -3396 -3429 0
3428 -3396 3429 0
3428 3396 -3429 0
-3429 3392 3394 0
-3429 -3392 -3394 0
3429 -3392 3394 0
3429 3392 -3394 0
-3430 3431 3432 0
-3430 -3431 -3432 0
3430 -3431 3432 0
3430 3431 -3432 0
3431 -5016 3403 0
-3431 5016 0
-3431 -3403 0
-3432 3399 3401 0
-3432 -3399 -3401 0
3432 -3399 3401 0
3432 3399 -3401 0
-3433 3404 3434 0
-3433 -3404 -3434 0
3433 -3404 3434 0
3433 3404 -3434 0
-3434 3391 3398 0
-3434 -3391 -3398 0
3434 -3391 3398 0
3434 3391 -3398 0
-3435 3406 3436 0
-3435 -3406 -3436 0
3435 -3406 3436 0
3435 3406 -3436 0
-3436 3389 3390 0
-3436 -3389 -3390 0
3436 -3389 3390 0
3436 3389 -3390 0
3437 -3438 -3451 0
-3437 3438 0
-3437 3451 0
3438 -3439 -3449 0
-3438 3439 0
-3438 3449 0
-3439 3403 3440 0
-3439 3440 3442 0
-3439 3403 3442 0
3439 -3440 -3442 0
3439 -3403 -3440 0
3439 -3403 -3442 0
-3440 5004 3441 0
-3440 -5004 -3441 0
3440 -5004 3441 0
3440 5004 -3441 0
-3441 3005 3006 0
-3441 5012 5017 0
-3441 5017 3006 0
-3441 5012 3005 0
3441 -5017 -3005 0
3441 -5012 -3006 0
-3442 3443 3445 0
-3442 3445 3447 0
-3442 3443 3447 0
3442 -3443 -3447 0
3442 -3445 -3447 0
3442 -3443 -3445 0
-3443 4958 3444 0
-3443 -4958 -3444 0
3443 -4958 3444 0
3443 4958 -3444 0
-3444 2543 3177 0
-3444 5010 2543 0
3444 -2543 0
3444 -5010 -3177 0
-3445 5014 3446 0
-3445 -5014 -3446 0
3445 -5014 3446 0
3445 5014 -3446 0
-3446 3030 3031 0
-3446 5029 5030 0
-3446 5029 3031 0
-3446 5030 3030 0
3446 -5029 -3030 0
3446 -5030 -3031 0
-3447 5019 3448 0
-3447 -5019 -3448 0
3447 -5019 3448 0
3447 5019 -3448 0
-3448 5017 5031 0
-3448 3002 3034 0
-3448 5031 3002 0
-3448 5017 3034 0
3448 -5017 -3002 0
3448 -5031 -3034 0
-3449 3430 3450 0
-3449 -3430 -3450 0
3449 -3430 3450 0
3449 3430 -3450 0
-3450 3421 3428 0
-3450 -3421 -3428 0
3450 -3421 3428 0
3450 3421 -3428 0
-3451 3433 3452 0
-3451 -3433 -3452 0
3451 -3433 3452 0
3451 3433 -3452 0
-3452 3418 3420 0
-3452 -3418 -3420 0
3452 -3418 3420 0
3452 3418 -3420 0
3453 -3454 -3457 0
-3453 3454 0
-3453 3457 0
3454 -3455 -3456 0
-3454 3455 0
-3454 3456 0
-3455 3417 3435 0
-3455 -3417 -3435 0
3455 -3417 3435 0
3455 3417 -3435 0
-3456 3438 3451 0
-3456 -3438 -3451 0
3456 -3438 3451 0
3456 3438 -3451 0
-3457 3458 3470 0
-3457 3470 3471 0
-3457 3458 3471 0
3457 -3470 -3471 0
3457 -3458 -3470 0
3457 -3458 -3471 0
-3458 3459 3461 0
-3458 3461 3468 0
-3458 3459 3468 0
3458 -3459 -3468 0
3458 -3461 -3468 0
3458 -3459 -3461 0
-3459 3426 3460 0
-3459 -3426 -3460 0
3459 -3426 3460 0
3459 3426 -3460 0
-3460 3422 3424 0
-3460 -3422 -3424 0
3460 -3422 3424 0
3460 3422 -3424 0
-3461 3462 3466 0
-3461 3462 3464 0
-3461 3464 3466 0
3461 -3464 -3466 0
3461 -3462 -3466 0
3461 -3462 -3464 0
-3462 5004 3463 0
-3462 -5004 -3463 0
3462 -5004 3463 0
3462 5004 -3463 0
-3463 3005 3006 0
-3463 4955 5012 0
-3463 5012 3006 0
-3463 4955 3005 0
3463 -5012 -3005 0
3463 -4955 -3006 0
3464 -5004 3465 0
-3464 5004 0
-3464 -3465 0
3465 -4955 -3005 0
-3465 4955 0
-3465 3005 0
-3466 3447 3467 0
-3466 -3447 -3467 0
3466 -3447 3467 0
3466 3447 -3467 0
-3467 3443 3445 0
-3467 -3443 -3445 0
3467 -3443 3445 0
3467 3443 -3445 0
-3468 3442 3469 0
-3468 -3442 -3469 0
3468 -3442 3469 0
3468 3442 -3469 0
-3469 3403 3440 0
-3469 -3403 -3440 0
3469 -3403 3440 0
3469 3403 -3440 0
-3470 3439 3449 0
-3470 -3439 -3449 0
3470 -3439 3449 0
3470 3439 -3449 0
3471 -3472 -3482 0
-3471 3472 0
-3471 3482 0
3472 -3473 -3480 0
-3472 3473 0
-3472 3480 0
-3473 3474 3476 0
-3473 3476 3478 0
-3473 3474 3478 0
3473 -3474 -3478 0
3473 -3476 -3478 0
3473 -3474 -3476 0
-3474 4958 3475 0
-3474 -4958 -3475 0
3474 -4958 3475 0
3474 4958 -3475 0
-3475 2588 3177 0
-3475 5029 2588 0
3475 -2588 0
3475 -5029 -3177 0
-3476 5014 3477 0
-3476 -5014 -3477 0
3476 -5014 3477 0
3476 5014 -3477 0
-3477 3030 3031 0
-3477 5030 5031 0
-3477 5030 3031 0
-3477 5031 3030 0
3477 -5030 -3030 0
3477 -5031 -3031 0
-3478 5019 3479 0
-3478 -5019 -3479 0
3478 -5019 3479 0
3478 5019 -3479 0
-3479 5012 5017 0
-3479 3002 3034 0
-3479 5017 3002 0
-3479 5012 3034 0
3479 -5012 -3002 0
3479 -5017 -3034 0
-3480 3466 3481 0
-3480 -3466 -3481 0
3480 -3466 3481 0
3480 3466 -3481 0
-3481 -3462 -3464 0
-3481 3462 3464 0
3481 3462 -3464 0
3481 -3462 3464 0
-3482 3468 3483 0
-3482 -3468 -3483 0
3482 -3468 3483 0
3482 3468 -3483 0
-3483 3459 3461 0
-3483 -3459 -3461 0
3483 -3459 3461 0
3483 3459 -3461 0
3484 -3454 -3485 0
-3484 3454 0
-3484 3485 0
3485 -3486 -3487 0
-3485 3486 0
-3485 3487 0
-3486 3458 3470 0
-3486 -3458 -3470 0
3486 -3458 3470 0
3486 3458 -3470 0
-3487 3472 3482 0
-3487 -3472 -3482 0
3487 -3472 3482 0
3487 3472 -3482 0
-3488 3489 3510 0
-3488 3510 3530 0
-3488 3510 3533 0
3488 -3510 0
3488 -3489 -3530 -3533 0
3489 -3490 -3502 0
-3489 3490 0
-3489 3502 0
-3490 3491 3501 0
-3490 -3491 -3501 0
3490 -3491 3501 0
3490 3491 -3501 0
-3491 3465 3492 0
-3491 3492 3499 0
-3491 3465 3499 0
3491 -3492 -3499 0
3491 -3465 -3492 0
3491 -3465 -3499 0
-3492 3493 3495 0
-3492 3495 3497 0
-3492 3493 3497 0
3492 -3493 -3497 0
3492 -3495 -3497 0
3492 -3493 -3495 0
-3493 4958 3494 0
-3493 -4958 -3494 0
3493 -4958 3494 0
3493 4958 -3494 0
-3494 2630 3177 0
-3494 5030 2630 0
3494 -2630 0
3494 -5030 -3177 0
-3495 5014 3496 0
-3495 -5014 -3496 0
3495 -5014 3496 0
3495 5014 -3496 0
-3496 3030 3031 0
-3496 5017 5031 0
-3496 5031 3031 0
-3496 5017 3030 0
3496 -5031 -3030 0
3496 -5017 -3031 0
-3497 5019 3498 0
-3497 -5019 -3498 0
3497 -5019 3498 0
3497 5019 -3498 0
-3498 4955 5012 0
-3498 3002 3034 0
-3498 5012 3002 0
-3498 4955 3034 0
3498 -4955 -3002 0
3498 -5012 -3034 0
-3499 3478 3500 0
-3499 -3478 -3500 0
3499 -3478 3500 0
3499 3478 -3500 0
-3500 3474 3476 0
-3500 -3474 -3476 0
3500 -3474 3476 0
3500 3474 -3476 0
-3501 3473 3480 0
-3501 -3473 -3480 0
3501 -3473 3480 0
3501 3473 -3480 0
-3502 3503 3508 0
-3502 -3503 -3508 0
3502 -3503 3508 0
3502 3503 -3508 0
3503 -3504 -3506 0
-3503 3504 0
-3503 3506 0
3504 -5019 3505 0
-3504 5019 0
-3504 -3505 0
3505 -4955 -3034 0
-3505 4955 0
-3505 3034 0
-3506 3497 3507 0
-3506 -3497 -3507 0
3506 -3497 3507 0
3506 3497 -3507 0
-3507 3493 3495 0
-3507 -3493 -3495 0
3507 -3493 3495 0
3507 3493 -3495 0
-3508 3499 3509 0
-3508 -3499 -3509 0
3508 -3499 3509 0
3508 3499 -3509 0
-3509 3465 3492 0
-3509 -3465 -3492 0
3509 -3465 3492 0
3509 3465 -3492 0
-3510 3491 3501 3512 0
-3510 3491 3511 3512 0
-3510 3501 3511 3512 0
3510 -3501 -3511 0
3510 -3491 -3501 0
3510 -3512 0
3510 -3491 -3511 0
3511 -3503 -3508 0
-3511 3503 0
-3511 3508 0
3512 -3489 -3513 0
-3512 3489 0
-3512 3513 0
-3513 3514 3519 0
-3513 3519 3520 0
-3513 3514 3520 0
3513 -3519 -3520 0
3513 -3514 -3519 0
3513 -3514 -3520 0
-3514 3505 3515 0
-3514 3515 3517 0
-3514 3505 3517 0
3514 -3515 -3517 0
3514 -3505 -3515 0
3514 -3505 -3517 0
-3515 4958 3516 0
-3515 -4958 -3516 0
3515 -4958 3516 0
3515 4958 -3516 0
-3516 2663 3177 0
-3516 5031 2663 0
3516 -2663 0
3516 -5031 -3177 0
-3517 5014 3518 0
-3517 -5014 -3518 0
3517 -5014 3518 0
3517 5014 -3518 0
-3518 3030 3031 0
-3518 5012 5017 0
-3518 5017 3031 0
-3518 5012 3030 0
3518 -5017 -3030 0
3518 -5012 -3031 0
-3519 3504 3506 0
-3519 -3504 -3506 0
3519 -3504 3506 0
3519 3504 -3506 0
3520 -3521 -3528 0
-3520 3521 0
-3520 3528 0
-3521 3522 3524 0
-3521 3524 3526 0
-3521 3522 3526 0
3521 -3524 -3526 0
3521 -3522 -3524 0
3521 -3522 -3526 0
-3522 4958 3523 0
-3522 -4958 -3523 0
3522 -4958 3523 0
3522 4958 -3523 0
-3523 2702 3177 0
-3523 5017 2702 0
3523 -2702 0
3523 -5017 -3177 0
-3524 5014 3525 0
-3524 -5014 -3525 0
3524 -5014 3525 0
3524 5014 -3525 0
-3525 3030 3031 0
-3525 4955 5012 0
-3525 5012 3031 0
-3525 4955 3030 0
3525 -5012 -3030 0
3525 -4955 -3031 0
3526 -5014 3527 0
-3526 5014 0
-3526 -3527 0
3527 -4955 -3030 0
-3527 4955 0
-3527 3030 0
-3528 3505 3529 0
-3528 -3505 -3529 0
3528 -3505 3529 0
3528 3505 -3529 0
-3529 3515 3517 0
-3529 -3515 -3517 0
3529 -3515 3517 0
3529 3515 -3517 0
3530 -3531 -3532 0
-3530 3531 0
-3530 3532 0
-3531 3514 3519 0
-3531 -3514 -3519 0
3531 -3514 3519 0
3531 3514 -3519 0
-3532 3521 3528 0
-3532 -3521 -3528 0
3532 -3521 3528 0
3532 3521 -3528 0
-3533 3537 0
-3533 3534 3540 0
-3533 3534 3539 0
3533 -3534 -3537 0
3533 -3537 -3539 -3540 0
3534 -3527 -3535 0
-3534 3527 0
-3534 3535 0
-3535 4958 3536 0
-3535 -4958 -3536 0
3535 -4958 3536 0
3535 4958 -3536 0
-3536 2730 3177 0
-3536 5012 2730 0
3536 -2730 0
3536 -5012 -3177 0
-3537 3526 3538 0
-3537 -3526 -3538 0
3537 -3526 3538 0
3537 3526 -3538 0
-3538 3522 3524 0
-3538 -3522 -3524 0
3538 -3522 3524 0
3538 3522 -3524 0
3539 4955 -4958 2754 0
-3539 -4955 0
-3539 4958 0
-3539 -2754 0
-3540 3527 3535 0
-3540 -3527 -3535 0
3540 -3527 3535 0
3540 3527 -3535 0
-3541 3542 3675 0
-3541 -3542 -3675 0
3541 -3542 3675 0
3541 3542 -3675 0
-3542 -3543 -3648 0
-3542 3543 3648 0
3542 3543 -3648 0
3542 -3543 3648 0
3543 -3544 3573 0
3543 3573 -3621 0
3543 -3544 -3621 0
-3543 3544 3621 0
-3543 -3573 3621 0
-3543 3544 -3573 0
3544 -1067 3545 0
3544 1067 -3545 0
-3544 1067 3545 0
-3544 -1067 -3545 0
-3545 3546 3559 0
-3545 -3546 -3559 0
3545 -3546 3559 0
3545 3546 -3559 0
-3546 3547 3555 0
-3546 -3547 -3555 0
3546 -3547 3555 0
3546 3547 -3555 0
-3547 3548 3551 0
-3547 -3548 -3551 0
3547 -3548 3551 0
3547 3548 -3551 0
-3548 -4989 -3549 0
-3548 4989 3549 0
3548 4989 -3549 0
3548 -4989 3549 0
3549 -4943 -3550 0
-3549 4943 0
-3549 3550 0
-3550 -4947 -4989 0
-3550 4956 4989 0
-3550 4947 -4956 0
3550 -4947 -4956 4989 0
3550 4947 4956 -4989 0
-3551 4983 3552 0
-3551 -4983 -3552 0
3551 -4983 3552 0
3551 4983 -3552 0
-3552 3553 3554 0
-3552 4952 4973 0
-3552 4973 3554 0
-3552 4952 3553 0
3552 -4973 -3553 0
3552 -4952 -3554 0
3553 4985 -4989 0
3553 -4985 4989 0
-3553 -4985 -4989 0
-3553 4985 4989 0
-3554 -4985 4989 0
-3554 -4983 -4989 0
-3554 4983 4985 0
3554 4983 -4985 -4989 0
3554 -4983 4985 4989 0
-3555 5034 3556 0
-3555 -5034 -3556 0
3555 -5034 3556 0
3555 5034 -3556 0
-3556 3557 3558 0
-3556 4940 4942 0
-3556 4942 3558 0
-3556 4940 3557 0
3556 -4942 -3557 0
3556 -4940 -3558 0
3557 4983 -4992 0
3557 -4983 4992 0
-3557 -4983 -4992 0
-3557 4983 4992 0
-3558 -4983 -5034 0
-3558 4992 5034 0
-3558 4983 -4992 0
3558 -4983 -4992 5034 0
3558 4983 4992 -5034 0
-3559 3560 3569 0
-3559 -3560 -3569 0
3559 -3560 3569 0
3559 3560 -3569 0
-3560 3561 3565 0
-3560 -3561 -3565 0
3560 -3561 3565 0
3560 3561 -3565 0
-3561 4950 3562 0
-3561 -4950 -3562 0
3561 -4950 3562 0
3561 4950 -3562 0
-3562 3563 3564 0
-3562 4939 4990 0
-3562 4990 3564 0
-3562 4939 3563 0
3562 -4990 -3563 0
3562 -4939 -3564 0
3563 4941 -5034 0
3563 -4941 5034 0
-3563 -4941 -5034 0
-3563 4941 5034 0
-3564 -4941 -4950 0
-3564 4950 5034 0
-3564 4941 -5034 0
3564 4941 -4950 5034 0
3564 -4941 4950 -5034 0
-3565 5015 3566 0
-3565 -5015 -3566 0
3565 -5015 3566 0
3565 5015 -3566 0
-3566 3567 3568 0
-3566 4946 4996 0
-3566 4996 3568 0
-3566 4946 3567 0
3566 -4996 -3567 0
3566 -4946 -3568 0
3567 4950 -4993 0
3567 -4950 4993 0
-3567 -4950 -4993 0
-3567 4950 4993 0
-3568 -4950 -5015 0
-3568 4993 5015 0
-3568 4950 -4993 0
3568 -4950 -4993 5015 0
3568 4950 4993 -5015 0
-3569 4984 3570 0
-3569 -4984 -3570 0
3569 -4984 3570 0
3569 4984 -3570 0
-3570 3571 3572 0
-3570 4953 4986 0
-3570 4986 3572 0
-3570 4953 3571 0
3570 -4986 -3571 0
3570 -4953 -3572 0
3571 4997 -5015 0
3571 -4997 5015 0
-3571 -4997 -5015 0
-3571 4997 5015 0
-3572 -4997 5015 0
-3572 -4984 -5015 0
-3572 4984 4997 0
3572 4984 -4997 -5015 0
3572 -4984 4997 5015 0
-3573 3574 3595 0
-3573 3595 3616 0
-3573 3574 3616 0
3573 -3574 -3616 0
3573 -3595 -3616 0
3573 -3574 -3595 0
-3574 3575 3583 0
-3574 3583 3590 0
-3574 3575 3590 0
3574 -3575 -3590 0
3574 -3583 -3590 0
3574 -3575 -3583 0
-3575 4949 3576 0
-3575 3576 3580 0
-3575 4949 3580 0
3575 -3576 -3580 0
3575 -4949 -3576 0
3575 -4949 -3580 0
-3576 4947 3577 0
-3576 -4947 -3577 0
3576 -4947 3577 0
3576 4947 -3577 0
-3577 3578 3579 0
-3577 4943 4973 0
-3577 4943 3579 0
-3577 4973 3578 0
3577 -4943 -3578 0
3577 -4973 -3579 0
3578 4944 -4949 0
3578 -4944 4949 0
-3578 -4944 -4949 0
-3578 4944 4949 0
-3579 -4944 -4947 0
-3579 4947 4949 0
-3579 4944 -4949 0
3579 4944 -4947 4949 0
3579 -4944 4947 -4949 0
-3580 4989 3581 0
-3580 -4989 -3581 0
3580 -4989 3581 0
3580 4989 -3581 0
-3581 4942 4952 0
-3581 3550 3582 0
-3581 4952 3550 0
-3581 4942 3582 0
3581 -4942 -3550 0
3581 -4952 -3582 0
3582 4947 -4956 0
3582 -4947 4956 0
-3582 -4947 -4956 0
-3582 4947 4956 0
-3583 3584 3586 0
-3583 3586 3588 0
-3583 3584 3588 0
3583 -3584 -3588 0
3583 -3586 -3588 0
3583 -3584 -3586 0
-3584 4983 3585 0
-3584 -4983 -3585 0
3584 -4983 3585 0
3584 4983 -3585 0
-3585 3553 3554 0
-3585 4940 4990 0
-3585 4940 3554 0
-3585 4990 3553 0
3585 -4940 -3553 0
3585 -4990 -3554 0
-3586 5034 3587 0
-3586 -5034 -3587 0
3586 -5034 3587 0
3586 5034 -3587 0
-3587 3557 3558 0
-3587 4939 4996 0
-3587 4939 3558 0
-3587 4996 3557 0
3587 -4939 -3557 0
3587 -4996 -3558 0
-3588 4950 3589 0
-3588 -4950 -3589 0
3588 -4950 3589 0
3588 4950 -3589 0
-3589 3563 3564 0
-3589 4946 4986 0
-3589 4946 3564 0
-3589 4986 3563 0
3589 -4946 -3563 0
3589 -4986 -3564 0
-3590 1252 3591 0
-3590 3591 3593 0
-3590 1252 3593 0
3590 -3591 -3593 0
3590 -1252 -3591 0
3590 -1252 -3593 0
-3591 5015 3592 0
-3591 -5015 -3592 0
3591 -5015 3592 0
3591 5015 -3592 0
-3592 3567 3568 0
-3592 4953 4998 0
-3592 4953 3568 0
-3592 4998 3567 0
3592 -4953 -3567 0
3592 -4998 -3568 0
-3593 4984 3594 0
-3593 -4984 -3594 0
3593 -4984 3594 0
3593 4984 -3594 0
-3594 3571 3572 0
-3594 4960 4999 0
-3594 4960 3572 0
-3594 4999 3571 0
3594 -4960 -3571 0
3594 -4999 -3572 0
-3595 3596 3602 0
-3595 3602 3610 0
-3595 3596 3610 0
3595 -3596 -3610 0
3595 -3602 -3610 0
3595 -3596 -3602 0
-3596 3597 3600 0
-3596 -3597 -3600 0
3596 -3597 3600 0
3596 3597 -3600 0
-3597 4949 3598 0
-3597 -4949 -3598 0
3597 -4949 3598 0
3597 4949 -3598 0
-3598 -4947 -3599 0
-3598 4947 3599 0
3598 4947 -3599 0
3598 -4947 3599 0
3599 -4943 -3579 0
-3599 4943 0
-3599 3579 0
-3600 4989 3601 0
-3600 -4989 -3601 0
3600 -4989 3601 0
3600 4989 -3601 0
-3601 4952 4973 0
-3601 3550 3582 0
-3601 4973 3550 0
-3601 4952 3582 0
3601 -4952 -3550 0
3601 -4973 -3582 0
-3602 3603 3608 0
-3602 -3603 -3608 0
3602 -3603 3608 0
3602 3603 -3608 0
-3603 3604 3606 0
-3603 -3604 -3606 0
3603 -3604 3606 0
3603 3604 -3606 0
-3604 4983 3605 0
-3604 -4983 -3605 0
3604 -4983 3605 0
3604 4983 -3605 0
-3605 3553 3554 0
-3605 4940 4942 0
-3605 4942 3554 0
-3605 4940 3553 0
3605 -4942 -3553 0
3605 -4940 -3554 0
-3606 5034 3607 0
-3606 -5034 -3607 0
3606 -5034 3607 0
3606 5034 -3607 0
-3607 3557 3558 0
-3607 4939 4990 0
-3607 4990 3558 0
-3607 4939 3557 0
3607 -4990 -3557 0
3607 -4939 -3558 0
-3608 4950 3609 0
-3608 -4950 -3609 0
3608 -4950 3609 0
3608 4950 -3609 0
-3609 3563 3564 0
-3609 4946 4996 0
-3609 4996 3564 0
-3609 4946 3563 0
3609 -4996 -3563 0
3609 -4946 -3564 0
-3610 1187 3611 0
-3610 -1187 -3611 0
3610 -1187 3611 0
3610 1187 -3611 0
-3611 3612 3614 0
-3611 -3612 -3614 0
3611 -3612 3614 0
3611 3612 -3614 0
-3612 5015 3613 0
-3612 -5015 -3613 0
3612 -5015 3613 0
3612 5015 -3613 0
-3613 3567 3568 0
-3613 4953 4986 0
-3613 4986 3568 0
-3613 4953 3567 0
3613 -4986 -3567 0
3613 -4953 -3568 0
-3614 4984 3615 0
-3614 -4984 -3615 0
3614 -4984 3615 0
3614 4984 -3615 0
-3615 3571 3572 0
-3615 4960 4998 0
-3615 4998 3572 0
-3615 4960 3571 0
3615 -4998 -3571 0
3615 -4960 -3572 0
-3616 3617 3620 0
-3616 -3617 -3620 0
3616 -3617 3620 0
3616 3617 -3620 0
-3617 3618 3619 0
-3617 -3618 -3619 0
3617 -3618 3619 0
3617 3618 -3619 0
-3618 4949 3598 0
-3618 3598 3600 0
-3618 4949 3600 0
3618 -3598 -3600 0
3618 -4949 -3598 0
3618 -4949 -3600 0
-3619 3604 3606 0
-3619 3606 3608 0
-3619 3604 3608 0
3619 -3604 -3608 0
3619 -3606 -3608 0
3619 -3604 -3606 0
-3620 1187 3612 0
-3620 3612 3614 0
-3620 1187 3614 0
3620 -3612 -3614 0
3620 -1187 -3612 0
3620 -1187 -3614 0
3621 3622 -3643 0
3621 -3622 3643 0
-3621 -3622 -3643 0
-3621 3622 3643 0
-3622 3623 3624 0
-3622 -3623 -3624 0
3622 -3623 3624 0
3622 3623 -3624 0
-3623 3618 3619 0
-3623 3619 3620 0
-3623 3618 3620 0
3623 -3618 -3620 0
3623 -3619 -3620 0
3623 -3618 -3619 0
-3624 3625 3629 0
-3624 3629 3637 0
-3624 3625 3637 0
3624 -3625 -3637 0
3624 -3629 -3637 0
3624 -3625 -3629 0
-3625 3626 3627 0
-3625 -3626 -3627 0
3625 -3626 3627 0
3625 3626 -3627 0
-3626 -4947 -4949 0
-3626 4947 4949 0
3626 4947 -4949 0
3626 -4947 4949 0
-3627 4989 3628 0
-3627 -4989 -3628 0
3627 -4989 3628 0
3627 4989 -3628 0
-3628 4943 4973 0
-3628 3550 3582 0
-3628 4973 3582 0
-3628 4943 3550 0
3628 -4943 -3582 0
3628 -4973 -3550 0
-3629 3630 3635 0
-3629 -3630 -3635 0
3629 -3630 3635 0
3629 3630 -3635 0
-3630 3631 3633 0
-3630 -3631 -3633 0
3630 -3631 3633 0
3630 3631 -3633 0
-3631 4983 3632 0
-3631 -4983 -3632 0
3631 -4983 3632 0
3631 4983 -3632 0
-3632 3553 3554 0
-3632 4942 4952 0
-3632 4952 3554 0
-3632 4942 3553 0
3632 -4952 -3553 0
3632 -4942 -3554 0
-3633 5034 3634 0
-3633 -5034 -3634 0
3633 -5034 3634 0
3633 5034 -3634 0
-3634 3557 3558 0
-3634 4940 4990 0
-3634 4940 3558 0
-3634 4990 3557 0
3634 -4940 -3557 0
3634 -4990 -3558 0
-3635 4950 3636 0
-3635 -4950 -3636 0
3635 -4950 3636 0
3635 4950 -3636 0
-3636 3563 3564 0
-3636 4939 4996 0
-3636 4939 3564 0
-3636 4996 3563 0
3636 -4939 -3563 0
3636 -4996 -3564 0
-3637 1124 3638 0
-3637 -1124 -3638 0
3637 -1124 3638 0
3637 1124 -3638 0
-3638 3639 3641 0
-3638 -3639 -3641 0
3638 -3639 3641 0
3638 3639 -3641 0
-3639 5015 3640 0
-3639 -5015 -3640 0
3639 -5015 3640 0
3639 5015 -3640 0
-3640 3567 3568 0
-3640 4946 4986 0
-3640 4946 3568 0
-3640 4986 3567 0
3640 -4946 -3567 0
3640 -4986 -3568 0
-3641 4984 3642 0
-3641 -4984 -3642 0
3641 -4984 3642 0
3641 4984 -3642 0
-3642 3571 3572 0
-3642 4953 4998 0
-3642 4953 3572 0
-3642 4998 3571 0
3642 -4953 -3571 0
3642 -4998 -3572 0
3643 -3644 3647 0
3643 3644 -3647 0
-3643 3644 3647 0
-3643 -3644 -3647 0
3644 -3645 3646 0
3644 3645 -3646 0
-3644 3645 3646 0
-3644 -3645 -3646 0
3645 -4947 -4949 0
3645 -4949 3627 0
3645 -4947 3627 0
-3645 4947 -3627 0
-3645 4949 -3627 0
-3645 4947 4949 0
-3646 3631 3633 0
-3646 3633 3635 0
-3646 3631 3635 0
3646 -3631 -3635 0
3646 -3633 -3635 0
3646 -3631 -3633 0
-3647 4960 3641 0
-3647 3639 3641 0
-3647 4960 3639 0
-3647 4984 3641 0
-3647 4984 3639 0
3647 -3639 -3641 0
3647 -4960 -4984 -3641 0
3647 -4960 -4984 -3639 0
3648 -3649 3667 0
3648 3649 -3667 0
-3648 3649 3667 0
-3648 -3649 -3667 0
3649 -3650 3666 0
3649 3650 -3666 0
-3649 3650 3666 0
-3649 -3650 -3666 0
3650 -3651 3658 0
3650 3651 -3658 0
-3650 3651 3658 0
-3650 -3651 -3658 0
3651 1067 -3652 0
3651 -1067 3652 0
-3651 -1067 -3652 0
-3651 1067 3652 0
3652 -3653 3656 0
3652 3653 -3656 0
-3652 3653 3656 0
-3652 -3653 -3656 0
3653 -4989 3654 0
3653 4989 -3654 0
-3653 4989 3654 0
-3653 -4989 -3654 0
-3654 4983 3655 0
-3654 -4983 -3655 0
3654 -4983 3655 0
3654 4983 -3655 0
-3655 3553 3554 0
-3655 4943 4973 0
-3655 4943 3554 0
-3655 4973 3553 0
3655 -4943 -3553 0
3655 -4973 -3554 0
-3656 5034 3657 0
-3656 -5034 -3657 0
3656 -5034 3657 0
3656 5034 -3657 0
-3657 3557 3558 0
-3657 4942 4952 0
-3657 4952 3558 0
-3657 4942 3557 0
3657 -4952 -3557 0
3657 -4942 -3558 0
-3658 3659 3664 0
-3658 -3659 -3664 0
3658 -3659 3664 0
3658 3659 -3664 0
-3659 3660 3662 0
-3659 -3660 -3662 0
3659 -3660 3662 0
3659 3660 -3662 0
-3660 4950 3661 0
-3660 -4950 -3661 0
3660 -4950 3661 0
3660 4950 -3661 0
-3661 3563 3564 0
-3661 4940 4990 0
-3661 4940 3564 0
-3661 4990 3563 0
3661 -4940 -3563 0
3661 -4990 -3564 0
-3662 5015 3663 0
-3662 -5015 -3663 0
3662 -5015 3663 0
3662 5015 -3663 0
-3663 3567 3568 0
-3663 4939 4996 0
-3663 4939 3568 0
-3663 4996 3567 0
3663 -4939 -3567 0
3663 -4996 -3568 0
-3664 4984 3665 0
-3664 -4984 -3665 0
3664 -4984 3665 0
3664 4984 -3665 0
-3665 3571 3572 0
-3665 4946 4986 0
-3665 4946 3572 0
-3665 4986 3571 0
3665 -4946 -3571 0
3665 -4986 -3572 0
-3666 3623 3624 0
-3666 3624 -3643 0
-3666 3623 -3643 0
3666 -3623 3643 0
3666 -3624 3643 0
3666 -3623 -3624 0
-3667 3668 3671 0
-3667 -3668 -3671 0
3667 -3668 3671 0
3667 3668 -3671 0
-3668 3669 3670 0
-3668 -3669 -3670 0
3668 -3669 3670 0
3668 3669 -3670 0
-3669 -3645 3646 0
-3669 3646 3647 0
-3669 -3645 3647 0
3669 3645 -3647 0
3669 -3646 -3647 0
3669 3645 -3646 0
-3670 -1067 3546 0
-3670 3546 3559 0
-3670 -1067 3559 0
3670 1067 -3559 0
3670 -3546 -3559 0
3670 1067 -3546 0
-3671 3672 3674 0
-3671 -3672 -3674 0
3671 -3672 3674 0
3671 3672 -3674 0
-3672 1019 3673 0
-3672 -1019 -3673 0
3672 -1019 3673 0
3672 1019 -3673 0
-3673 3548 3551 0
-3673 3551 3555 0
-3673 3548 3555 0
3673 -3548 -3555 0
3673 -3551 -3555 0
3673 -3548 -3551 0
-3674 3561 3565 0
-3674 3565 3569 0
-3674 3561 3569 0
3674 -3561 -3569 0
3674 -3565 -3569 0
3674 -3561 -3565 0
-3675 3676 3713 0
-3675 3676 3714 0
3675 -3676 0
3675 -3713 -3714 0
3676 -3677 -3711 0
-3676 3677 0
-3676 3711 0
-3677 3678 3680 0
-3677 3680 3709 0
-3677 3678 3709 0
3677 -3678 -3709 0
3677 -3680 -3709 0
3677 -3678 -3680 0
-3678 3637 3679 0
-3678 -3637 -3679 0
3678 -3637 3679 0
3678 3637 -3679 0
-3679 3625 3629 0
-3679 -3625 -3629 0
3679 -3625 3629 0
3679 3625 -3629 0
-3680 3681 3700 0
-3680 3700 3707 0
-3680 3681 3707 0
3680 -3681 -3707 0
3680 -3700 -3707 0
3680 -3681 -3700 0
-3681 3682 3688 0
-3681 3688 3695 0
-3681 3682 3695 0
3681 -3682 -3695 0
3681 -3688 -3695 0
3681 -3682 -3688 0
-3682 3683 3685 0
-3682 4989 3683 3687 0
-3682 -4989 3685 -3687 0
-3682 -4989 3683 -3687 0
-3682 4989 3685 3687 0
3682 -3683 -3685 0
3682 -4989 -3685 3687 0
3682 4989 -3683 -3687 0
3682 4989 -3685 -3687 0
3682 -4989 -3683 3687 0
-3683 3684 0
3683 -3684 0
3684 -4945 -4949 0
3684 4943 -4949 0
-3684 4949 0
-3684 -4943 4945 0
-3685 4947 3686 0
-3685 -4947 -3686 0
3685 -4947 3686 0
3685 4947 -3686 0
-3686 3578 3579 0
-3686 4952 4973 0
-3686 4973 3579 0
-3686 4952 3578 0
3686 -4973 -3578 0
3686 -4952 -3579 0
-3687 4940 4942 0
-3687 3550 3582 0
-3687 4942 3550 0
-3687 4940 3582 0
3687 -4940 -3550 0
3687 -4942 -3582 0
-3688 3689 3691 0
-3688 3691 3693 0
-3688 3689 3693 0
3688 -3689 -3693 0
3688 -3691 -3693 0
3688 -3689 -3691 0
-3689 4983 3690 0
-3689 -4983 -3690 0
3689 -4983 3690 0
3689 4983 -3690 0
-3690 3553 3554 0
-3690 4939 4990 0
-3690 4990 3554 0
-3690 4939 3553 0
3690 -4990 -3553 0
3690 -4939 -3554 0
-3691 5034 3692 0
-3691 -5034 -3692 0
3691 -5034 3692 0
3691 5034 -3692 0
-3692 3557 3558 0
-3692 4946 4996 0
-3692 4996 3558 0
-3692 4946 3557 0
3692 -4996 -3557 0
3692 -4946 -3558 0
-3693 4950 3694 0
-3693 -4950 -3694 0
3693 -4950 3694 0
3693 4950 -3694 0
-3694 3563 3564 0
-3694 4953 4986 0
-3694 4986 3564 0
-3694 4953 3563 0
3694 -4986 -3563 0
3694 -4953 -3564 0
-3695 1320 3696 0
-3695 3696 3698 0
-3695 1320 3698 0
3695 -3696 -3698 0
3695 -1320 -3696 0
3695 -1320 -3698 0
-3696 5015 3697 0
-3696 -5015 -3697 0
3696 -5015 3697 0
3696 5015 -3697 0
-3697 3567 3568 0
-3697 4960 4998 0
-3697 4998 3568 0
-3697 4960 3567 0
3697 -4998 -3567 0
3697 -4960 -3568 0
-3698 4984 3699 0
-3698 -4984 -3699 0
3698 -4984 3699 0
3698 4984 -3699 0
-3699 3571 3572 0
-3699 4999 5000 0
-3699 4999 3572 0
-3699 5000 3571 0
3699 -4999 -3571 0
3699 -5000 -3572 0
-3700 3701 3703 0
-3700 3703 3705 0
-3700 3701 3705 0
3700 -3701 -3705 0
3700 -3703 -3705 0
3700 -3701 -3703 0
-3701 3580 3702 0
-3701 -3580 -3702 0
3701 -3580 3702 0
3701 3580 -3702 0
-3702 4949 3576 0
-3702 -4949 -3576 0
3702 -4949 3576 0
3702 4949 -3576 0
-3703 3588 3704 0
-3703 -3588 -3704 0
3703 -3588 3704 0
3703 3588 -3704 0
-3704 3584 3586 0
-3704 -3584 -3586 0
3704 -3584 3586 0
3704 3584 -3586 0
-3705 1252 3706 0
-3705 -1252 -3706 0
3705 -1252 3706 0
3705 1252 -3706 0
-3706 3591 3593 0
-3706 -3591 -3593 0
3706 -3591 3593 0
3706 3591 -3593 0
-3707 3590 3708 0
-3707 -3590 -3708 0
3707 -3590 3708 0
3707 3590 -3708 0
-3708 3575 3583 0
-3708 -3575 -3583 0
3708 -3575 3583 0
3708 3575 -3583 0
-3709 3616 3710 0
-3709 -3616 -3710 0
3709 -3616 3710 0
3709 3616 -3710 0
-3710 3574 3595 0
-3710 -3574 -3595 0
3710 -3574 3595 0
3710 3574 -3595 0
-3711 -3621 -3712 0
-3711 3621 3712 0
3711 3621 -3712 0
3711 -3621 3712 0
3712 -3544 3573 0
3712 3544 -3573 0
-3712 3544 3573 0
-3712 -3544 -3573 0
-3713 3677 3711 0
-3713 -3677 -3711 0
3713 -3677 3711 0
3713 3677 -3711 0
-3714 3715 3792 0
-3714 3792 3854 0
-3714 3792 3857 0
3714 -3792 0
3714 -3715 -3854 -3857 0
3715 -3716 -3758 0
-3715 3716 0
-3715 3758 0
-3716 3717 3756 0
-3716 -3717 -3756 0
3716 -3717 3756 0
3716 3717 -3756 0
-3717 3718 3720 0
-3717 3720 3754 0
-3717 3718 3754 0
3717 -3718 -3754 0
3717 -3720 -3754 0
3717 -3718 -3720 0
-3718 3610 3719 0
-3718 -3610 -3719 0
3718 -3610 3719 0
3718 3610 -3719 0
-3719 3596 3602 0
-3719 -3596 -3602 0
3719 -3596 3602 0
3719 3596 -3602 0
-3720 3721 3743 0
-3720 3743 3752 0
-3720 3721 3752 0
3720 -3721 -3752 0
3720 -3743 -3752 0
3720 -3721 -3743 0
-3721 3722 3730 0
-3721 3730 3737 0
-3721 3722 3737 0
3721 -3722 -3737 0
3721 -3730 -3737 0
3721 -3722 -3730 0
-3722 3723 3726 0
-3722 3726 3728 0
-3722 3723 3728 0
3722 -3723 -3728 0
3722 -3726 -3728 0
3722 -3723 -3726 0
-3723 4949 3724 0
-3723 -4949 -3724 0
3723 -4949 3724 0
3723 4949 -3724 0
-3724 1149 3725 0
-3724 4973 1149 0
3724 -1149 0
3724 -4973 -3725 0
3725 4945 -4949 0
-3725 -4945 0
-3725 4949 0
-3726 4947 3727 0
-3726 -4947 -3727 0
3726 -4947 3727 0
3726 4947 -3727 0
-3727 3578 3579 0
-3727 4942 4952 0
-3727 4952 3579 0
-3727 4942 3578 0
3727 -4952 -3578 0
3727 -4942 -3579 0
-3728 4989 3729 0
-3728 -4989 -3729 0
3728 -4989 3729 0
3728 4989 -3729 0
-3729 4940 4990 0
-3729 3550 3582 0
-3729 4990 3582 0
-3729 4940 3550 0
3729 -4940 -3582 0
3729 -4990 -3550 0
-3730 3731 3733 0
-3730 3733 3735 0
-3730 3731 3735 0
3730 -3731 -3735 0
3730 -3733 -3735 0
3730 -3731 -3733 0
-3731 4983 3732 0
-3731 -4983 -3732 0
3731 -4983 3732 0
3731 4983 -3732 0
-3732 3553 3554 0
-3732 4939 4996 0
-3732 4939 3554 0
-3732 4996 3553 0
3732 -4939 -3553 0
3732 -4996 -3554 0
-3733 5034 3734 0
-3733 -5034 -3734 0
3733 -5034 3734 0
3733 5034 -3734 0
-3734 3557 3558 0
-3734 4946 4986 0
-3734 4946 3558 0
-3734 4986 3557 0
3734 -4946 -3557 0
3734 -4986 -3558 0
-3735 4950 3736 0
-3735 -4950 -3736 0
3735 -4950 3736 0
3735 4950 -3736 0
-3736 3563 3564 0
-3736 4953 4998 0
-3736 4953 3564 0
-3736 4998 3563 0
3736 -4953 -3563 0
3736 -4998 -3564 0
-3737 4984 3738 0
-3737 3738 3740 0
-3737 4984 3740 0
-3737 3740 -3742 0
-3737 3738 -3742 0
3737 -3738 -3740 0
3737 -4984 -3738 3742 0
3737 -4984 -3740 3742 0
-3738 5015 3739 0
-3738 -5015 -3739 0
3738 -5015 3739 0
3738 5015 -3739 0
-3739 3567 3568 0
-3739 4960 4999 0
-3739 4960 3568 0
-3739 4999 3567 0
3739 -4960 -3567 0
3739 -4999 -3568 0
-3740 4984 3741 0
-3740 -4984 -3741 0
3740 -4984 3741 0
3740 4984 -3741 0
-3741 3571 3572 0
-3741 5000 5001 0
-3741 5000 3572 0
-3741 5001 3571 0
3741 -5000 -3571 0
3741 -5001 -3572 0
3742 -5001 -3571 0
-3742 5001 0
-3742 3571 0
-3743 3747 3749 0
-3743 3744 3751 0
-3743 3744 3749 0
-3743 3747 3751 0
3743 -3749 -3751 0
3743 -3744 -3747 0
-3744 3745 3746 0
-3744 -3745 -3746 0
3744 -3745 3746 0
3744 3745 -3746 0
-3745 4989 3687 0
-3745 -4989 -3687 0
3745 -4989 3687 0
3745 4989 -3687 0
-3746 3683 3685 0
-3746 -3683 -3685 0
3746 -3683 3685 0
3746 3683 -3685 0
-3747 3693 3748 0
-3747 -3693 -3748 0
3747 -3693 3748 0
3747 3693 -3748 0
-3748 3689 3691 0
-3748 -3689 -3691 0
3748 -3689 3691 0
3748 3689 -3691 0
-3749 1320 3750 0
-3749 -1320 -3750 0
3749 -1320 3750 0
3749 1320 -3750 0
-3750 3696 3698 0
-3750 -3696 -3698 0
3750 -3696 3698 0
3750 3696 -3698 0
-3751 3744 3747 0
-3751 -3744 -3747 0
3751 -3744 3747 0
3751 3744 -3747 0
-3752 3695 3753 0
-3752 -3695 -3753 0
3752 -3695 3753 0
3752 3695 -3753 0
-3753 3682 3688 0
-3753 -3682 -3688 0
3753 -3682 3688 0
3753 3682 -3688 0
-3754 3707 3755 0
-3754 -3707 -3755 0
3754 -3707 3755 0
3754 3707 -3755 0
-3755 3681 3700 0
-3755 -3681 -3700 0
3755 -3681 3700 0
3755 3681 -3700 0
-3756 3709 3757 0
-3756 -3709 -3757 0
3756 -3709 3757 0
3756 3709 -3757 0
-3757 3678 3680 0
-3757 -3678 -3680 0
3757 -3678 3680 0
3757 3678 -3680 0
-3758 3759 3790 0
-3758 -3759 -3790 0
3758 -3759 3790 0
3758 3759 -3790 0
-3759 3760 3762 0
-3759 3762 3788 0
-3759 3760 3788 0
3759 -3760 -3788 0
3759 -3762 -3788 0
3759 -3760 -3762 0
-3760 3705 3761 0
-3760 -3705 -3761 0
3760 -3705 3761 0
3760 3705 -3761 0
-3761 3701 3703 0
-3761 -3701 -3703 0
3761 -3701 3703 0
3761 3701 -3703 0
-3762 3763 3786 0
-3762 3763 3780 0
-3762 3780 3786 0
3762 -3780 -3786 0
3762 -3763 -3786 0
3762 -3763 -3780 0
-3763 3764 3771 0
-3763 3771 3778 0
-3763 3764 3778 0
3763 -3764 -3778 0
3763 -3771 -3778 0
3763 -3764 -3771 0
-3764 3765 3767 0
-3764 3767 3769 0
-3764 3765 3769 0
3764 -3765 -3769 0
3764 -3767 -3769 0
3764 -3765 -3767 0
-3765 4949 3766 0
-3765 -4949 -3766 0
3765 -4949 3766 0
3765 4949 -3766 0
-3766 1214 3725 0
-3766 4952 1214 0
3766 -1214 0
3766 -4952 -3725 0
-3767 4947 3768 0
-3767 -4947 -3768 0
3767 -4947 3768 0
3767 4947 -3768 0
-3768 3578 3579 0
-3768 4940 4942 0
-3768 4942 3579 0
-3768 4940 3578 0
3768 -4942 -3578 0
3768 -4940 -3579 0
-3769 4989 3770 0
-3769 -4989 -3770 0
3769 -4989 3770 0
3769 4989 -3770 0
-3770 4939 4990 0
-3770 3550 3582 0
-3770 4990 3550 0
-3770 4939 3582 0
3770 -4939 -3550 0
3770 -4990 -3582 0
-3771 3772 3774 0
-3771 3774 3776 0
-3771 3772 3776 0
3771 -3772 -3776 0
3771 -3774 -3776 0
3771 -3772 -3774 0
-3772 4983 3773 0
-3772 -4983 -3773 0
3772 -4983 3773 0
3772 4983 -3773 0
-3773 3553 3554 0
-3773 4946 4996 0
-3773 4996 3554 0
-3773 4946 3553 0
3773 -4996 -3553 0
3773 -4946 -3554 0
-3774 5034 3775 0
-3774 -5034 -3775 0
3774 -5034 3775 0
3774 5034 -3775 0
-3775 3557 3558 0
-3775 4953 4986 0
-3775 4986 3558 0
-3775 4953 3557 0
3775 -4986 -3557 0
3775 -4953 -3558 0
-3776 4950 3777 0
-3776 -4950 -3777 0
3776 -4950 3777 0
3776 4950 -3777 0
-3777 3563 3564 0
-3777 4960 4998 0
-3777 4998 3564 0
-3777 4960 3563 0
3777 -4998 -3563 0
3777 -4960 -3564 0
-3778 3728 3779 0
-3778 -3728 -3779 0
3778 -3728 3779 0
3778 3728 -3779 0
-3779 3723 3726 0
-3779 -3723 -3726 0
3779 -3723 3726 0
3779 3723 -3726 0
3780 -3781 -3783 0
-3780 3781 0
-3780 3783 0
-3781 3735 3782 0
-3781 -3735 -3782 0
3781 -3735 3782 0
3781 3735 -3782 0
-3782 3731 3733 0
-3782 -3731 -3733 0
3782 -3731 3733 0
3782 3731 -3733 0
-3783 3784 3785 0
-3783 -3784 -3785 0
3783 -3784 3785 0
3783 3784 -3785 0
3784 -4984 3742 0
-3784 4984 0
-3784 -3742 0
-3785 3738 3740 0
-3785 -3738 -3740 0
3785 -3738 3740 0
3785 3738 -3740 0
-3786 3737 3787 0
-3786 -3737 -3787 0
3786 -3737 3787 0
3786 3737 -3787 0
-3787 3722 3730 0
-3787 -3722 -3730 0
3787 -3722 3730 0
3787 3722 -3730 0
-3788 3752 3789 0
-3788 -3752 -3789 0
3788 -3752 3789 0
3788 3752 -3789 0
-3789 3721 3743 0
-3789 -3721 -3743 0
3789 -3721 3743 0
3789 3721 -3743 0
-3790 3754 3791 0
-3790 -3754 -3791 0
3790 -3754 3791 0
3790 3754 -3791 0
-3791 3718 3720 0
-3791 -3718 -3720 0
3791 -3718 3720 0
3791 3718 -3720 0
-3792 3717 3756 3794 0
-3792 3717 3793 3794 0
-3792 3756 3793 3794 0
3792 -3756 -3793 0
3792 -3717 -3756 0
3792 -3794 0
3792 -3717 -3793 0
3793 -3759 -3790 0
-3793 3759 0
-3793 3790 0
3794 -3715 -3795 0
-3794 3715 0
-3794 3795 0
-3795 3796 3825 0
-3795 3825 3827 0
-3795 3796 3827 0
3795 -3825 -3827 0
3795 -3796 -3825 0
3795 -3796 -3827 0
-3796 3797 3798 0
-3796 3798 3823 0
-3796 3797 3823 0
3796 -3797 -3823 0
3796 -3798 -3823 0
3796 -3797 -3798 0
-3797 3749 3751 0
-3797 -3749 -3751 0
3797 -3749 3751 0
3797 3749 -3751 0
-3798 3799 3809 0
-3798 3809 3821 0
-3798 3799 3821 0
3798 -3799 -3821 0
3798 -3809 -3821 0
3798 -3799 -3809 0
-3799 3742 3800 0
-3799 3800 3802 0
-3799 3742 3802 0
3799 -3800 -3802 0
3799 -3742 -3800 0
3799 -3742 -3802 0
-3800 5015 3801 0
-3800 -5015 -3801 0
3800 -5015 3801 0
3800 5015 -3801 0
-3801 3567 3568 0
-3801 4999 5000 0
-3801 4999 3568 0
-3801 5000 3567 0
3801 -4999 -3567 0
3801 -5000 -3568 0
-3802 3803 3805 0
-3802 3805 3807 0
-3802 3803 3807 0
3802 -3803 -3807 0
3802 -3805 -3807 0
3802 -3803 -3805 0
-3803 4949 3804 0
-3803 -4949 -3804 0
3803 -4949 3804 0
3803 4949 -3804 0
-3804 1282 3725 0
-3804 4942 1282 0
3804 -1282 0
3804 -4942 -3725 0
-3805 4947 3806 0
-3805 -4947 -3806 0
3805 -4947 3806 0
3805 4947 -3806 0
-3806 3578 3579 0
-3806 4940 4990 0
-3806 4940 3579 0
-3806 4990 3578 0
3806 -4940 -3578 0
3806 -4990 -3579 0
-3807 4989 3808 0
-3807 -4989 -3808 0
3807 -4989 3808 0
3807 4989 -3808 0
-3808 4939 4996 0
-3808 3550 3582 0
-3808 4996 3582 0
-3808 4939 3550 0
3808 -4939 -3582 0
3808 -4996 -3550 0
-3809 3810 3817 0
-3809 3817 3819 0
-3809 3810 3819 0
3809 -3810 -3819 0
3809 -3817 -3819 0
3809 -3810 -3817 0
-3810 3811 3813 0
-3810 3813 3815 0
-3810 3811 3815 0
3810 -3811 -3815 0
3810 -3813 -3815 0
3810 -3811 -3813 0
-3811 4983 3812 0
-3811 -4983 -3812 0
3811 -4983 3812 0
3811 4983 -3812 0
-3812 3553 3554 0
-3812 4946 4986 0
-3812 4946 3554 0
-3812 4986 3553 0
3812 -4946 -3553 0
3812 -4986 -3554 0
-3813 5034 3814 0
-3813 -5034 -3814 0
3813 -5034 3814 0
3813 5034 -3814 0
-3814 3557 3558 0
-3814 4953 4998 0
-3814 4953 3558 0
-3814 4998 3557 0
3814 -4953 -3557 0
3814 -4998 -3558 0
-3815 4950 3816 0
-3815 -4950 -3816 0
3815 -4950 3816 0
3815 4950 -3816 0
-3816 3563 3564 0
-3816 4960 4999 0
-3816 4960 3564 0
-3816 4999 3563 0
3816 -4960 -3563 0
3816 -4999 -3564 0
-3817 3769 3818 0
-3817 -3769 -3818 0
3817 -3769 3818 0
3817 3769 -3818 0
-3818 3765 3767 0
-3818 -3765 -3767 0
3818 -3765 3767 0
3818 3765 -3767 0
-3819 3776 3820 0
-3819 -3776 -3820 0
3819 -3776 3820 0
3819 3776 -3820 0
-3820 3772 3774 0
-3820 -3772 -3774 0
3820 -3772 3774 0
3820 3772 -3774 0
-3821 3778 3822 0
-3821 -3778 -3822 0
3821 -3778 3822 0
3821 3778 -3822 0
-3822 3764 3771 0
-3822 -3764 -3771 0
3822 -3764 3771 0
3822 3764 -3771 0
-3823 3786 3824 0
-3823 -3786 -3824 0
3823 -3786 3824 0
3823 3786 -3824 0
-3824 -3763 -3780 0
-3824 3763 3780 0
3824 3763 -3780 0
3824 -3763 3780 0
-3825 3788 3826 0
-3825 -3788 -3826 0
3825 -3788 3826 0
3825 3788 -3826 0
-3826 3760 3762 0
-3826 -3760 -3762 0
3826 -3760 3762 0
3826 3760 -3762 0
3827 -3828 -3852 0
-3827 3828 0
-3827 3852 0
-3828 3829 3830 0
-3828 3830 3850 0
-3828 3829 3850 0
3828 -3829 -3850 0
3828 -3830 -3850 0
3828 -3829 -3830 0
-3829 3781 3783 0
-3829 -3781 -3783 0
3829 -3781 3783 0
3829 3781 -3783 0
-3830 3831 3848 0
-3830 3831 3843 0
-3830 3843 3848 0
3830 -3843 -3848 0
3830 -3831 -3848 0
3830 -3831 -3843 0
-3831 3832 3836 0
-3831 3832 3834 0
-3831 3834 3836 0
3831 -3834 -3836 0
3831 -3832 -3836 0
3831 -3832 -3834 0
-3832 5015 3833 0
-3832 -5015 -3833 0
3832 -5015 3833 0
3832 5015 -3833 0
-3833 3567 3568 0
-3833 5000 5001 0
-3833 5000 3568 0
-3833 5001 3567 0
3833 -5000 -3567 0
3833 -5001 -3568 0
3834 -5015 3835 0
-3834 5015 0
-3834 -3835 0
3835 -5001 -3567 0
-3835 5001 0
-3835 3567 0
-3836 3837 3839 0
-3836 3839 3841 0
-3836 3837 3841 0
3836 -3837 -3841 0
3836 -3839 -3841 0
3836 -3837 -3839 0
-3837 4949 3838 0
-3837 -4949 -3838 0
3837 -4949 3838 0
3837 4949 -3838 0
-3838 1350 3725 0
-3838 4940 1350 0
3838 -1350 0
3838 -4940 -3725 0
-3839 4947 3840 0
-3839 -4947 -3840 0
3839 -4947 3840 0
3839 4947 -3840 0
-3840 3578 3579 0
-3840 4939 4990 0
-3840 4990 3579 0
-3840 4939 3578 0
3840 -4990 -3578 0
3840 -4939 -3579 0
-3841 4989 3842 0
-3841 -4989 -3842 0
3841 -4989 3842 0
3841 4989 -3842 0
-3842 4946 4996 0
-3842 3550 3582 0
-3842 4996 3550 0
-3842 4946 3582 0
3842 -4946 -3550 0
3842 -4996 -3582 0
3843 -3844 -3846 0
-3843 3844 0
-3843 3846 0
-3844 3807 3845 0
-3844 -3807 -3845 0
3844 -3807 3845 0
3844 3807 -3845 0
-3845 3803 3805 0
-3845 -3803 -3805 0
3845 -3803 3805 0
3845 3803 -3805 0
-3846 3815 3847 0
-3846 -3815 -3847 0
3846 -3815 3847 0
3846 3815 -3847 0
-3847 3811 3813 0
-3847 -3811 -3813 0
3847 -3811 3813 0
3847 3811 -3813 0
-3848 3802 3849 0
-3848 -3802 -3849 0
3848 -3802 3849 0
3848 3802 -3849 0
-3849 3742 3800 0
-3849 -3742 -3800 0
3849 -3742 3800 0
3849 3742 -3800 0
-3850 3821 3851 0
-3850 -3821 -3851 0
3850 -3821 3851 0
3850 3821 -3851 0
-3851 3799 3809 0
-3851 -3799 -3809 0
3851 -3799 3809 0
3851 3799 -3809 0
-3852 3823 3853 0
-3852 -3823 -3853 0
3852 -3823 3853 0
3852 3823 -3853 0
-3853 3797 3798 0
-3853 -3797 -3798 0
3853 -3797 3798 0
3853 3797 -3798 0
3854 -3855 -3856 0
-3854 3855 0
-3854 3856 0
-3855 3796 3825 0
-3855 -3796 -3825 0
3855 -3796 3825 0
3855 3796 -3825 0
-3856 3828 3852 0
-3856 -3828 -3852 0
3856 -3828 3852 0
3856 3828 -3852 0
-3857 3858 3957 0
-3857 3957 4031 0
-3857 3957 4035 0
3857 -3957 0
3857 -3858 -4031 -4035 0
3858 -3859 -3910 0
-3858 3859 0
-3858 3910 0
3859 -3860 -3888 0
-3859 3860 0
-3859 3888 0
-3860 3861 3886 0
-3860 -3861 -3886 0
3860 -3861 3886 0
3860 3861 -3886 0
-3861 3862 3864 0
-3861 3864 3884 0
-3861 3862 3884 0
3861 -3862 -3884 0
3861 -3864 -3884 0
3861 -3862 -3864 0
-3862 3819 3863 0
-3862 -3819 -3863 0
3862 -3819 3863 0
3862 3819 -3863 0
-3863 3810 3817 0
-3863 -3810 -3817 0
3863 -3810 3817 0
3863 3810 -3817 0
-3864 3865 3872 0
-3864 3872 3882 0
-3864 3865 3882 0
3864 -3865 -3882 0
3864 -3872 -3882 0
3864 -3865 -3872 0
-3865 3866 3868 0
-3865 3868 3870 0
-3865 3866 3870 0
3865 -3866 -3870 0
3865 -3868 -3870 0
3865 -3866 -3868 0
-3866 4983 3867 0
-3866 -4983 -3867 0
3866 -4983 3867 0
3866 4983 -3867 0
-3867 3553 3554 0
-3867 4953 4986 0
-3867 4986 3554 0
-3867 4953 3553 0
3867 -4986 -3553 0
3867 -4953 -3554 0
-3868 5034 3869 0
-3868 -5034 -3869 0
3868 -5034 3869 0
3868 5034 -3869 0
-3869 3557 3558 0
-3869 4960 4998 0
-3869 4998 3558 0
-3869 4960 3557 0
3869 -4998 -3557 0
3869 -4960 -3558 0
-3870 4950 3871 0
-3870 -4950 -3871 0
3870 -4950 3871 0
3870 4950 -3871 0
-3871 3563 3564 0
-3871 4999 5000 0
-3871 4999 3564 0
-3871 5000 3563 0
3871 -4999 -3563 0
3871 -5000 -3564 0
-3872 3835 3873 0
-3872 3873 3880 0
-3872 3835 3880 0
3872 -3873 -3880 0
3872 -3835 -3873 0
3872 -3835 -3880 0
-3873 3874 3876 0
-3873 3876 3878 0
-3873 3874 3878 0
3873 -3874 -3878 0
3873 -3876 -3878 0
3873 -3874 -3876 0
-3874 4949 3875 0
-3874 -4949 -3875 0
3874 -4949 3875 0
3874 4949 -3875 0
-3875 1411 3725 0
-3875 4990 1411 0
3875 -1411 0
3875 -4990 -3725 0
-3876 4947 3877 0
-3876 -4947 -3877 0
3876 -4947 3877 0
3876 4947 -3877 0
-3877 3578 3579 0
-3877 4939 4996 0
-3877 4939 3579 0
-3877 4996 3578 0
3877 -4939 -3578 0
3877 -4996 -3579 0
-3878 4989 3879 0
-3878 -4989 -3879 0
3878 -4989 3879 0
3878 4989 -3879 0
-3879 4946 4986 0
-3879 3550 3582 0
-3879 4986 3582 0
-3879 4946 3550 0
3879 -4946 -3582 0
3879 -4986 -3550 0
-3880 3841 3881 0
-3880 -3841 -3881 0
3880 -3841 3881 0
3880 3841 -3881 0
-3881 3837 3839 0
-3881 -3837 -3839 0
3881 -3837 3839 0
3881 3837 -3839 0
-3882 3836 3883 0
-3882 -3836 -3883 0
3882 -3836 3883 0
3882 3836 -3883 0
-3883 -3832 -3834 0
-3883 3832 3834 0
3883 3832 -3834 0
3883 -3832 3834 0
-3884 3848 3885 0
-3884 -3848 -3885 0
3884 -3848 3885 0
3884 3848 -3885 0
-3885 -3831 -3843 0
-3885 3831 3843 0
3885 3831 -3843 0
3885 -3831 3843 0
-3886 3850 3887 0
-3886 -3850 -3887 0
3886 -3850 3887 0
3886 3850 -3887 0
-3887 3829 3830 0
-3887 -3829 -3830 0
3887 -3829 3830 0
3887 3829 -3830 0
-3888 3889 3908 0
-3888 -3889 -3908 0
3888 -3889 3908 0
3888 3889 -3908 0
-3889 3890 3891 0
-3889 3891 3906 0
-3889 3890 3906 0
3889 -3890 -3906 0
3889 -3891 -3906 0
3889 -3890 -3891 0
-3890 3844 3846 0
-3890 -3844 -3846 0
3890 -3844 3846 0
3890 3844 -3846 0
-3891 3892 3904 0
-3891 3892 3899 0
-3891 3899 3904 0
3891 -3899 -3904 0
3891 -3892 -3904 0
3891 -3892 -3899 0
-3892 3893 3895 0
-3892 3895 3897 0
-3892 3893 3897 0
3892 -3893 -3897 0
3892 -3895 -3897 0
3892 -3893 -3895 0
-3893 4983 3894 0
-3893 -4983 -3894 0
3893 -4983 3894 0
3893 4983 -3894 0
-3894 3553 3554 0
-3894 4953 4998 0
-3894 4953 3554 0
-3894 4998 3553 0
3894 -4953 -3553 0
3894 -4998 -3554 0
-3895 5034 3896 0
-3895 -5034 -3896 0
3895 -5034 3896 0
3895 5034 -3896 0
-3896 3557 3558 0
-3896 4960 4999 0
-3896 4960 3558 0
-3896 4999 3557 0
3896 -4960 -3557 0
3896 -4999 -3558 0
-3897 4950 3898 0
-3897 -4950 -3898 0
3897 -4950 3898 0
3897 4950 -3898 0
-3898 3563 3564 0
-3898 5000 5001 0
-3898 5000 3564 0
-3898 5001 3563 0
3898 -5000 -3563 0
3898 -5001 -3564 0
3899 -3900 -3902 0
-3899 3900 0
-3899 3902 0
3900 -4950 3901 0
-3900 4950 0
-3900 -3901 0
3901 -5001 -3563 0
-3901 5001 0
-3901 3563 0
-3902 3878 3903 0
-3902 -3878 -3903 0
3902 -3878 3903 0
3902 3878 -3903 0
-3903 3874 3876 0
-3903 -3874 -3876 0
3903 -3874 3876 0
3903 3874 -3876 0
-3904 3870 3905 0
-3904 -3870 -3905 0
3904 -3870 3905 0
3904 3870 -3905 0
-3905 3866 3868 0
-3905 -3866 -3868 0
3905 -3866 3868 0
3905 3866 -3868 0
-3906 3882 3907 0
-3906 -3882 -3907 0
3906 -3882 3907 0
3906 3882 -3907 0
-3907 3865 3872 0
-3907 -3865 -3872 0
3907 -3865 3872 0
3907 3865 -3872 0
-3908 3884 3909 0
-3908 -3884 -3909 0
3908 -3884 3909 0
3908 3884 -3909 0
-3909 3862 3864 0
-3909 -3862 -3864 0
3909 -3862 3864 0
3909 3862 -3864 0
3910 -3911 -3934 0
-3910 3911 0
-3910 3934 0
-3911 3912 3932 0
-3911 -3912 -3932 0
3911 -3912 3932 0
3911 3912 -3932 0
-3912 3913 3915 0
-3912 3915 3930 0
-3912 3913 3930 0
3912 -3913 -3930 0
3912 -3915 -3930 0
3912 -3913 -3915 0
-3913 3880 3914 0
-3913 -3880 -3914 0
3913 -3880 3914 0
3913 3880 -3914 0
-3914 3835 3873 0
-3914 -3835 -3873 0
3914 -3835 3873 0
3914 3835 -3873 0
-3915 3916 3923 0
-3915 3923 3928 0
-3915 3916 3928 0
3915 -3916 -3928 0
3915 -3923 -3928 0
3915 -3916 -3923 0
-3916 3917 3919 0
-3916 3919 3921 0
-3916 3917 3921 0
3916 -3917 -3921 0
3916 -3919 -3921 0
3916 -3917 -3919 0
-3917 4949 3918 0
-3917 -4949 -3918 0
3917 -4949 3918 0
3917 4949 -3918 0
-3918 1470 3725 0
-3918 4939 1470 0
3918 -1470 0
3918 -4939 -3725 0
-3919 4947 3920 0
-3919 -4947 -3920 0
3919 -4947 3920 0
3919 4947 -3920 0
-3920 3578 3579 0
-3920 4946 4996 0
-3920 4996 3579 0
-3920 4946 3578 0
3920 -4996 -3578 0
3920 -4946 -3579 0
-3921 4989 3922 0
-3921 -4989 -3922 0
3921 -4989 3922 0
3921 4989 -3922 0
-3922 4953 4986 0
-3922 3550 3582 0
-3922 4986 3550 0
-3922 4953 3582 0
3922 -4953 -3550 0
3922 -4986 -3582 0
-3923 3901 3924 0
-3923 3924 3926 0
-3923 3901 3926 0
3923 -3924 -3926 0
3923 -3901 -3924 0
3923 -3901 -3926 0
-3924 4983 3925 0
-3924 -4983 -3925 0
3924 -4983 3925 0
3924 4983 -3925 0
-3925 3553 3554 0
-3925 4960 4998 0
-3925 4998 3554 0
-3925 4960 3553 0
3925 -4998 -3553 0
3925 -4960 -3554 0
-3926 5034 3927 0
-3926 -5034 -3927 0
3926 -5034 3927 0
3926 5034 -3927 0
-3927 3557 3558 0
-3927 4999 5000 0
-3927 4999 3558 0
-3927 5000 3557 0
3927 -4999 -3557 0
3927 -5000 -3558 0
-3928 3897 3929 0
-3928 -3897 -3929 0
3928 -3897 3929 0
3928 3897 -3929 0
-3929 3893 3895 0
-3929 -3893 -3895 0
3929 -3893 3895 0
3929 3893 -3895 0
-3930 3904 3931 0
-3930 -3904 -3931 0
3930 -3904 3931 0
3930 3904 -3931 0
-3931 -3892 -3899 0
-3931 3892 3899 0
3931 3892 -3899 0
3931 -3892 3899 0
-3932 3906 3933 0
-3932 -3906 -3933 0
3932 -3906 3933 0
3932 3906 -3933 0
-3933 3890 3891 0
-3933 -3890 -3891 0
3933 -3890 3891 0
3933 3890 -3891 0
-3934 3935 3955 0
-3934 -3935 -3955 0
3934 -3935 3955 0
3934 3935 -3955 0
-3935 3936 3937 0
-3935 3937 3953 0
-3935 3936 3953 0
3935 -3936 -3953 0
3935 -3937 -3953 0
3935 -3936 -3937 0
-3936 3900 3902 0
-3936 -3900 -3902 0
3936 -3900 3902 0
3936 3900 -3902 0
-3937 3938 3945 0
-3937 3945 3951 0
-3937 3938 3951 0
3937 -3938 -3951 0
3937 -3945 -3951 0
3937 -3938 -3945 0
-3938 3939 3941 0
-3938 3941 3943 0
-3938 3939 3943 0
3938 -3939 -3943 0
3938 -3941 -3943 0
3938 -3939 -3941 0
-3939 4949 3940 0
-3939 -4949 -3940 0
3939 -4949 3940 0
3939 4949 -3940 0
-3940 1530 3725 0
-3940 4996 1530 0
3940 -1530 0
3940 -4996 -3725 0
-3941 4947 3942 0
-3941 -4947 -3942 0
3941 -4947 3942 0
3941 4947 -3942 0
-3942 3578 3579 0
-3942 4946 4986 0
-3942 4946 3579 0
-3942 4986 3578 0
3942 -4946 -3578 0
3942 -4986 -3579 0
-3943 4989 3944 0
-3943 -4989 -3944 0
3943 -4989 3944 0
3943 4989 -3944 0
-3944 4953 4998 0
-3944 3550 3582 0
-3944 4998 3582 0
-3944 4953 3550 0
3944 -4953 -3582 0
3944 -4998 -3550 0
-3945 5034 3946 0
-3945 3946 3948 0
-3945 5034 3948 0
-3945 3948 -3950 0
-3945 3946 -3950 0
3945 -3946 -3948 0
3945 -5034 -3946 3950 0
3945 -5034 -3948 3950 0
-3946 4983 3947 0
-3946 -4983 -3947 0
3946 -4983 3947 0
3946 4983 -3947 0
-3947 3553 3554 0
-3947 4960 4999 0
-3947 4960 3554 0
-3947 4999 3553 0
3947 -4960 -3553 0
3947 -4999 -3554 0
-3948 5034 3949 0
-3948 -5034 -3949 0
3948 -5034 3949 0
3948 5034 -3949 0
-3949 3557 3558 0
-3949 5000 5001 0
-3949 5000 3558 0
-3949 5001 3557 0
3949 -5000 -3557 0
3949 -5001 -3558 0
3950 -5001 -3557 0
-3950 5001 0
-3950 3557 0
-3951 3921 3952 0
-3951 -3921 -3952 0
3951 -3921 3952 0
3951 3921 -3952 0
-3952 3917 3919 0
-3952 -3917 -3919 0
3952 -3917 3919 0
3952 3917 -3919 0
-3953 3928 3954 0
-3953 -3928 -3954 0
3953 -3928 3954 0
3953 3928 -3954 0
-3954 3916 3923 0
-3954 -3916 -3923 0
3954 -3916 3923 0
3954 3916 -3923 0
-3955 3930 3956 0
-3955 -3930 -3956 0
3955 -3930 3956 0
3955 3930 -3956 0
-3956 3913 3915 0
-3956 -3913 -3915 0
3956 -3913 3915 0
3956 3913 -3915 0
-3957 3958 3960 3858 0
-3957 3958 3960 3963 0
3957 -3958 0
3957 -3960 0
3957 -3858 -3963 0
-3958 3861 3860 0
-3958 3886 3959 0
-3958 3861 3959 0
-3958 3886 3860 0
3958 -3861 -3886 0
3958 -3959 -3860 0
3959 -3889 -3908 0
-3959 3889 0
-3959 3908 0
3960 -3859 -3961 0
-3960 3859 0
-3960 3961 0
-3961 3912 3932 0
-3961 3932 3962 0
-3961 3912 3962 0
3961 -3932 -3962 0
3961 -3912 -3932 0
3961 -3912 -3962 0
3962 -3935 -3955 0
-3962 3935 0
-3962 3955 0
-3963 3964 3982 4000 0
-3963 3964 3984 4000 0
-3963 3982 3984 4000 0
3963 -3982 -3984 0
3963 -3964 -3982 0
3963 -4000 0
3963 -3964 -3984 0
-3964 3965 3967 0
-3964 3967 3980 0
-3964 3965 3980 0
3964 -3965 -3980 0
3964 -3967 -3980 0
3964 -3965 -3967 0
-3965 3901 3966 0
-3965 -3901 -3966 0
3965 -3901 3966 0
3965 3901 -3966 0
-3966 3924 3926 0
-3966 -3924 -3926 0
3966 -3924 3926 0
3966 3924 -3926 0
-3967 3968 3975 0
-3967 3975 3977 0
-3967 3968 3977 0
3967 -3968 -3977 0
3967 -3975 -3977 0
3967 -3968 -3975 0
-3968 3969 3971 0
-3968 3971 3973 0
-3968 3969 3973 0
3968 -3969 -3973 0
3968 -3971 -3973 0
3968 -3969 -3971 0
-3969 4949 3970 0
-3969 -4949 -3970 0
3969 -4949 3970 0
3969 4949 -3970 0
-3970 1579 3725 0
-3970 4946 1579 0
3970 -1579 0
3970 -4946 -3725 0
-3971 4947 3972 0
-3971 -4947 -3972 0
3971 -4947 3972 0
3971 4947 -3972 0
-3972 3578 3579 0
-3972 4953 4986 0
-3972 4986 3579 0
-3972 4953 3578 0
3972 -4986 -3578 0
3972 -4953 -3579 0
-3973 4989 3974 0
-3973 -4989 -3974 0
3973 -4989 3974 0
3973 4989 -3974 0
-3974 4960 4998 0
-3974 3550 3582 0
-3974 4998 3550 0
-3974 4960 3582 0
3974 -4960 -3550 0
3974 -4998 -3582 0
-3975 3943 3976 0
-3975 -3943 -3976 0
3975 -3943 3976 0
3975 3943 -3976 0
-3976 3939 3941 0
-3976 -3939 -3941 0
3976 -3939 3941 0
3976 3939 -3941 0
-3977 3978 3979 0
-3977 -3978 -3979 0
3977 -3978 3979 0
3977 3978 -3979 0
3978 -5034 3950 0
-3978 5034 0
-3978 -3950 0
-3979 3946 3948 0
-3979 -3946 -3948 0
3979 -3946 3948 0
3979 3946 -3948 0
-3980 3951 3981 0
-3980 -3951 -3981 0
3980 -3951 3981 0
3980 3951 -3981 0
-3981 3938 3945 0
-3981 -3938 -3945 0
3981 -3938 3945 0
3981 3938 -3945 0
-3982 3953 3983 0
-3982 -3953 -3983 0
3982 -3953 3983 0
3982 3953 -3983 0
-3983 3936 3937 0
-3983 -3936 -3937 0
3983 -3936 3937 0
3983 3936 -3937 0
3984 -3985 -3998 0
-3984 3985 0
-3984 3998 0
3985 -3986 -3996 0
-3985 3986 0
-3985 3996 0
-3986 3950 3987 0
-3986 3987 3989 0
-3986 3950 3989 0
3986 -3987 -3989 0
3986 -3950 -3987 0
3986 -3950 -3989 0
-3987 4983 3988 0
-3987 -4983 -3988 0
3987 -4983 3988 0
3987 4983 -3988 0
-3988 3553 3554 0
-3988 4999 5000 0
-3988 4999 3554 0
-3988 5000 3553 0
3988 -4999 -3553 0
3988 -5000 -3554 0
-3989 3990 3992 0
-3989 3992 3994 0
-3989 3990 3994 0
3989 -3990 -3994 0
3989 -3992 -3994 0
3989 -3990 -3992 0
-3990 4949 3991 0
-3990 -4949 -3991 0
3990 -4949 3991 0
3990 4949 -3991 0
-3991 1627 3725 0
-3991 4986 1627 0
3991 -1627 0
3991 -4986 -3725 0
-3992 4947 3993 0
-3992 -4947 -3993 0
3992 -4947 3993 0
3992 4947 -3993 0
-3993 3578 3579 0
-3993 4953 4998 0
-3993 4953 3579 0
-3993 4998 3578 0
3993 -4953 -3578 0
3993 -4998 -3579 0
-3994 4989 3995 0
-3994 -4989 -3995 0
3994 -4989 3995 0
3994 4989 -3995 0
-3995 4960 4999 0
-3995 3550 3582 0
-3995 4999 3582 0
-3995 4960 3550 0
3995 -4960 -3582 0
3995 -4999 -3550 0
-3996 3977 3997 0
-3996 -3977 -3997 0
3996 -3977 3997 0
3996 3977 -3997 0
-3997 3968 3975 0
-3997 -3968 -3975 0
3997 -3968 3975 0
3997 3968 -3975 0
-3998 3980 3999 0
-3998 -3980 -3999 0
3998 -3980 3999 0
3998 3980 -3999 0
-3999 3965 3967 0
-3999 -3965 -3967 0
3999 -3965 3967 0
3999 3965 -3967 0
4000 -4001 -4004 0
-4000 4001 0
-4000 4004 0
4001 -4002 -4003 0
-4001 4002 0
-4001 4003 0
-4002 3964 3982 0
-4002 -3964 -3982 0
4002 -3964 3982 0
4002 3964 -3982 0
-4003 3985 3998 0
-4003 -3985 -3998 0
4003 -3985 3998 0
4003 3985 -3998 0
-4004 4005 4017 0
-4004 4017 4018 0
-4004 4005 4018 0
4004 -4017 -4018 0
4004 -4005 -4017 0
4004 -4005 -4018 0
-4005 4006 4008 0
-4005 4008 4015 0
-4005 4006 4015 0
4005 -4006 -4015 0
4005 -4008 -4015 0
4005 -4006 -4008 0
-4006 3973 4007 0
-4006 -3973 -4007 0
4006 -3973 4007 0
4006 3973 -4007 0
-4007 3969 3971 0
-4007 -3969 -3971 0
4007 -3969 3971 0
4007 3969 -3971 0
-4008 4009 4013 0
-4008 4009 4011 0
-4008 4011 4013 0
4008 -4011 -4013 0
4008 -4009 -4013 0
4008 -4009 -4011 0
-4009 4983 4010 0
-4009 -4983 -4010 0
4009 -4983 4010 0
4009 4983 -4010 0
-4010 3553 3554 0
-4010 5000 5001 0
-4010 5000 3554 0
-4010 5001 3553 0
4010 -5000 -3553 0
4010 -5001 -3554 0
4011 -4983 4012 0
-4011 4983 0
-4011 -4012 0
4012 -5001 -3553 0
-4012 5001 0
-4012 3553 0
-4013 3994 4014 0
-4013 -3994 -4014 0
4013 -3994 4014 0
4013 3994 -4014 0
-4014 3990 3992 0
-4014 -3990 -3992 0
4014 -3990 3992 0
4014 3990 -3992 0
-4015 3989 4016 0
-4015 -3989 -4016 0
4015 -3989 4016 0
4015 3989 -4016 0
-4016 3950 3987 0
-4016 -3950 -3987 0
4016 -3950 3987 0
4016 3950 -3987 0
-4017 3986 3996 0
-4017 -3986 -3996 0
4017 -3986 3996 0
4017 3986 -3996 0
4018 -4019 -4029 0
-4018 4019 0
-4018 4029 0
4019 -4020 -4027 0
-4019 4020 0
-4019 4027 0
-4020 4021 4023 0
-4020 4023 4025 0
-4020 4021 4025 0
4020 -4021 -4025 0
4020 -4023 -4025 0
4020 -4021 -4023 0
-4021 4949 4022 0
-4021 -4949 -4022 0
4021 -4949 4022 0
4021 4949 -4022 0
-4022 1672 3725 0
-4022 4953 1672 0
4022 -1672 0
4022 -4953 -3725 0
-4023 4947 4024 0
-4023 -4947 -4024 0
4023 -4947 4024 0
4023 4947 -4024 0
-4024 3578 3579 0
-4024 4960 4998 0
-4024 4998 3579 0
-4024 4960 3578 0
4024 -4998 -3578 0
4024 -4960 -3579 0
-4025 4989 4026 0
-4025 -4989 -4026 0
4025 -4989 4026 0
4025 4989 -4026 0
-4026 4999 5000 0
-4026 3550 3582 0
-4026 5000 3582 0
-4026 4999 3550 0
4026 -4999 -3582 0
4026 -5000 -3550 0
-4027 4013 4028 0
-4027 -4013 -4028 0
4027 -4013 4028 0
4027 4013 -4028 0
-4028 -4009 -4011 0
-4028 4009 4011 0
4028 4009 -4011 0
4028 -4009 4011 0
-4029 4015 4030 0
-4029 -4015 -4030 0
4029 -4015 4030 0
4029 4015 -4030 0
-4030 4006 4008 0
-4030 -4006 -4008 0
4030 -4006 4008 0
4030 4006 -4008 0
4031 -4001 -4032 0
-4031 4001 0
-4031 4032 0
4032 -4033 -4034 0
-4032 4033 0
-4032 4034 0
-4033 4005 4017 0
-4033 -4005 -4017 0
4033 -4005 4017 0
4033 4005 -4017 0
-4034 4019 4029 0
-4034 -4019 -4029 0
4034 -4019 4029 0
4034 4019 -4029 0
-4035 4036 4057 0
-4035 4057 4077 0
-4035 4057 4079 0
4035 -4057 0
4035 -4036 -4077 -4079 0
4036 -4037 -4049 0
-4036 4037 0
-4036 4049 0
-4037 4038 4048 0
-4037 -4038 -4048 0
4037 -4038 4048 0
4037 4038 -4048 0
-4038 4012 4039 0
-4038 4039 4046 0
-4038 4012 4046 0
4038 -4039 -4046 0
4038 -4012 -4039 0
4038 -4012 -4046 0
-4039 4040 4042 0
-4039 4042 4044 0
-4039 4040 4044 0
4039 -4040 -4044 0
4039 -4042 -4044 0
4039 -4040 -4042 0
-4040 4949 4041 0
-4040 -4949 -4041 0
4040 -4949 4041 0
4040 4949 -4041 0
-4041 1714 3725 0
-4041 4998 1714 0
4041 -1714 0
4041 -4998 -3725 0
-4042 4947 4043 0
-4042 -4947 -4043 0
4042 -4947 4043 0
4042 4947 -4043 0
-4043 3578 3579 0
-4043 4960 4999 0
-4043 4960 3579 0
-4043 4999 3578 0
4043 -4960 -3578 0
4043 -4999 -3579 0
-4044 4989 4045 0
-4044 -4989 -4045 0
4044 -4989 4045 0
4044 4989 -4045 0
-4045 5000 5001 0
-4045 3550 3582 0
-4045 5001 3582 0
-4045 5000 3550 0
4045 -5000 -3582 0
4045 -5001 -3550 0
-4046 4025 4047 0
-4046 -4025 -4047 0
4046 -4025 4047 0
4046 4025 -4047 0
-4047 4021 4023 0
-4047 -4021 -4023 0
4047 -4021 4023 0
4047 4021 -4023 0
-4048 4020 4027 0
-4048 -4020 -4027 0
4048 -4020 4027 0
4048 4020 -4027 0
-4049 4050 4055 0
-4049 -4050 -4055 0
4049 -4050 4055 0
4049 4050 -4055 0
4050 -4051 -4053 0
-4050 4051 0
-4050 4053 0
4051 -4989 4052 0
-4051 4989 0
-4051 -4052 0
4052 -5001 -3582 0
-4052 5001 0
-4052 3582 0
-4053 4044 4054 0
-4053 -4044 -4054 0
4053 -4044 4054 0
4053 4044 -4054 0
-4054 4040 4042 0
-4054 -4040 -4042 0
4054 -4040 4042 0
4054 4040 -4042 0
-4055 4046 4056 0
-4055 -4046 -4056 0
4055 -4046 4056 0
4055 4046 -4056 0
-4056 4012 4039 0
-4056 -4012 -4039 0
4056 -4012 4039 0
4056 4012 -4039 0
-4057 4038 4048 4059 0
-4057 4038 4058 4059 0
-4057 4048 4058 4059 0
4057 -4048 -4058 0
4057 -4038 -4048 0
4057 -4059 0
4057 -4038 -4058 0
4058 -4050 -4055 0
-4058 4050 0
-4058 4055 0
4059 -4036 -4060 0
-4059 4036 0
-4059 4060 0
-4060 4061 4076 0
-4060 4066 4067 0
-4060 4061 4067 0
-4060 4066 4076 0
4060 -4061 -4066 0
4060 -4067 -4076 0
-4061 4052 4062 0
-4061 4062 4064 0
-4061 4052 4064 0
4061 -4062 -4064 0
4061 -4052 -4062 0
4061 -4052 -4064 0
-4062 4949 4063 0
-4062 -4949 -4063 0
4062 -4949 4063 0
4062 4949 -4063 0
-4063 1747 3725 0
-4063 4960 1747 0
4063 -1747 0
4063 -4960 -3725 0
-4064 4947 4065 0
-4064 -4947 -4065 0
4064 -4947 4065 0
4064 4947 -4065 0
-4065 3578 3579 0
-4065 4999 5000 0
-4065 4999 3579 0
-4065 5000 3578 0
4065 -4999 -3578 0
4065 -5000 -3579 0
-4066 4051 4053 0
-4066 -4051 -4053 0
4066 -4051 4053 0
4066 4051 -4053 0
4067 -4068 -4074 0
-4067 4068 0
-4067 4074 0
-4068 4947 4069 0
-4068 4069 4071 0
-4068 4947 4071 0
-4068 4071 -4073 0
-4068 4069 -4073 0
4068 -4069 -4071 0
4068 -4947 -4069 4073 0
4068 -4947 -4071 4073 0
-4069 4949 4070 0
-4069 -4949 -4070 0
4069 -4949 4070 0
4069 4949 -4070 0
-4070 1786 3725 0
-4070 4999 1786 0
4070 -1786 0
4070 -4999 -3725 0
-4071 4947 4072 0
-4071 -4947 -4072 0
4071 -4947 4072 0
4071 4947 -4072 0
-4072 3578 3579 0
-4072 5000 5001 0
-4072 5000 3579 0
-4072 5001 3578 0
4072 -5000 -3578 0
4072 -5001 -3579 0
4073 -5001 -3578 0
-4073 5001 0
-4073 3578 0
-4074 4052 4075 0
-4074 -4052 -4075 0
4074 -4052 4075 0
4074 4052 -4075 0
-4075 4062 4064 0
-4075 -4062 -4064 0
4075 -4062 4064 0
4075 4062 -4064 0
-4076 4061 4066 0
-4076 -4061 -4066 0
4076 -4061 4066 0
4076 4061 -4066 0
4077 -4076 -4078 0
-4077 4076 0
-4077 4078 0
-4078 4068 4074 0
-4078 -4068 -4074 0
4078 -4068 4074 0
4078 4068 -4074 0
-4079 4083 0
-4079 4080 4087 0
-4079 4080 4086 0
4079 -4080 -4083 0
4079 -4083 -4086 -4087 0
4080 -4073 -4081 0
-4080 4073 0
-4080 4081 0
-4081 4949 4082 0
-4081 -4949 -4082 0
4081 -4949 4082 0
4081 4949 -4082 0
-4082 1814 3725 0
-4082 5000 1814 0
4082 -1814 0
4082 -5000 -3725 0
-4083 4084 4085 0
-4083 -4084 -4085 0
4083 -4084 4085 0
4083 4084 -4085 0
4084 -4947 4073 0
-4084 4947 0
-4084 -4073 0
-4085 4069 4071 0
-4085 -4069 -4071 0
4085 -4069 4071 0
4085 4069 -4071 0
4086 -4949 5001 1838 0
-4086 4949 0
-4086 -1838 0
-4086 -5001 0
-4087 4073 4081 0
-4087 -4073 -4081 0
4087 -4073 4081 0
4087 4073 -4081 0
-4088 4089 4222 0
-4088 -4089 -4222 0
4088 -4089 4222 0
4088 4089 -4222 0
-4089 -4090 -4195 0
-4089 4090 4195 0
4089 4090 -4195 0
4089 -4090 4195 0
4090 -4091 4120 0
4090 4120 -4168 0
4090 -4091 -4168 0
-4090 4091 4168 0
-4090 -4120 4168 0
-4090 4091 -4120 0
4091 -149 4092 0
4091 149 -4092 0
-4091 149 4092 0
-4091 -149 -4092 0
-4092 4093 4106 0
-4092 -4093 -4106 0
4092 -4093 4106 0
4092 4093 -4106 0
-4093 4094 4102 0
-4093 -4094 -4102 0
4093 -4094 4102 0
4093 4094 -4102 0
-4094 4095 4098 0
-4094 -4095 -4098 0
4094 -4095 4098 0
4094 4095 -4098 0
-4095 -4959 -4096 0
-4095 4959 4096 0
4095 4959 -4096 0
4095 -4959 4096 0
4096 -4972 -4097 0
-4096 4972 0
-4096 4097 0
-4097 -4961 4971 0
-4097 -4959 -4971 0
-4097 4959 4961 0
4097 4959 -4961 -4971 0
4097 -4959 4961 4971 0
-4098 4979 4099 0
-4098 -4979 -4099 0
4098 -4979 4099 0
4098 4979 -4099 0
-4099 4100 4101 0
-4099 4963 4987 0
-4099 4987 4101 0
-4099 4963 4100 0
4099 -4987 -4100 0
4099 -4963 -4101 0
4100 4959 -4980 0
4100 -4959 4980 0
-4100 -4959 -4980 0
-4100 4959 4980 0
-4101 -4959 -4979 0
-4101 4979 4980 0
-4101 4959 -4980 0
4101 4959 -4979 4980 0
4101 -4959 4979 -4980 0
-4102 4976 4103 0
-4102 -4976 -4103 0
4102 -4976 4103 0
4102 4976 -4103 0
-4103 4104 4105 0
-4103 4995 5002 0
-4103 5002 4105 0
-4103 4995 4104 0
4103 -5002 -4104 0
4103 -4995 -4105 0
4104 4978 -4979 0
4104 -4978 4979 0
-4104 -4978 -4979 0
-4104 4978 4979 0
-4105 -4978 4979 0
-4105 -4976 -4979 0
-4105 4976 4978 0
4105 4976 -4978 -4979 0
4105 -4976 4978 4979 0
-4106 4107 4116 0
-4106 -4107 -4116 0
4106 -4107 4116 0
4106 4107 -4116 0
-4107 4108 4112 0
-4107 -4108 -4112 0
4107 -4108 4112 0
4107 4108 -4112 0
-4108 4964 4109 0
-4108 -4964 -4109 0
4108 -4964 4109 0
4108 4964 -4109 0
-4109 4110 4111 0
-4109 4967 4991 0
-4109 4991 4111 0
-4109 4967 4110 0
4109 -4991 -4110 0
4109 -4967 -4111 0
4110 4957 -4976 0
4110 -4957 4976 0
-4110 -4957 -4976 0
-4110 4957 4976 0
-4111 -4957 -4964 0
-4111 4964 4976 0
-4111 4957 -4976 0
4111 4957 -4964 4976 0
4111 -4957 4964 -4976 0
-4112 4966 4113 0
-4112 -4966 -4113 0
4112 -4966 4113 0
4112 4966 -4113 0
-4113 4114 4115 0
-4113 4965 4970 0
-4113 4965 4115 0
-4113 4970 4114 0
4113 -4965 -4114 0
4113 -4970 -4115 0
4114 4964 -4969 0
4114 -4964 4969 0
-4114 -4964 -4969 0
-4114 4964 4969 0
-4115 -4964 -4966 0
-4115 4966 4969 0
-4115 4964 -4969 0
4115 4964 -4966 4969 0
4115 -4964 4966 -4969 0
-4116 5003 4117 0
-4116 -5003 -4117 0
4116 -5003 4117 0
4116 5003 -4117 0
-4117 4118 4119 0
-4117 4975 5033 0
-4117 5033 4119 0
-4117 4975 4118 0
4117 -5033 -4118 0
4117 -4975 -4119 0
4118 4966 -5005 0
4118 -4966 5005 0
-4118 -4966 -5005 0
-4118 4966 5005 0
-4119 -4966 -5003 0
-4119 5003 5005 0
-4119 4966 -5005 0
4119 4966 -5003 5005 0
4119 -4966 5003 -5005 0
-4120 4121 4142 0
-4120 4142 4163 0
-4120 4121 4163 0
4120 -4121 -4163 0
4120 -4142 -4163 0
4120 -4121 -4142 0
-4121 4122 4130 0
-4121 4130 4137 0
-4121 4122 4137 0
4121 -4122 -4137 0
4121 -4130 -4137 0
4121 -4122 -4130 0
-4122 4974 4123 0
-4122 4123 4127 0
-4122 4974 4127 0
4122 -4123 -4127 0
4122 -4974 -4123 0
4122 -4974 -4127 0
-4123 4961 4124 0
-4123 -4961 -4124 0
4123 -4961 4124 0
4123 4961 -4124 0
-4124 4125 4126 0
-4124 4972 4987 0
-4124 4972 4126 0
-4124 4987 4125 0
4124 -4972 -4125 0
4124 -4987 -4126 0
4125 4974 -5009 0
4125 -4974 5009 0
-4125 -4974 -5009 0
-4125 4974 5009 0
-4126 -4974 5009 0
-4126 -4961 -5009 0
-4126 4961 4974 0
4126 4961 -4974 -5009 0
4126 -4961 4974 5009 0
-4127 4959 4128 0
-4127 -4959 -4128 0
4127 -4959 4128 0
4127 4959 -4128 0
-4128 4963 5002 0
-4128 4097 4129 0
-4128 5002 4129 0
-4128 4963 4097 0
4128 -4963 -4129 0
4128 -5002 -4097 0
4129 4961 -4971 0
4129 -4961 4971 0
-4129 -4961 -4971 0
-4129 4961 4971 0
-4130 4131 4133 0
-4130 4133 4135 0
-4130 4131 4135 0
4130 -4131 -4135 0
4130 -4133 -4135 0
4130 -4131 -4133 0
-4131 4979 4132 0
-4131 -4979 -4132 0
4131 -4979 4132 0
4131 4979 -4132 0
-4132 4100 4101 0
-4132 4991 4995 0
-4132 4995 4101 0
-4132 4991 4100 0
4132 -4995 -4100 0
4132 -4991 -4101 0
-4133 4976 4134 0
-4133 -4976 -4134 0
4133 -4976 4134 0
4133 4976 -4134 0
-4134 4104 4105 0
-4134 4965 4967 0
-4134 4967 4105 0
-4134 4965 4104 0
4134 -4967 -4104 0
4134 -4965 -4105 0
-4135 4964 4136 0
-4135 -4964 -4136 0
4135 -4964 4136 0
4135 4964 -4136 0
-4136 4110 4111 0
-4136 4970 5033 0
-4136 4970 4111 0
-4136 5033 4110 0
4136 -4970 -4110 0
4136 -5033 -4111 0
-4137 334 4138 0
-4137 4138 4140 0
-4137 334 4140 0
4137 -4138 -4140 0
4137 -334 -4138 0
4137 -334 -4140 0
-4138 4966 4139 0
-4138 -4966 -4139 0
4138 -4966 4139 0
4138 4966 -4139 0
-4139 4114 4115 0
-4139 4975 5006 0
-4139 4975 4115 0
-4139 5006 4114 0
4139 -4975 -4114 0
4139 -5006 -4115 0
-4140 5003 4141 0
-4140 -5003 -4141 0
4140 -5003 4141 0
4140 5003 -4141 0
-4141 4118 4119 0
-4141 4962 4977 0
-4141 4977 4119 0
-4141 4962 4118 0
4141 -4977 -4118 0
4141 -4962 -4119 0
-4142 4143 4149 0
-4142 4149 4157 0
-4142 4143 4157 0
4142 -4143 -4157 0
4142 -4149 -4157 0
4142 -4143 -4149 0
-4143 4144 4147 0
-4143 -4144 -4147 0
4143 -4144 4147 0
4143 4144 -4147 0
-4144 4974 4145 0
-4144 -4974 -4145 0
4144 -4974 4145 0
4144 4974 -4145 0
-4145 -4961 -4146 0
-4145 4961 4146 0
4145 4961 -4146 0
4145 -4961 4146 0
4146 -4972 -4126 0
-4146 4972 0
-4146 4126 0
-4147 4959 4148 0
-4147 -4959 -4148 0
4147 -4959 4148 0
4147 4959 -4148 0
-4148 4963 4987 0
-4148 4097 4129 0
-4148 4987 4097 0
-4148 4963 4129 0
4148 -4963 -4097 0
4148 -4987 -4129 0
-4149 4150 4155 0
-4149 -4150 -4155 0
4149 -4150 4155 0
4149 4150 -4155 0
-4150 4151 4153 0
-4150 -4151 -4153 0
4150 -4151 4153 0
4150 4151 -4153 0
-4151 4979 4152 0
-4151 -4979 -4152 0
4151 -4979 4152 0
4151 4979 -4152 0
-4152 4100 4101 0
-4152 4995 5002 0
-4152 5002 4101 0
-4152 4995 4100 0
4152 -5002 -4100 0
4152 -4995 -4101 0
-4153 4976 4154 0
-4153 -4976 -4154 0
4153 -4976 4154 0
4153 4976 -4154 0
-4154 4104 4105 0
-4154 4967 4991 0
-4154 4991 4105 0
-4154 4967 4104 0
4154 -4991 -4104 0
4154 -4967 -4105 0
-4155 4964 4156 0
-4155 -4964 -4156 0
4155 -4964 4156 0
4155 4964 -4156 0
-4156 4110 4111 0
-4156 4965 4970 0
-4156 4965 4111 0
-4156 4970 4110 0
4156 -4965 -4110 0
4156 -4970 -4111 0
-4157 269 4158 0
-4157 -269 -4158 0
4157 -269 4158 0
4157 269 -4158 0
-4158 4159 4161 0
-4158 -4159 -4161 0
4158 -4159 4161 0
4158 4159 -4161 0
-4159 4966 4160 0
-4159 -4966 -4160 0
4159 -4966 4160 0
4159 4966 -4160 0
-4160 4114 4115 0
-4160 4975 5033 0
-4160 5033 4115 0
-4160 4975 4114 0
4160 -5033 -4114 0
4160 -4975 -4115 0
-4161 5003 4162 0
-4161 -5003 -4162 0
4161 -5003 4162 0
4161 5003 -4162 0
-4162 4118 4119 0
-4162 4977 5006 0
-4162 5006 4119 0
-4162 4977 4118 0
4162 -5006 -4118 0
4162 -4977 -4119 0
-4163 4164 4167 0
-4163 -4164 -4167 0
4163 -4164 4167 0
4163 4164 -4167 0
-4164 4165 4166 0
-4164 -4165 -4166 0
4164 -4165 4166 0
4164 4165 -4166 0
-4165 4974 4145 0
-4165 4145 4147 0
-4165 4974 4147 0
4165 -4145 -4147 0
4165 -4974 -4145 0
4165 -4974 -4147 0
-4166 4151 4153 0
-4166 4153 4155 0
-4166 4151 4155 0
4166 -4151 -4155 0
4166 -4153 -4155 0
4166 -4151 -4153 0
-4167 269 4159 0
-4167 4159 4161 0
-4167 269 4161 0
4167 -4159 -4161 0
4167 -269 -4159 0
4167 -269 -4161 0
4168 4169 -4190 0
4168 -4169 4190 0
-4168 -4169 -4190 0
-4168 4169 4190 0
-4169 4170 4171 0
-4169 -4170 -4171 0
4169 -4170 4171 0
4169 4170 -4171 0
-4170 4165 4166 0
-4170 4166 4167 0
-4170 4165 4167 0
4170 -4165 -4167 0
4170 -4166 -4167 0
4170 -4165 -4166 0
-4171 4172 4176 0
-4171 4176 4184 0
-4171 4172 4184 0
4171 -4172 -4184 0
4171 -4176 -4184 0
4171 -4172 -4176 0
-4172 4173 4174 0
-4172 -4173 -4174 0
4172 -4173 4174 0
4172 4173 -4174 0
-4173 -4961 -4974 0
-4173 4961 4974 0
4173 4961 -4974 0
4173 -4961 4974 0
-4174 4959 4175 0
-4174 -4959 -4175 0
4174 -4959 4175 0
4174 4959 -4175 0
-4175 4972 4987 0
-4175 4097 4129 0
-4175 4987 4129 0
-4175 4972 4097 0
4175 -4972 -4129 0
4175 -4987 -4097 0
-4176 4177 4182 0
-4176 -4177 -4182 0
4176 -4177 4182 0
4176 4177 -4182 0
-4177 4178 4180 0
-4177 -4178 -4180 0
4177 -4178 4180 0
4177 4178 -4180 0
-4178 4979 4179 0
-4178 -4979 -4179 0
4178 -4979 4179 0
4178 4979 -4179 0
-4179 4100 4101 0
-4179 4963 5002 0
-4179 4963 4101 0
-4179 5002 4100 0
4179 -4963 -4100 0
4179 -5002 -4101 0
-4180 4976 4181 0
-4180 -4976 -4181 0
4180 -4976 4181 0
4180 4976 -4181 0
-4181 4104 4105 0
-4181 4991 4995 0
-4181 4995 4105 0
-4181 4991 4104 0
4181 -4995 -4104 0
4181 -4991 -4105 0
-4182 4964 4183 0
-4182 -4964 -4183 0
4182 -4964 4183 0
4182 4964 -4183 0
-4183 4110 4111 0
-4183 4965 4967 0
-4183 4967 4111 0
-4183 4965 4110 0
4183 -4967 -4110 0
4183 -4965 -4111 0
-4184 206 4185 0
-4184 -206 -4185 0
4184 -206 4185 0
4184 206 -4185 0
-4185 4186 4188 0
-4185 -4186 -4188 0
4185 -4186 4188 0
4185 4186 -4188 0
-4186 4966 4187 0
-4186 -4966 -4187 0
4186 -4966 4187 0
4186 4966 -4187 0
-4187 4114 4115 0
-4187 4970 5033 0
-4187 4970 4115 0
-4187 5033 4114 0
4187 -4970 -4114 0
4187 -5033 -4115 0
-4188 5003 4189 0
-4188 -5003 -4189 0
4188 -5003 4189 0
4188 5003 -4189 0
-4189 4118 4119 0
-4189 4975 5006 0
-4189 4975 4119 0
-4189 5006 4118 0
4189 -4975 -4118 0
4189 -5006 -4119 0
4190 -4191 4194 0
4190 4191 -4194 0
-4190 4191 4194 0
-4190 -4191 -4194 0
4191 -4192 4193 0
4191 4192 -4193 0
-4191 4192 4193 0
-4191 -4192 -4193 0
4192 -4961 -4974 0
4192 -4974 4174 0
4192 -4961 4174 0
-4192 4961 -4174 0
-4192 4974 -4174 0
-4192 4961 4974 0
-4193 4178 4180 0
-4193 4180 4182 0
-4193 4178 4182 0
4193 -4178 -4182 0
4193 -4180 -4182 0
4193 -4178 -4180 0
-4194 4977 4188 0
-4194 4186 4188 0
-4194 4977 4186 0
-4194 5003 4188 0
-4194 5003 4186 0
4194 -4186 -4188 0
4194 -4977 -5003 -4188 0
4194 -4977 -5003 -4186 0
4195 -4196 4214 0
4195 4196 -4214 0
-4195 4196 4214 0
-4195 -4196 -4214 0
4196 -4197 4213 0
4196 4197 -4213 0
-4196 4197 4213 0
-4196 -4197 -4213 0
4197 -4198 4205 0
4197 4198 -4205 0
-4197 4198 4205 0
-4197 -4198 -4205 0
4198 149 -4199 0
4198 -149 4199 0
-4198 -149 -4199 0
-4198 149 4199 0
4199 -4200 4203 0
4199 4200 -4203 0
-4199 4200 4203 0
-4199 -4200 -4203 0
4200 -4959 4201 0
4200 4959 -4201 0
-4200 4959 4201 0
-4200 -4959 -4201 0
-4201 4979 4202 0
-4201 -4979 -4202 0
4201 -4979 4202 0
4201 4979 -4202 0
-4202 4100 4101 0
-4202 4972 4987 0
-4202 4972 4101 0
-4202 4987 4100 0
4202 -4972 -4100 0
4202 -4987 -4101 0
-4203 4976 4204 0
-4203 -4976 -4204 0
4203 -4976 4204 0
4203 4976 -4204 0
-4204 4104 4105 0
-4204 4963 5002 0
-4204 4963 4105 0
-4204 5002 4104 0
4204 -4963 -4104 0
4204 -5002 -4105 0
-4205 4206 4211 0
-4205 -4206 -4211 0
4205 -4206 4211 0
4205 4206 -4211 0
-4206 4207 4209 0
-4206 -4207 -4209 0
4206 -4207 4209 0
4206 4207 -4209 0
-4207 4964 4208 0
-4207 -4964 -4208 0
4207 -4964 4208 0
4207 4964 -4208 0
-4208 4110 4111 0
-4208 4991 4995 0
-4208 4995 4111 0
-4208 4991 4110 0
4208 -4995 -4110 0
4208 -4991 -4111 0
-4209 4966 4210 0
-4209 -4966 -4210 0
4209 -4966 4210 0
4209 4966 -4210 0
-4210 4114 4115 0
-4210 4965 4967 0
-4210 4967 4115 0
-4210 4965 4114 0
4210 -4967 -4114 0
4210 -4965 -4115 0
-4211 5003 4212 0
-4211 -5003 -4212 0
4211 -5003 4212 0
4211 5003 -4212 0
-4212 4118 4119 0
-4212 4970 5033 0
-4212 4970 4119 0
-4212 5033 4118 0
4212 -4970 -4118 0
4212 -5033 -4119 0
-4213 4170 4171 0
-4213 4171 -4190 0
-4213 4170 -4190 0
4213 -4170 4190 0
4213 -4171 4190 0
4213 -4170 -4171 0
-4214 4215 4218 0
-4214 -4215 -4218 0
4214 -4215 4218 0
4214 4215 -4218 0
-4215 4216 4217 0
-4215 -4216 -4217 0
4215 -4216 4217 0
4215 4216 -4217 0
-4216 -4192 4193 0
-4216 4193 4194 0
-4216 -4192 4194 0
4216 4192 -4194 0
4216 -4193 -4194 0
4216 4192 -4193 0
-4217 -149 4093 0
-4217 4093 4106 0
-4217 -149 4106 0
4217 149 -4106 0
4217 -4093 -4106 0
4217 149 -4093 0
-4218 4219 4221 0
-4218 -4219 -4221 0
4218 -4219 4221 0
4218 4219 -4221 0
-4219 101 4220 0
-4219 -101 -4220 0
4219 -101 4220 0
4219 101 -4220 0
-4220 4095 4098 0
-4220 4098 4102 0
-4220 4095 4102 0
4220 -4095 -4102 0
4220 -4098 -4102 0
4220 -4095 -4098 0
-4221 4108 4112 0
-4221 4112 4116 0
-4221 4108 4116 0
4221 -4108 -4116 0
4221 -4112 -4116 0
4221 -4108 -4112 0
-4222 4223 4260 0
-4222 4223 4261 0
4222 -4223 0
4222 -4260 -4261 0
4223 -4224 -4258 0
-4223 4224 0
-4223 4258 0
-4224 4225 4227 0
-4224 4227 4256 0
-4224 4225 4256 0
4224 -4225 -4256 0
4224 -4227 -4256 0
4224 -4225 -4227 0
-4225 4184 4226 0
-4225 -4184 -4226 0
4225 -4184 4226 0
4225 4184 -4226 0
-4226 4172 4176 0
-4226 -4172 -4176 0
4226 -4172 4176 0
4226 4172 -4176 0
-4227 4228 4247 0
-4227 4247 4254 0
-4227 4228 4254 0
4227 -4228 -4254 0
4227 -4247 -4254 0
4227 -4228 -4247 0
-4228 4229 4235 0
-4228 4235 4242 0
-4228 4229 4242 0
4228 -4229 -4242 0
4228 -4235 -4242 0
4228 -4229 -4235 0
-4229 4230 4232 0
-4229 4959 4230 4234 0
-4229 -4959 4232 -4234 0
-4229 -4959 4230 -4234 0
-4229 4959 4232 4234 0
4229 -4230 -4232 0
4229 -4959 -4232 4234 0
4229 4959 -4230 -4234 0
4229 4959 -4232 -4234 0
4229 -4959 -4230 4234 0
-4230 4231 0
4230 -4231 0
4231 4972 -4974 0
4231 -4974 -5013 0
-4231 4974 0
-4231 -4972 5013 0
-4232 4961 4233 0
-4232 -4961 -4233 0
4232 -4961 4233 0
4232 4961 -4233 0
-4233 4125 4126 0
-4233 4963 4987 0
-4233 4987 4126 0
-4233 4963 4125 0
4233 -4987 -4125 0
4233 -4963 -4126 0
-4234 4995 5002 0
-4234 4097 4129 0
-4234 5002 4097 0
-4234 4995 4129 0
4234 -4995 -4097 0
4234 -5002 -4129 0
-4235 4236 4238 0
-4235 4238 4240 0
-4235 4236 4240 0
4235 -4236 -4240 0
4235 -4238 -4240 0
4235 -4236 -4238 0
-4236 4979 4237 0
-4236 -4979 -4237 0
4236 -4979 4237 0
4236 4979 -4237 0
-4237 4100 4101 0
-4237 4967 4991 0
-4237 4991 4101 0
-4237 4967 4100 0
4237 -4991 -4100 0
4237 -4967 -4101 0
-4238 4976 4239 0
-4238 -4976 -4239 0
4238 -4976 4239 0
4238 4976 -4239 0
-4239 4104 4105 0
-4239 4965 4970 0
-4239 4965 4105 0
-4239 4970 4104 0
4239 -4965 -4104 0
4239 -4970 -4105 0
-4240 4964 4241 0
-4240 -4964 -4241 0
4240 -4964 4241 0
4240 4964 -4241 0
-4241 4110 4111 0
-4241 4975 5033 0
-4241 5033 4111 0
-4241 4975 4110 0
4241 -5033 -4110 0
4241 -4975 -4111 0
-4242 402 4243 0
-4242 4243 4245 0
-4242 402 4245 0
4242 -4243 -4245 0
4242 -402 -4243 0
4242 -402 -4245 0
-4243 4966 4244 0
-4243 -4966 -4244 0
4243 -4966 4244 0
4243 4966 -4244 0
-4244 4114 4115 0
-4244 4977 5006 0
-4244 5006 4115 0
-4244 4977 4114 0
4244 -5006 -4114 0
4244 -4977 -4115 0
-4245 5003 4246 0
-4245 -5003 -4246 0
4245 -5003 4246 0
4245 5003 -4246 0
-4246 4118 4119 0
-4246 4962 4981 0
-4246 4962 4119 0
-4246 4981 4118 0
4246 -4962 -4118 0
4246 -4981 -4119 0
-4247 4248 4250 0
-4247 4250 4252 0
-4247 4248 4252 0
4247 -4248 -4252 0
4247 -4250 -4252 0
4247 -4248 -4250 0
-4248 4127 4249 0
-4248 -4127 -4249 0
4248 -4127 4249 0
4248 4127 -4249 0
-4249 4974 4123 0
-4249 -4974 -4123 0
4249 -4974 4123 0
4249 4974 -4123 0
-4250 4135 4251 0
-4250 -4135 -4251 0
4250 -4135 4251 0
4250 4135 -4251 0
-4251 4131 4133 0
-4251 -4131 -4133 0
4251 -4131 4133 0
4251 4131 -4133 0
-4252 334 4253 0
-4252 -334 -4253 0
4252 -334 4253 0
4252 334 -4253 0
-4253 4138 4140 0
-4253 -4138 -4140 0
4253 -4138 4140 0
4253 4138 -4140 0
-4254 4137 4255 0
-4254 -4137 -4255 0
4254 -4137 4255 0
4254 4137 -4255 0
-4255 4122 4130 0
-4255 -4122 -4130 0
4255 -4122 4130 0
4255 4122 -4130 0
-4256 4163 4257 0
-4256 -4163 -4257 0
4256 -4163 4257 0
4256 4163 -4257 0
-4257 4121 4142 0
-4257 -4121 -4142 0
4257 -4121 4142 0
4257 4121 -4142 0
-4258 -4168 -4259 0
-4258 4168 4259 0
4258 4168 -4259 0
4258 -4168 4259 0
4259 -4091 4120 0
4259 4091 -4120 0
-4259 4091 4120 0
-4259 -4091 -4120 0
-4260 4224 4258 0
-4260 -4224 -4258 0
4260 -4224 4258 0
4260 4224 -4258 0
-4261 4262 4338 0
-4261 4338 4401 0
-4261 4338 4632 0
4261 -4338 0
4261 -4262 -4401 -4632 0
4262 -4263 -4305 0
-4262 4263 0
-4262 4305 0
-4263 4264 4303 0
-4263 -4264 -4303 0
4263 -4264 4303 0
4263 4264 -4303 0
-4264 4265 4267 0
-4264 4267 4301 0
-4264 4265 4301 0
4264 -4265 -4301 0
4264 -4267 -4301 0
4264 -4265 -4267 0
-4265 4157 4266 0
-4265 -4157 -4266 0
4265 -4157 4266 0
4265 4157 -4266 0
-4266 4143 4149 0
-4266 -4143 -4149 0
4266 -4143 4149 0
4266 4143 -4149 0
-4267 4268 4291 0
-4267 4291 4299 0
-4267 4268 4299 0
4267 -4268 -4299 0
4267 -4291 -4299 0
4267 -4268 -4291 0
-4268 4269 4277 0
-4268 4277 4284 0
-4268 4269 4284 0
4268 -4269 -4284 0
4268 -4277 -4284 0
4268 -4269 -4277 0
-4269 4270 4273 0
-4269 4273 4275 0
-4269 4270 4275 0
4269 -4270 -4275 0
4269 -4273 -4275 0
4269 -4270 -4273 0
-4270 4974 4271 0
-4270 -4974 -4271 0
4270 -4974 4271 0
4270 4974 -4271 0
-4271 231 4272 0
-4271 4987 231 0
4271 -231 0
4271 -4987 -4272 0
4272 -4974 5013 0
-4272 4974 0
-4272 -5013 0
-4273 4961 4274 0
-4273 -4961 -4274 0
4273 -4961 4274 0
4273 4961 -4274 0
-4274 4125 4126 0
-4274 4963 5002 0
-4274 4963 4126 0
-4274 5002 4125 0
4274 -4963 -4125 0
4274 -5002 -4126 0
-4275 4959 4276 0
-4275 -4959 -4276 0
4275 -4959 4276 0
4275 4959 -4276 0
-4276 4991 4995 0
-4276 4097 4129 0
-4276 4995 4097 0
-4276 4991 4129 0
4276 -4991 -4097 0
4276 -4995 -4129 0
-4277 4278 4280 0
-4277 4280 4282 0
-4277 4278 4282 0
4277 -4278 -4282 0
4277 -4280 -4282 0
4277 -4278 -4280 0
-4278 4979 4279 0
-4278 -4979 -4279 0
4278 -4979 4279 0
4278 4979 -4279 0
-4279 4100 4101 0
-4279 4965 4967 0
-4279 4967 4101 0
-4279 4965 4100 0
4279 -4967 -4100 0
4279 -4965 -4101 0
-4280 4976 4281 0
-4280 -4976 -4281 0
4280 -4976 4281 0
4280 4976 -4281 0
-4281 4104 4105 0
-4281 4970 5033 0
-4281 4970 4105 0
-4281 5033 4104 0
4281 -4970 -4104 0
4281 -5033 -4105 0
-4282 4964 4283 0
-4282 -4964 -4283 0
4282 -4964 4283 0
4282 4964 -4283 0
-4283 4110 4111 0
-4283 4975 5006 0
-4283 4975 4111 0
-4283 5006 4110 0
4283 -4975 -4110 0
4283 -5006 -4111 0
-4284 4285 4287 0
-4284 4287 4289 0
-4284 4285 4289 0
4284 -4287 -4289 0
4284 -4285 -4287 0
4284 -4285 -4289 0
-4285 4966 4286 0
-4285 -4966 -4286 0
4285 -4966 4286 0
4285 4966 -4286 0
-4286 4114 4115 0
-4286 4962 4977 0
-4286 4977 4115 0
-4286 4962 4114 0
4286 -4977 -4114 0
4286 -4962 -4115 0
-4287 5003 4288 0
-4287 -5003 -4288 0
4287 -5003 4288 0
4287 5003 -4288 0
-4288 4118 4119 0
-4288 4981 4982 0
-4288 4981 4119 0
-4288 4982 4118 0
4288 -4981 -4118 0
4288 -4982 -4119 0
4289 -5003 4290 0
-4289 5003 0
-4289 -4290 0
4290 -4982 -4118 0
-4290 4982 0
-4290 4118 0
-4291 4292 4295 0
-4291 4295 4297 0
-4291 4292 4297 0
4291 -4292 -4297 0
4291 -4295 -4297 0
4291 -4292 -4295 0
-4292 4293 4294 0
-4292 -4293 -4294 0
4292 -4293 4294 0
4292 4293 -4294 0
-4293 4959 4234 0
-4293 -4959 -4234 0
4293 -4959 4234 0
4293 4959 -4234 0
-4294 4230 4232 0
-4294 -4230 -4232 0
4294 -4230 4232 0
4294 4230 -4232 0
-4295 4240 4296 0
-4295 -4240 -4296 0
4295 -4240 4296 0
4295 4240 -4296 0
-4296 4236 4238 0
-4296 -4236 -4238 0
4296 -4236 4238 0
4296 4236 -4238 0
-4297 402 4298 0
-4297 -402 -4298 0
4297 -402 4298 0
4297 402 -4298 0
-4298 4243 4245 0
-4298 -4243 -4245 0
4298 -4243 4245 0
4298 4243 -4245 0
-4299 4242 4300 0
-4299 -4242 -4300 0
4299 -4242 4300 0
4299 4242 -4300 0
-4300 4229 4235 0
-4300 -4229 -4235 0
4300 -4229 4235 0
4300 4229 -4235 0
-4301 4254 4302 0
-4301 -4254 -4302 0
4301 -4254 4302 0
4301 4254 -4302 0
-4302 4228 4247 0
-4302 -4228 -4247 0
4302 -4228 4247 0
4302 4228 -4247 0
-4303 4256 4304 0
-4303 -4256 -4304 0
4303 -4256 4304 0
4303 4256 -4304 0
-4304 4225 4227 0
-4304 -4225 -4227 0
4304 -4225 4227 0
4304 4225 -4227 0
-4305 4306 4336 0
-4305 -4306 -4336 0
4305 -4306 4336 0
4305 4306 -4336 0
-4306 4307 4309 0
-4306 4309 4334 0
-4306 4307 4334 0
4306 -4307 -4334 0
4306 -4309 -4334 0
4306 -4307 -4309 0
-4307 4252 4308 0
-4307 -4252 -4308 0
4307 -4252 4308 0
4307 4252 -4308 0
-4308 4248 4250 0
-4308 -4248 -4250 0
4308 -4248 4250 0
4308 4248 -4250 0
-4309 4310 4332 0
-4309 4310 4327 0
-4309 4327 4332 0
4309 -4327 -4332 0
4309 -4310 -4332 0
4309 -4310 -4327 0
-4310 4311 4318 0
-4310 4318 4325 0
-4310 4311 4325 0
4310 -4311 -4325 0
4310 -4318 -4325 0
4310 -4311 -4318 0
-4311 4312 4314 0
-4311 4314 4316 0
-4311 4312 4316 0
4311 -4312 -4316 0
4311 -4314 -4316 0
4311 -4312 -4314 0
-4312 4974 4313 0
-4312 -4974 -4313 0
4312 -4974 4313 0
4312 4974 -4313 0
-4313 296 4272 0
-4313 4963 296 0
4313 -296 0
4313 -4963 -4272 0
-4314 4961 4315 0
-4314 -4961 -4315 0
4314 -4961 4315 0
4314 4961 -4315 0
-4315 4125 4126 0
-4315 4995 5002 0
-4315 5002 4126 0
-4315 4995 4125 0
4315 -5002 -4125 0
4315 -4995 -4126 0
-4316 4959 4317 0
-4316 -4959 -4317 0
4316 -4959 4317 0
4316 4959 -4317 0
-4317 4967 4991 0
-4317 4097 4129 0
-4317 4991 4097 0
-4317 4967 4129 0
4317 -4967 -4097 0
4317 -4991 -4129 0
-4318 4319 4321 0
-4318 4321 4323 0
-4318 4319 4323 0
4318 -4319 -4323 0
4318 -4321 -4323 0
4318 -4319 -4321 0
-4319 4979 4320 0
-4319 -4979 -4320 0
4319 -4979 4320 0
4319 4979 -4320 0
-4320 4100 4101 0
-4320 4965 4970 0
-4320 4965 4101 0
-4320 4970 4100 0
4320 -4965 -4100 0
4320 -4970 -4101 0
-4321 4976 4322 0
-4321 -4976 -4322 0
4321 -4976 4322 0
4321 4976 -4322 0
-4322 4104 4105 0
-4322 4975 5033 0
-4322 5033 4105 0
-4322 4975 4104 0
4322 -5033 -4104 0
4322 -4975 -4105 0
-4323 4964 4324 0
-4323 -4964 -4324 0
4323 -4964 4324 0
4323 4964 -4324 0
-4324 4110 4111 0
-4324 4977 5006 0
-4324 5006 4111 0
-4324 4977 4110 0
4324 -5006 -4110 0
4324 -4977 -4111 0
-4325 4275 4326 0
-4325 -4275 -4326 0
4325 -4275 4326 0
4325 4275 -4326 0
-4326 4270 4273 0
-4326 -4270 -4273 0
4326 -4270 4273 0
4326 4270 -4273 0
4327 -4328 -4330 0
-4327 4328 0
-4327 4330 0
-4328 4282 4329 0
-4328 -4282 -4329 0
4328 -4282 4329 0
4328 4282 -4329 0
-4329 4278 4280 0
-4329 -4278 -4280 0
4329 -4278 4280 0
4329 4278 -4280 0
-4330 4289 4331 0
-4330 -4289 -4331 0
4330 -4289 4331 0
4330 4289 -4331 0
-4331 4285 4287 0
-4331 -4285 -4287 0
4331 -4285 4287 0
4331 4285 -4287 0
-4332 4284 4333 0
-4332 -4284 -4333 0
4332 -4284 4333 0
4332 4284 -4333 0
-4333 4269 4277 0
-4333 -4269 -4277 0
4333 -4269 4277 0
4333 4269 -4277 0
-4334 4299 4335 0
-4334 -4299 -4335 0
4334 -4299 4335 0
4334 4299 -4335 0
-4335 4268 4291 0
-4335 -4268 -4291 0
4335 -4268 4291 0
4335 4268 -4291 0
-4336 4301 4337 0
-4336 -4301 -4337 0
4336 -4301 4337 0
4336 4301 -4337 0
-4337 4265 4267 0
-4337 -4265 -4267 0
4337 -4265 4267 0
4337 4265 -4267 0
-4338 4264 4303 4340 0
-4338 4264 4339 4340 0
-4338 4303 4339 4340 0
4338 -4303 -4339 0
4338 -4264 -4303 0
4338 -4340 0
4338 -4264 -4339 0
4339 -4306 -4336 0
-4339 4306 0
-4339 4336 0
4340 -4341 -4262 0
-4340 4341 0
-4340 4262 0
-4341 4342 4372 0
-4341 4372 4374 0
-4341 4342 4374 0
4341 -4372 -4374 0
4341 -4342 -4372 0
4341 -4342 -4374 0
-4342 4343 4345 0
-4342 4345 4370 0
-4342 4343 4370 0
4342 -4343 -4370 0
4342 -4345 -4370 0
4342 -4343 -4345 0
-4343 4297 4344 0
-4343 -4297 -4344 0
4343 -4297 4344 0
4343 4297 -4344 0
-4344 4292 4295 0
-4344 -4292 -4295 0
4344 -4292 4295 0
4344 4292 -4295 0
-4345 4346 4356 0
-4345 4356 4368 0
-4345 4346 4368 0
4345 -4346 -4368 0
4345 -4356 -4368 0
4345 -4346 -4356 0
-4346 4290 4347 0
-4346 4347 4349 0
-4346 4290 4349 0
4346 -4347 -4349 0
4346 -4290 -4347 0
4346 -4290 -4349 0
-4347 4966 4348 0
-4347 -4966 -4348 0
4347 -4966 4348 0
4347 4966 -4348 0
-4348 4114 4115 0
-4348 4962 4981 0
-4348 4962 4115 0
-4348 4981 4114 0
4348 -4962 -4114 0
4348 -4981 -4115 0
-4349 4350 4352 0
-4349 4352 4354 0
-4349 4350 4354 0
4349 -4350 -4354 0
4349 -4352 -4354 0
4349 -4350 -4352 0
-4350 4974 4351 0
-4350 -4974 -4351 0
4350 -4974 4351 0
4350 4974 -4351 0
-4351 364 4272 0
-4351 5002 364 0
4351 -364 0
4351 -5002 -4272 0
-4352 4961 4353 0
-4352 -4961 -4353 0
4352 -4961 4353 0
4352 4961 -4353 0
-4353 4125 4126 0
-4353 4991 4995 0
-4353 4995 4126 0
-4353 4991 4125 0
4353 -4995 -4125 0
4353 -4991 -4126 0
-4354 4959 4355 0
-4354 -4959 -4355 0
4354 -4959 4355 0
4354 4959 -4355 0
-4355 4965 4967 0
-4355 4097 4129 0
-4355 4967 4097 0
-4355 4965 4129 0
4355 -4965 -4097 0
4355 -4967 -4129 0
-4356 4357 4364 0
-4356 4364 4366 0
-4356 4357 4366 0
4356 -4357 -4366 0
4356 -4364 -4366 0
4356 -4357 -4364 0
-4357 4358 4360 0
-4357 4360 4362 0
-4357 4358 4362 0
4357 -4358 -4362 0
4357 -4360 -4362 0
4357 -4358 -4360 0
-4358 4979 4359 0
-4358 -4979 -4359 0
4358 -4979 4359 0
4358 4979 -4359 0
-4359 4100 4101 0
-4359 4970 5033 0
-4359 4970 4101 0
-4359 5033 4100 0
4359 -4970 -4100 0
4359 -5033 -4101 0
-4360 4976 4361 0
-4360 -4976 -4361 0
4360 -4976 4361 0
4360 4976 -4361 0
-4361 4104 4105 0
-4361 4975 5006 0
-4361 4975 4105 0
-4361 5006 4104 0
4361 -4975 -4104 0
4361 -5006 -4105 0
-4362 4964 4363 0
-4362 -4964 -4363 0
4362 -4964 4363 0
4362 4964 -4363 0
-4363 4110 4111 0
-4363 4962 4977 0
-4363 4977 4111 0
-4363 4962 4110 0
4363 -4977 -4110 0
4363 -4962 -4111 0
-4364 4316 4365 0
-4364 -4316 -4365 0
4364 -4316 4365 0
4364 4316 -4365 0
-4365 4312 4314 0
-4365 -4312 -4314 0
4365 -4312 4314 0
4365 4312 -4314 0
-4366 4323 4367 0
-4366 -4323 -4367 0
4366 -4323 4367 0
4366 4323 -4367 0
-4367 4319 4321 0
-4367 -4319 -4321 0
4367 -4319 4321 0
4367 4319 -4321 0
-4368 4325 4369 0
-4368 -4325 -4369 0
4368 -4325 4369 0
4368 4325 -4369 0
-4369 4311 4318 0
-4369 -4311 -4318 0
4369 -4311 4318 0
4369 4311 -4318 0
-4370 4332 4371 0
-4370 -4332 -4371 0
4370 -4332 4371 0
4370 4332 -4371 0
-4371 -4310 -4327 0
-4371 4310 4327 0
4371 4310 -4327 0
4371 -4310 4327 0
-4372 4334 4373 0
-4372 -4334 -4373 0
4372 -4334 4373 0
4372 4334 -4373 0
-4373 4307 4309 0
-4373 -4307 -4309 0
4373 -4307 4309 0
4373 4307 -4309 0
4374 -4375 -4399 0
-4374 4375 0
-4374 4399 0
-4375 4376 4377 0
-4375 4377 4397 0
-4375 4376 4397 0
4375 -4376 -4397 0
4375 -4377 -4397 0
4375 -4376 -4377 0
-4376 4328 4330 0
-4376 -4328 -4330 0
4376 -4328 4330 0
4376 4328 -4330 0
-4377 4378 4395 0
-4377 4378 4390 0
-4377 4390 4395 0
4377 -4390 -4395 0
4377 -4378 -4395 0
4377 -4378 -4390 0
-4378 4379 4383 0
-4378 4379 4381 0
-4378 4381 4383 0
4378 -4381 -4383 0
4378 -4379 -4383 0
4378 -4379 -4381 0
-4379 4966 4380 0
-4379 -4966 -4380 0
4379 -4966 4380 0
4379 4966 -4380 0
-4380 4114 4115 0
-4380 4981 4982 0
-4380 4981 4115 0
-4380 4982 4114 0
4380 -4981 -4114 0
4380 -4982 -4115 0
4381 -4966 4382 0
-4381 4966 0
-4381 -4382 0
4382 -4982 -4114 0
-4382 4982 0
-4382 4114 0
-4383 4384 4386 0
-4383 4386 4388 0
-4383 4384 4388 0
4383 -4384 -4388 0
4383 -4386 -4388 0
4383 -4384 -4386 0
-4384 4974 4385 0
-4384 -4974 -4385 0
4384 -4974 4385 0
4384 4974 -4385 0
-4385 432 4272 0
-4385 4995 432 0
4385 -432 0
4385 -4995 -4272 0
-4386 4961 4387 0
-4386 -4961 -4387 0
4386 -4961 4387 0
4386 4961 -4387 0
-4387 4125 4126 0
-4387 4967 4991 0
-4387 4991 4126 0
-4387 4967 4125 0
4387 -4991 -4125 0
4387 -4967 -4126 0
-4388 4959 4389 0
-4388 -4959 -4389 0
4388 -4959 4389 0
4388 4959 -4389 0
-4389 4965 4970 0
-4389 4097 4129 0
-4389 4970 4129 0
-4389 4965 4097 0
4389 -4965 -4129 0
4389 -4970 -4097 0
4390 -4391 -4393 0
-4390 4391 0
-4390 4393 0
-4391 4354 4392 0
-4391 -4354 -4392 0
4391 -4354 4392 0
4391 4354 -4392 0
-4392 4350 4352 0
-4392 -4350 -4352 0
4392 -4350 4352 0
4392 4350 -4352 0
-4393 4362 4394 0
-4393 -4362 -4394 0
4393 -4362 4394 0
4393 4362 -4394 0
-4394 4358 4360 0
-4394 -4358 -4360 0
4394 -4358 4360 0
4394 4358 -4360 0
-4395 4349 4396 0
-4395 -4349 -4396 0
4395 -4349 4396 0
4395 4349 -4396 0
-4396 4290 4347 0
-4396 -4290 -4347 0
4396 -4290 4347 0
4396 4290 -4347 0
-4397 4368 4398 0
-4397 -4368 -4398 0
4397 -4368 4398 0
4397 4368 -4398 0
-4398 4346 4356 0
-4398 -4346 -4356 0
4398 -4346 4356 0
4398 4346 -4356 0
-4399 4370 4400 0
-4399 -4370 -4400 0
4399 -4370 4400 0
4399 4370 -4400 0
-4400 4343 4345 0
-4400 -4343 -4345 0
4400 -4343 4345 0
4400 4343 -4345 0
-4401 4402 4502 0
-4401 4502 4575 0
-4401 4502 4579 0
4401 -4502 0
4401 -4402 -4575 -4579 0
4402 -4403 -4454 0
-4402 4403 0
-4402 4454 0
4403 -4404 -4432 0
-4403 4404 0
-4403 4432 0
-4404 4405 4430 0
-4404 -4405 -4430 0
4404 -4405 4430 0
4404 4405 -4430 0
-4405 4406 4408 0
-4405 4408 4428 0
-4405 4406 4428 0
4405 -4406 -4428 0
4405 -4408 -4428 0
4405 -4406 -4408 0
-4406 4366 4407 0
-4406 -4366 -4407 0
4406 -4366 4407 0
4406 4366 -4407 0
-4407 4357 4364 0
-4407 -4357 -4364 0
4407 -4357 4364 0
4407 4357 -4364 0
-4408 4409 4416 0
-4408 4416 4426 0
-4408 4409 4426 0
4408 -4409 -4426 0
4408 -4416 -4426 0
4408 -4409 -4416 0
-4409 4410 4412 0
-4409 4412 4414 0
-4409 4410 4414 0
4409 -4410 -4414 0
4409 -4412 -4414 0
4409 -4410 -4412 0
-4410 4979 4411 0
-4410 -4979 -4411 0
4410 -4979 4411 0
4410 4979 -4411 0
-4411 4100 4101 0
-4411 4975 5033 0
-4411 5033 4101 0
-4411 4975 4100 0
4411 -5033 -4100 0
4411 -4975 -4101 0
-4412 4976 4413 0
-4412 -4976 -4413 0
4412 -4976 4413 0
4412 4976 -4413 0
-4413 4104 4105 0
-4413 4977 5006 0
-4413 5006 4105 0
-4413 4977 4104 0
4413 -5006 -4104 0
4413 -4977 -4105 0
-4414 4964 4415 0
-4414 -4964 -4415 0
4414 -4964 4415 0
4414 4964 -4415 0
-4415 4110 4111 0
-4415 4962 4981 0
-4415 4962 4111 0
-4415 4981 4110 0
4415 -4962 -4110 0
4415 -4981 -4111 0
-4416 4382 4417 0
-4416 4417 4424 0
-4416 4382 4424 0
4416 -4417 -4424 0
4416 -4382 -4417 0
4416 -4382 -4424 0
-4417 4418 4420 0
-4417 4420 4422 0
-4417 4418 4422 0
4417 -4418 -4422 0
4417 -4420 -4422 0
4417 -4418 -4420 0
-4418 4974 4419 0
-4418 -4974 -4419 0
4418 -4974 4419 0
4418 4974 -4419 0
-4419 493 4272 0
-4419 4991 493 0
4419 -493 0
4419 -4991 -4272 0
-4420 4961 4421 0
-4420 -4961 -4421 0
4420 -4961 4421 0
4420 4961 -4421 0
-4421 4125 4126 0
-4421 4965 4967 0
-4421 4967 4126 0
-4421 4965 4125 0
4421 -4967 -4125 0
4421 -4965 -4126 0
-4422 4959 4423 0
-4422 -4959 -4423 0
4422 -4959 4423 0
4422 4959 -4423 0
-4423 4970 5033 0
-4423 4097 4129 0
-4423 5033 4129 0
-4423 4970 4097 0
4423 -4970 -4129 0
4423 -5033 -4097 0
-4424 4388 4425 0
-4424 -4388 -4425 0
4424 -4388 4425 0
4424 4388 -4425 0
-4425 4384 4386 0
-4425 -4384 -4386 0
4425 -4384 4386 0
4425 4384 -4386 0
-4426 4383 4427 0
-4426 -4383 -4427 0
4426 -4383 4427 0
4426 4383 -4427 0
-4427 -4379 -4381 0
-4427 4379 4381 0
4427 4379 -4381 0
4427 -4379 4381 0
-4428 4395 4429 0
-4428 -4395 -4429 0
4428 -4395 4429 0
4428 4395 -4429 0
-4429 -4378 -4390 0
-4429 4378 4390 0
4429 4378 -4390 0
4429 -4378 4390 0
-4430 4397 4431 0
-4430 -4397 -4431 0
4430 -4397 4431 0
4430 4397 -4431 0
-4431 4376 4377 0
-4431 -4376 -4377 0
4431 -4376 4377 0
4431 4376 -4377 0
-4432 4433 4452 0
-4432 -4433 -4452 0
4432 -4433 4452 0
4432 4433 -4452 0
-4433 4434 4435 0
-4433 4435 4450 0
-4433 4434 4450 0
4433 -4434 -4450 0
4433 -4435 -4450 0
4433 -4434 -4435 0
-4434 4391 4393 0
-4434 -4391 -4393 0
4434 -4391 4393 0
4434 4391 -4393 0
-4435 4436 4448 0
-4435 4436 4443 0
-4435 4443 4448 0
4435 -4443 -4448 0
4435 -4436 -4448 0
4435 -4436 -4443 0
-4436 4437 4439 0
-4436 4439 4441 0
-4436 4437 4441 0
4436 -4437 -4441 0
4436 -4439 -4441 0
4436 -4437 -4439 0
-4437 4979 4438 0
-4437 -4979 -4438 0
4437 -4979 4438 0
4437 4979 -4438 0
-4438 4100 4101 0
-4438 4975 5006 0
-4438 4975 4101 0
-4438 5006 4100 0
4438 -4975 -4100 0
4438 -5006 -4101 0
-4439 4976 4440 0
-4439 -4976 -4440 0
4439 -4976 4440 0
4439 4976 -4440 0
-4440 4104 4105 0
-4440 4962 4977 0
-4440 4977 4105 0
-4440 4962 4104 0
4440 -4977 -4104 0
4440 -4962 -4105 0
-4441 4964 4442 0
-4441 -4964 -4442 0
4441 -4964 4442 0
4441 4964 -4442 0
-4442 4110 4111 0
-4442 4981 4982 0
-4442 4981 4111 0
-4442 4982 4110 0
4442 -4981 -4110 0
4442 -4982 -4111 0
4443 -4444 -4446 0
-4443 4444 0
-4443 4446 0
4444 -4964 4445 0
-4444 4964 0
-4444 -4445 0
4445 -4982 -4110 0
-4445 4982 0
-4445 4110 0
-4446 4422 4447 0
-4446 -4422 -4447 0
4446 -4422 4447 0
4446 4422 -4447 0
-4447 4418 4420 0
-4447 -4418 -4420 0
4447 -4418 4420 0
4447 4418 -4420 0
-4448 4414 4449 0
-4448 -4414 -4449 0
4448 -4414 4449 0
4448 4414 -4449 0
-4449 4410 4412 0
-4449 -4410 -4412 0
4449 -4410 4412 0
4449 4410 -4412 0
-4450 4426 4451 0
-4450 -4426 -4451 0
4450 -4426 4451 0
4450 4426 -4451 0
-4451 4409 4416 0
-4451 -4409 -4416 0
4451 -4409 4416 0
4451 4409 -4416 0
-4452 4428 4453 0
-4452 -4428 -4453 0
4452 -4428 4453 0
4452 4428 -4453 0
-4453 4406 4408 0
-4453 -4406 -4408 0
4453 -4406 4408 0
4453 4406 -4408 0
4454 -4455 -4478 0
-4454 4455 0
-4454 4478 0
-4455 4456 4476 0
-4455 -4456 -4476 0
4455 -4456 4476 0
4455 4456 -4476 0
-4456 4457 4459 0
-4456 4459 4474 0
-4456 4457 4474 0
4456 -4457 -4474 0
4456 -4459 -4474 0
4456 -4457 -4459 0
-4457 4424 4458 0
-4457 -4424 -4458 0
4457 -4424 4458 0
4457 4424 -4458 0
-4458 4382 4417 0
-4458 -4382 -4417 0
4458 -4382 4417 0
4458 4382 -4417 0
-4459 4460 4467 0
-4459 4467 4472 0
-4459 4460 4472 0
4459 -4460 -4472 0
4459 -4467 -4472 0
4459 -4460 -4467 0
-4460 4461 4463 0
-4460 4463 4465 0
-4460 4461 4465 0
4460 -4461 -4465 0
4460 -4463 -4465 0
4460 -4461 -4463 0
-4461 4974 4462 0
-4461 -4974 -4462 0
4461 -4974 4462 0
4461 4974 -4462 0
-4462 552 4272 0
-4462 4967 552 0
4462 -552 0
4462 -4967 -4272 0
-4463 4961 4464 0
-4463 -4961 -4464 0
4463 -4961 4464 0
4463 4961 -4464 0
-4464 4125 4126 0
-4464 4965 4970 0
-4464 4965 4126 0
-4464 4970 4125 0
4464 -4965 -4125 0
4464 -4970 -4126 0
-4465 4959 4466 0
-4465 -4959 -4466 0
4465 -4959 4466 0
4465 4959 -4466 0
-4466 4975 5033 0
-4466 4097 4129 0
-4466 5033 4097 0
-4466 4975 4129 0
4466 -4975 -4097 0
4466 -5033 -4129 0
-4467 4445 4468 0
-4467 4468 4470 0
-4467 4445 4470 0
4467 -4468 -4470 0
4467 -4445 -4468 0
4467 -4445 -4470 0
-4468 4979 4469 0
-4468 -4979 -4469 0
4468 -4979 4469 0
4468 4979 -4469 0
-4469 4100 4101 0
-4469 4977 5006 0
-4469 5006 4101 0
-4469 4977 4100 0
4469 -5006 -4100 0
4469 -4977 -4101 0
-4470 4976 4471 0
-4470 -4976 -4471 0
4470 -4976 4471 0
4470 4976 -4471 0
-4471 4104 4105 0
-4471 4962 4981 0
-4471 4962 4105 0
-4471 4981 4104 0
4471 -4962 -4104 0
4471 -4981 -4105 0
-4472 4441 4473 0
-4472 -4441 -4473 0
4472 -4441 4473 0
4472 4441 -4473 0
-4473 4437 4439 0
-4473 -4437 -4439 0
4473 -4437 4439 0
4473 4437 -4439 0
-4474 4448 4475 0
-4474 -4448 -4475 0
4474 -4448 4475 0
4474 4448 -4475 0
-4475 -4436 -4443 0
-4475 4436 4443 0
4475 4436 -4443 0
4475 -4436 4443 0
-4476 4450 4477 0
-4476 -4450 -4477 0
4476 -4450 4477 0
4476 4450 -4477 0
-4477 4434 4435 0
-4477 -4434 -4435 0
4477 -4434 4435 0
4477 4434 -4435 0
-4478 4479 4500 0
-4478 -4479 -4500 0
4478 -4479 4500 0
4478 4479 -4500 0
-4479 4480 4481 0
-4479 4481 4498 0
-4479 4480 4498 0
4479 -4480 -4498 0
4479 -4481 -4498 0
4479 -4480 -4481 0
-4480 4444 4446 0
-4480 -4444 -4446 0
4480 -4444 4446 0
4480 4444 -4446 0
-4481 4482 4489 0
-4481 4489 4496 0
-4481 4482 4496 0
4481 -4482 -4496 0
4481 -4489 -4496 0
4481 -4482 -4489 0
-4482 4483 4485 0
-4482 4485 4487 0
-4482 4483 4487 0
4482 -4483 -4487 0
4482 -4485 -4487 0
4482 -4483 -4485 0
-4483 4974 4484 0
-4483 -4974 -4484 0
4483 -4974 4484 0
4483 4974 -4484 0
-4484 612 4272 0
-4484 4965 612 0
4484 -612 0
4484 -4965 -4272 0
-4485 4961 4486 0
-4485 -4961 -4486 0
4485 -4961 4486 0
4485 4961 -4486 0
-4486 4125 4126 0
-4486 4970 5033 0
-4486 4970 4126 0
-4486 5033 4125 0
4486 -4970 -4125 0
4486 -5033 -4126 0
-4487 4959 4488 0
-4487 -4959 -4488 0
4487 -4959 4488 0
4487 4959 -4488 0
-4488 4975 5006 0
-4488 4097 4129 0
-4488 5006 4129 0
-4488 4975 4097 0
4488 -4975 -4129 0
4488 -5006 -4097 0
-4489 4490 4492 0
-4489 4492 4494 0
-4489 4490 4494 0
4489 -4492 -4494 0
4489 -4490 -4492 0
4489 -4490 -4494 0
-4490 4979 4491 0
-4490 -4979 -4491 0
4490 -4979 4491 0
4490 4979 -4491 0
-4491 4100 4101 0
-4491 4962 4977 0
-4491 4977 4101 0
-4491 4962 4100 0
4491 -4977 -4100 0
4491 -4962 -4101 0
-4492 4976 4493 0
-4492 -4976 -4493 0
4492 -4976 4493 0
4492 4976 -4493 0
-4493 4104 4105 0
-4493 4981 4982 0
-4493 4981 4105 0
-4493 4982 4104 0
4493 -4981 -4104 0
4493 -4982 -4105 0
4494 -4976 4495 0
-4494 4976 0
-4494 -4495 0
4495 -4982 -4104 0
-4495 4982 0
-4495 4104 0
-4496 4465 4497 0
-4496 -4465 -4497 0
4496 -4465 4497 0
4496 4465 -4497 0
-4497 4461 4463 0
-4497 -4461 -4463 0
4497 -4461 4463 0
4497 4461 -4463 0
-4498 4472 4499 0
-4498 -4472 -4499 0
4498 -4472 4499 0
4498 4472 -4499 0
-4499 4460 4467 0
-4499 -4460 -4467 0
4499 -4460 4467 0
4499 4460 -4467 0
-4500 4474 4501 0
-4500 -4474 -4501 0
4500 -4474 4501 0
4500 4474 -4501 0
-4501 4457 4459 0
-4501 -4457 -4459 0
4501 -4457 4459 0
4501 4457 -4459 0
-4502 4503 4505 4402 0
-4502 4503 4505 4508 0
4502 -4503 0
4502 -4505 0
4502 -4402 -4508 0
-4503 4405 4430 0
-4503 4430 4504 0
-4503 4405 4504 0
4503 -4430 -4504 0
4503 -4405 -4430 0
4503 -4405 -4504 0
4504 -4433 -4452 0
-4504 4433 0
-4504 4452 0
4505 -4403 -4506 0
-4505 4403 0
-4505 4506 0
-4506 4456 4476 0
-4506 4476 4507 0
-4506 4456 4507 0
4506 -4476 -4507 0
4506 -4456 -4476 0
4506 -4456 -4507 0
4507 -4479 -4500 0
-4507 4479 0
-4507 4500 0
-4508 4509 4526 4544 0
-4508 4509 4528 4544 0
-4508 4526 4528 4544 0
4508 -4526 -4528 0
4508 -4509 -4526 0
4508 -4544 0
4508 -4509 -4528 0
-4509 4510 4512 0
-4509 4512 4524 0
-4509 4510 4524 0
4509 -4510 -4524 0
4509 -4512 -4524 0
4509 -4510 -4512 0
-4510 4445 4511 0
-4510 -4445 -4511 0
4510 -4445 4511 0
4510 4445 -4511 0
-4511 4468 4470 0
-4511 -4468 -4470 0
4511 -4468 4470 0
4511 4468 -4470 0
-4512 4513 4520 0
-4512 4520 4522 0
-4512 4513 4522 0
4512 -4513 -4522 0
4512 -4520 -4522 0
4512 -4513 -4520 0
-4513 4514 4516 0
-4513 4516 4518 0
-4513 4514 4518 0
4513 -4514 -4518 0
4513 -4516 -4518 0
4513 -4514 -4516 0
-4514 4974 4515 0
-4514 -4974 -4515 0
4514 -4974 4515 0
4514 4974 -4515 0
-4515 661 4272 0
-4515 4970 661 0
4515 -661 0
4515 -4970 -4272 0
-4516 4961 4517 0
-4516 -4961 -4517 0
4516 -4961 4517 0
4516 4961 -4517 0
-4517 4125 4126 0
-4517 4975 5033 0
-4517 5033 4126 0
-4517 4975 4125 0
4517 -5033 -4125 0
4517 -4975 -4126 0
-4518 4959 4519 0
-4518 -4959 -4519 0
4518 -4959 4519 0
4518 4959 -4519 0
-4519 4977 5006 0
-4519 4097 4129 0
-4519 5006 4097 0
-4519 4977 4129 0
4519 -4977 -4097 0
4519 -5006 -4129 0
-4520 4487 4521 0
-4520 -4487 -4521 0
4520 -4487 4521 0
4520 4487 -4521 0
-4521 4483 4485 0
-4521 -4483 -4485 0
4521 -4483 4485 0
4521 4483 -4485 0
-4522 4494 4523 0
-4522 -4494 -4523 0
4522 -4494 4523 0
4522 4494 -4523 0
-4523 4490 4492 0
-4523 -4490 -4492 0
4523 -4490 4492 0
4523 4490 -4492 0
-4524 4496 4525 0
-4524 -4496 -4525 0
4524 -4496 4525 0
4524 4496 -4525 0
-4525 4482 4489 0
-4525 -4482 -4489 0
4525 -4482 4489 0
4525 4482 -4489 0
-4526 4498 4527 0
-4526 -4498 -4527 0
4526 -4498 4527 0
4526 4498 -4527 0
-4527 4480 4481 0
-4527 -4480 -4481 0
4527 -4480 4481 0
4527 4480 -4481 0
4528 -4529 -4542 0
-4528 4529 0
-4528 4542 0
4529 -4530 -4540 0
-4529 4530 0
-4529 4540 0
-4530 4495 4531 0
-4530 4531 4533 0
-4530 4495 4533 0
4530 -4531 -4533 0
4530 -4495 -4531 0
4530 -4495 -4533 0
-4531 4979 4532 0
-4531 -4979 -4532 0
4531 -4979 4532 0
4531 4979 -4532 0
-4532 4100 4101 0
-4532 4962 4981 0
-4532 4962 4101 0
-4532 4981 4100 0
4532 -4962 -4100 0
4532 -4981 -4101 0
-4533 4534 4536 0
-4533 4536 4538 0
-4533 4534 4538 0
4533 -4534 -4538 0
4533 -4536 -4538 0
4533 -4534 -4536 0
-4534 4974 4535 0
-4534 -4974 -4535 0
4534 -4974 4535 0
4534 4974 -4535 0
-4535 709 4272 0
-4535 5033 709 0
4535 -709 0
4535 -5033 -4272 0
-4536 4961 4537 0
-4536 -4961 -4537 0
4536 -4961 4537 0
4536 4961 -4537 0
-4537 4125 4126 0
-4537 4975 5006 0
-4537 4975 4126 0
-4537 5006 4125 0
4537 -4975 -4125 0
4537 -5006 -4126 0
-4538 4959 4539 0
-4538 -4959 -4539 0
4538 -4959 4539 0
4538 4959 -4539 0
-4539 4962 4977 0
-4539 4097 4129 0
-4539 4977 4097 0
-4539 4962 4129 0
4539 -4962 -4097 0
4539 -4977 -4129 0
-4540 4522 4541 0
-4540 -4522 -4541 0
4540 -4522 4541 0
4540 4522 -4541 0
-4541 4513 4520 0
-4541 -4513 -4520 0
4541 -4513 4520 0
4541 4513 -4520 0
-4542 4524 4543 0
-4542 -4524 -4543 0
4542 -4524 4543 0
4542 4524 -4543 0
-4543 4510 4512 0
-4543 -4510 -4512 0
4543 -4510 4512 0
4543 4510 -4512 0
4544 -4545 -4548 0
-4544 4545 0
-4544 4548 0
4545 -4546 -4547 0
-4545 4546 0
-4545 4547 0
-4546 4509 4526 0
-4546 -4509 -4526 0
4546 -4509 4526 0
4546 4509 -4526 0
-4547 4529 4542 0
-4547 -4529 -4542 0
4547 -4529 4542 0
4547 4529 -4542 0
-4548 4549 4561 0
-4548 4561 4562 0
-4548 4549 4562 0
4548 -4561 -4562 0
4548 -4549 -4561 0
4548 -4549 -4562 0
-4549 4550 4552 0
-4549 4552 4559 0
-4549 4550 4559 0
4549 -4550 -4559 0
4549 -4552 -4559 0
4549 -4550 -4552 0
-4550 4518 4551 0
-4550 -4518 -4551 0
4550 -4518 4551 0
4550 4518 -4551 0
-4551 4514 4516 0
-4551 -4514 -4516 0
4551 -4514 4516 0
4551 4514 -4516 0
-4552 4553 4557 0
-4552 4553 4555 0
-4552 4555 4557 0
4552 -4555 -4557 0
4552 -4553 -4557 0
4552 -4553 -4555 0
-4553 4979 4554 0
-4553 -4979 -4554 0
4553 -4979 4554 0
4553 4979 -4554 0
-4554 4100 4101 0
-4554 4981 4982 0
-4554 4981 4101 0
-4554 4982 4100 0
4554 -4981 -4100 0
4554 -4982 -4101 0
4555 -4979 4556 0
-4555 4979 0
-4555 -4556 0
4556 -4982 -4100 0
-4556 4982 0
-4556 4100 0
-4557 4538 4558 0
-4557 -4538 -4558 0
4557 -4538 4558 0
4557 4538 -4558 0
-4558 4534 4536 0
-4558 -4534 -4536 0
4558 -4534 4536 0
4558 4534 -4536 0
-4559 4533 4560 0
-4559 -4533 -4560 0
4559 -4533 4560 0
4559 4533 -4560 0
-4560 4495 4531 0
-4560 -4495 -4531 0
4560 -4495 4531 0
4560 4495 -4531 0
-4561 4530 4540 0
-4561 -4530 -4540 0
4561 -4530 4540 0
4561 4530 -4540 0
4562 -4563 -4573 0
-4562 4563 0
-4562 4573 0
4563 -4564 -4571 0
-4563 4564 0
-4563 4571 0
-4564 4565 4567 0
-4564 4567 4569 0
-4564 4565 4569 0
4564 -4565 -4569 0
4564 -4567 -4569 0
4564 -4565 -4567 0
-4565 4974 4566 0
-4565 -4974 -4566 0
4565 -4974 4566 0
4565 4974 -4566 0
-4566 754 4272 0
-4566 4975 754 0
4566 -754 0
4566 -4975 -4272 0
-4567 4961 4568 0
-4567 -4961 -4568 0
4567 -4961 4568 0
4567 4961 -4568 0
-4568 4125 4126 0
-4568 4977 5006 0
-4568 5006 4126 0
-4568 4977 4125 0
4568 -5006 -4125 0
4568 -4977 -4126 0
-4569 4959 4570 0
-4569 -4959 -4570 0
4569 -4959 4570 0
4569 4959 -4570 0
-4570 4962 4981 0
-4570 4097 4129 0
-4570 4981 4129 0
-4570 4962 4097 0
4570 -4962 -4129 0
4570 -4981 -4097 0
-4571 4557 4572 0
-4571 -4557 -4572 0
4571 -4557 4572 0
4571 4557 -4572 0
-4572 -4553 -4555 0
-4572 4553 4555 0
4572 4553 -4555 0
4572 -4553 4555 0
-4573 4559 4574 0
-4573 -4559 -4574 0
4573 -4559 4574 0
4573 4559 -4574 0
-4574 4550 4552 0
-4574 -4550 -4552 0
4574 -4550 4552 0
4574 4550 -4552 0
4575 -4545 -4576 0
-4575 4545 0
-4575 4576 0
4576 -4577 -4578 0
-4576 4577 0
-4576 4578 0
-4577 4549 4561 0
-4577 -4549 -4561 0
4577 -4549 4561 0
4577 4549 -4561 0
-4578 4563 4573 0
-4578 -4563 -4573 0
4578 -4563 4573 0
4578 4563 -4573 0
-4579 4580 4601 0
-4579 4601 4621 0
-4579 4601 4624 0
4579 -4601 0
4579 -4580 -4621 -4624 0
4580 -4581 -4593 0
-4580 4581 0
-4580 4593 0
-4581 4582 4592 0
-4581 -4582 -4592 0
4581 -4582 4592 0
4581 4582 -4592 0
-4582 4556 4583 0
-4582 4583 4590 0
-4582 4556 4590 0
4582 -4583 -4590 0
4582 -4556 -4583 0
4582 -4556 -4590 0
-4583 4584 4586 0
-4583 4586 4588 0
-4583 4584 4588 0
4583 -4584 -4588 0
4583 -4586 -4588 0
4583 -4584 -4586 0
-4584 4974 4585 0
-4584 -4974 -4585 0
4584 -4974 4585 0
4584 4974 -4585 0
-4585 796 4272 0
-4585 5006 796 0
4585 -796 0
4585 -5006 -4272 0
-4586 4961 4587 0
-4586 -4961 -4587 0
4586 -4961 4587 0
4586 4961 -4587 0
-4587 4125 4126 0
-4587 4962 4977 0
-4587 4977 4126 0
-4587 4962 4125 0
4587 -4977 -4125 0
4587 -4962 -4126 0
-4588 4959 4589 0
-4588 -4959 -4589 0
4588 -4959 4589 0
4588 4959 -4589 0
-4589 4981 4982 0
-4589 4097 4129 0
-4589 4982 4129 0
-4589 4981 4097 0
4589 -4981 -4129 0
4589 -4982 -4097 0
-4590 4569 4591 0
-4590 -4569 -4591 0
4590 -4569 4591 0
4590 4569 -4591 0
-4591 4565 4567 0
-4591 -4565 -4567 0
4591 -4565 4567 0
4591 4565 -4567 0
-4592 4564 4571 0
-4592 -4564 -4571 0
4592 -4564 4571 0
4592 4564 -4571 0
-4593 4594 4599 0
-4593 -4594 -4599 0
4593 -4594 4599 0
4593 4594 -4599 0
4594 -4595 -4597 0
-4594 4595 0
-4594 4597 0
4595 -4959 4596 0
-4595 4959 0
-4595 -4596 0
4596 -4982 -4129 0
-4596 4982 0
-4596 4129 0
-4597 4588 4598 0
-4597 -4588 -4598 0
4597 -4588 4598 0
4597 4588 -4598 0
-4598 4584 4586 0
-4598 -4584 -4586 0
4598 -4584 4586 0
4598 4584 -4586 0
-4599 4590 4600 0
-4599 -4590 -4600 0
4599 -4590 4600 0
4599 4590 -4600 0
-4600 4556 4583 0
-4600 -4556 -4583 0
4600 -4556 4583 0
4600 4556 -4583 0
-4601 4582 4592 4603 0
-4601 4582 4602 4603 0
-4601 4592 4602 4603 0
4601 -4592 -4602 0
4601 -4582 -4592 0
4601 -4603 0
4601 -4582 -4602 0
4602 -4594 -4599 0
-4602 4594 0
-4602 4599 0
4603 -4580 -4604 0
-4603 4580 0
-4603 4604 0
-4604 4605 4610 0
-4604 4610 4611 0
-4604 4605 4611 0
4604 -4610 -4611 0
4604 -4605 -4610 0
4604 -4605 -4611 0
-4605 4596 4606 0
-4605 4606 4608 0
-4605 4596 4608 0
4605 -4606 -4608 0
4605 -4596 -4606 0
4605 -4596 -4608 0
-4606 4974 4607 0
-4606 -4974 -4607 0
4606 -4974 4607 0
4606 4974 -4607 0
-4607 829 4272 0
-4607 4977 829 0
4607 -829 0
4607 -4977 -4272 0
-4608 4961 4609 0
-4608 -4961 -4609 0
4608 -4961 4609 0
4608 4961 -4609 0
-4609 4125 4126 0
-4609 4962 4981 0
-4609 4962 4126 0
-4609 4981 4125 0
4609 -4962 -4125 0
4609 -4981 -4126 0
-4610 4595 4597 0
-4610 -4595 -4597 0
4610 -4595 4597 0
4610 4595 -4597 0
4611 -4612 -4619 0
-4611 4612 0
-4611 4619 0
-4612 4613 4615 0
-4612 4615 4617 0
-4612 4613 4617 0
4612 -4615 -4617 0
4612 -4613 -4615 0
4612 -4613 -4617 0
-4613 4974 4614 0
-4613 -4974 -4614 0
4613 -4974 4614 0
4613 4974 -4614 0
-4614 868 4272 0
-4614 4962 868 0
4614 -868 0
4614 -4962 -4272 0
-4615 4961 4616 0
-4615 -4961 -4616 0
4615 -4961 4616 0
4615 4961 -4616 0
-4616 4125 4126 0
-4616 4981 4982 0
-4616 4981 4126 0
-4616 4982 4125 0
4616 -4981 -4125 0
4616 -4982 -4126 0
4617 -4961 4618 0
-4617 4961 0
-4617 -4618 0
4618 -4982 -4125 0
-4618 4982 0
-4618 4125 0
-4619 4596 4620 0
-4619 -4596 -4620 0
4619 -4596 4620 0
4619 4596 -4620 0
-4620 4606 4608 0
-4620 -4606 -4608 0
4620 -4606 4608 0
4620 4606 -4608 0
4621 -4622 -4623 0
-4621 4622 0
-4621 4623 0
-4622 4605 4610 0
-4622 -4605 -4610 0
4622 -4605 4610 0
4622 4605 -4610 0
-4623 4612 4619 0
-4623 -4612 -4619 0
4623 -4612 4619 0
4623 4612 -4619 0
-4624 4628 0
-4624 4625 4631 0
-4624 4625 4630 0
4624 -4625 -4628 0
4624 -4628 -4630 -4631 0
4625 -4618 -4626 0
-4625 4618 0
-4625 4626 0
-4626 4974 4627 0
-4626 -4974 -4627 0
4626 -4974 4627 0
4626 4974 -4627 0
-4627 896 4272 0
-4627 4981 896 0
4627 -896 0
4627 -4981 -4272 0
-4628 4617 4629 0
-4628 -4617 -4629 0
4628 -4617 4629 0
4628 4617 -4629 0
-4629 4613 4615 0
-4629 -4613 -4615 0
4629 -4613 4615 0
4629 4613 -4615 0
4630 -4974 4982 920 0
-4630 4974 0
-4630 -920 0
-4630 -4982 0
-4631 4618 4626 0
-4631 -4618 -4626 0
4631 -4618 4626 0
4631 4618 -4626 0
4632 -4633 -4634 0
-4632 4633 0
-4632 4634 0
-4633 4342 4372 0
-4633 -4342 -4372 0
4633 -4342 4372 0
4633 4342 -4372 0
-4634 4375 4399 0
-4634 -4375 -4399 0
4634 -4375 4399 0
4634 4375 -4399 0
-4635 4636 4697 0
-4635 -4636 -4697 0
4635 -4636 4697 0
4635 4636 -4697 0
-4636 4637 4667 0
-4636 -4637 -4667 0
4636 -4637 4667 0
4636 4637 -4667 0
-4637 -4638 -4665 0
-4637 4638 4665 0
4637 4638 -4665 0
4637 -4638 4665 0
4638 4639 -4640 0
4638 -4639 4640 0
-4638 -4639 -4640 0
-4638 4639 4640 0
-4639 -3102 3118 0
-4639 3118 3119 0
-4639 -3102 3119 0
4639 3102 -3119 0
4639 -3118 -3119 0
4639 3102 -3118 0
4640 4641 -4658 0
4640 -4641 4658 0
-4640 -4641 -4658 0
-4640 4641 4658 0
-4641 4642 4657 0
-4641 -4642 -4657 0
4641 -4642 4657 0
4641 4642 -4657 0
-4642 4643 4651 0
-4642 -4643 -4651 0
4642 -4643 4651 0
4642 4643 -4651 0
-4643 4644 4649 0
-4643 -4644 -4649 0
4643 -4644 4649 0
4643 4644 -4649 0
-4644 4645 4647 0
-4644 -4645 -4647 0
4644 -4645 4647 0
4644 4645 -4647 0
-4645 -5004 -4646 0
-4645 5004 4646 0
4645 5004 -4646 0
4645 -5004 4646 0
4646 -5021 -3006 0
-4646 5021 0
-4646 3006 0
-4647 5016 4648 0
-4647 -5016 -4648 0
4647 -5016 4648 0
4647 5016 -4648 0
-4648 3009 3010 0
-4648 4948 5007 0
-4648 5007 3010 0
-4648 4948 3009 0
4648 -5007 -3009 0
4648 -4948 -3010 0
-4649 5023 4650 0
-4649 -5023 -4650 0
4649 -5023 4650 0
4649 5023 -4650 0
-4650 3015 3016 0
-4650 5022 5032 0
-4650 5032 3016 0
-4650 5022 3015 0
4650 -5032 -3015 0
4650 -5022 -3016 0
-4651 1930 4652 0
-4651 -1930 -4652 0
4651 -1930 4652 0
4651 1930 -4652 0
-4652 4653 4655 0
-4652 -4653 -4655 0
4652 -4653 4655 0
4652 4653 -4655 0
-4653 5011 4654 0
-4653 -5011 -4654 0
4653 -5011 4654 0
4653 5011 -4654 0
-4654 3019 3020 0
-4654 5024 5026 0
-4654 5024 3020 0
-4654 5026 3019 0
4654 -5024 -3019 0
4654 -5026 -3020 0
-4655 4994 4656 0
-4655 -4994 -4656 0
4655 -4994 4656 0
4655 4994 -4656 0
-4656 3023 3024 0
-4656 4968 5027 0
-4656 5027 3024 0
-4656 4968 3023 0
4656 -5027 -3023 0
4656 -4968 -3024 0
-4657 3121 3122 0
-4657 3122 3123 0
-4657 3121 3123 0
4657 -3121 -3123 0
4657 -3122 -3123 0
4657 -3121 -3122 0
4658 4659 -4662 0
4658 -4659 4662 0
-4658 -4659 -4662 0
-4658 4659 4662 0
-4659 4660 4661 0
-4659 -4660 -4661 0
4659 -4660 4661 0
4659 4660 -4661 0
-4660 1935 3125 0
-4660 3125 3126 0
-4660 1935 3126 0
4660 -3125 -3126 0
4660 -1935 -3125 0
4660 -1935 -3126 0
-4661 1983 -3104 0
-4661 -3104 3110 0
-4661 1983 3110 0
4661 3104 -3110 0
4661 -1983 3104 0
4661 -1983 -3110 0
4662 -4663 4664 0
4662 4663 -4664 0
-4662 4663 4664 0
-4662 -4663 -4664 0
-4663 -5019 3106 0
-4663 3106 3108 0
-4663 -5019 3108 0
4663 5019 -3108 0
4663 -3106 -3108 0
4663 5019 -3106 0
-4664 3112 3114 0
-4664 3114 3116 0
-4664 3112 3116 0
4664 -3112 -3116 0
4664 -3114 -3116 0
4664 -3112 -3114 0
4665 2994 -4666 0
4665 3165 -4666 0
4665 3166 -4666 0
-4665 4666 0
-4665 -2994 -3165 -3166 0
4666 -2995 -3100 0
4666 -3100 3128 0
4666 -2995 3128 0
-4666 3100 -3128 0
-4666 2995 3100 0
-4666 2995 -3128 0
-4667 -4668 -4695 0
-4667 4668 4695 0
4667 4668 -4695 0
4667 -4668 4695 0
4668 4669 -4670 0
4668 -4669 4670 0
-4668 -4669 -4670 0
-4668 4669 4670 0
-4669 -3650 3666 0
-4669 3666 3667 0
-4669 -3650 3667 0
4669 3650 -3667 0
4669 -3666 -3667 0
4669 3650 -3666 0
4670 4671 -4688 0
4670 -4671 4688 0
-4670 -4671 -4688 0
-4670 4671 4688 0
-4671 4672 4687 0
-4671 -4672 -4687 0
4671 -4672 4687 0
4671 4672 -4687 0
-4672 4673 4681 0
-4672 -4673 -4681 0
4672 -4673 4681 0
4672 4673 -4681 0
-4673 4674 4679 0
-4673 -4674 -4679 0
4673 -4674 4679 0
4673 4674 -4679 0
-4674 4675 4677 0
-4674 -4675 -4677 0
4674 -4675 4677 0
4674 4675 -4677 0
-4675 -4983 -4676 0
-4675 4983 4676 0
4675 4983 -4676 0
4675 -4983 4676 0
4676 -4943 -3554 0
-4676 4943 0
-4676 3554 0
-4677 5034 4678 0
-4677 -5034 -4678 0
4677 -5034 4678 0
4677 5034 -4678 0
-4678 3557 3558 0
-4678 4952 4973 0
-4678 4973 3558 0
-4678 4952 3557 0
4678 -4973 -3557 0
4678 -4952 -3558 0
-4679 4950 4680 0
-4679 -4950 -4680 0
4679 -4950 4680 0
4679 4950 -4680 0
-4680 3563 3564 0
-4680 4940 4942 0
-4680 4942 3564 0
-4680 4940 3563 0
4680 -4942 -3563 0
4680 -4940 -3564 0
-4681 1014 4682 0
-4681 -1014 -4682 0
4681 -1014 4682 0
4681 1014 -4682 0
-4682 4683 4685 0
-4682 -4683 -4685 0
4682 -4683 4685 0
4682 4683 -4685 0
-4683 5015 4684 0
-4683 -5015 -4684 0
4683 -5015 4684 0
4683 5015 -4684 0
-4684 3567 3568 0
-4684 4939 4990 0
-4684 4990 3568 0
-4684 4939 3567 0
4684 -4990 -3567 0
4684 -4939 -3568 0
-4685 4984 4686 0
-4685 -4984 -4686 0
4685 -4984 4686 0
4685 4984 -4686 0
-4686 3571 3572 0
-4686 4946 4996 0
-4686 4996 3572 0
-4686 4946 3571 0
4686 -4996 -3571 0
4686 -4946 -3572 0
-4687 3669 3670 0
-4687 3670 3671 0
-4687 3669 3671 0
4687 -3669 -3671 0
4687 -3670 -3671 0
4687 -3669 -3670 0
4688 4689 -4692 0
4688 -4689 4692 0
-4688 -4689 -4692 0
-4688 4689 4692 0
-4689 4690 4691 0
-4689 -4690 -4691 0
4689 -4690 4691 0
4689 4690 -4691 0
-4690 1019 3673 0
-4690 3673 3674 0
-4690 1019 3674 0
4690 -3673 -3674 0
4690 -1019 -3673 0
4690 -1019 -3674 0
-4691 1067 -3652 0
-4691 -3652 3658 0
-4691 1067 3658 0
4691 3652 -3658 0
4691 -1067 3652 0
4691 -1067 -3658 0
4692 -4693 4694 0
4692 4693 -4694 0
-4692 4693 4694 0
-4692 -4693 -4694 0
-4693 -4989 3654 0
-4693 3654 3656 0
-4693 -4989 3656 0
4693 4989 -3656 0
4693 -3654 -3656 0
4693 4989 -3654 0
-4694 3660 3662 0
-4694 3662 3664 0
-4694 3660 3664 0
4694 -3660 -3664 0
4694 -3662 -3664 0
4694 -3660 -3662 0
4695 3542 -4696 0
4695 3713 -4696 0
4695 3714 -4696 0
-4695 4696 0
-4695 -3542 -3713 -3714 0
4696 -3543 -3648 0
4696 -3648 3676 0
4696 -3543 3676 0
-4696 3648 -3676 0
-4696 3543 3648 0
-4696 3543 -3676 0
-4697 -4698 -4725 0
-4697 4698 4725 0
4697 4698 -4725 0
4697 -4698 4725 0
4698 4699 -4700 0
4698 -4699 4700 0
-4698 -4699 -4700 0
-4698 4699 4700 0
-4699 -4197 4213 0
-4699 4213 4214 0
-4699 -4197 4214 0
4699 4197 -4214 0
4699 -4213 -4214 0
4699 4197 -4213 0
4700 4701 -4718 0
4700 -4701 4718 0
-4700 -4701 -4718 0
-4700 4701 4718 0
-4701 4702 4717 0
-4701 -4702 -4717 0
4701 -4702 4717 0
4701 4702 -4717 0
-4702 4703 4711 0
-4702 -4703 -4711 0
4702 -4703 4711 0
4702 4703 -4711 0
-4703 4704 4709 0
-4703 -4704 -4709 0
4703 -4704 4709 0
4703 4704 -4709 0
-4704 4705 4707 0
-4704 -4705 -4707 0
4704 -4705 4707 0
4704 4705 -4707 0
-4705 -4979 -4706 0
-4705 4979 4706 0
4705 4979 -4706 0
4705 -4979 4706 0
4706 -4972 -4101 0
-4706 4972 0
-4706 4101 0
-4707 4976 4708 0
-4707 -4976 -4708 0
4707 -4976 4708 0
4707 4976 -4708 0
-4708 4104 4105 0
-4708 4963 4987 0
-4708 4987 4105 0
-4708 4963 4104 0
4708 -4987 -4104 0
4708 -4963 -4105 0
-4709 4964 4710 0
-4709 -4964 -4710 0
4709 -4964 4710 0
4709 4964 -4710 0
-4710 4110 4111 0
-4710 4995 5002 0
-4710 5002 4111 0
-4710 4995 4110 0
4710 -5002 -4110 0
4710 -4995 -4111 0
-4711 96 4712 0
-4711 -96 -4712 0
4711 -96 4712 0
4711 96 -4712 0
-4712 4713 4715 0
-4712 -4713 -4715 0
4712 -4713 4715 0
4712 4713 -4715 0
-4713 4966 4714 0
-4713 -4966 -4714 0
4713 -4966 4714 0
4713 4966 -4714 0
-4714 4114 4115 0
-4714 4967 4991 0
-4714 4991 4115 0
-4714 4967 4114 0
4714 -4991 -4114 0
4714 -4967 -4115 0
-4715 5003 4716 0
-4715 -5003 -4716 0
4715 -5003 4716 0
4715 5003 -4716 0
-4716 4118 4119 0
-4716 4965 4970 0
-4716 4965 4119 0
-4716 4970 4118 0
4716 -4965 -4118 0
4716 -4970 -4119 0
-4717 4216 4217 0
-4717 4217 4218 0
-4717 4216 4218 0
4717 -4216 -4218 0
4717 -4217 -4218 0
4717 -4216 -4217 0
4718 4719 -4722 0
4718 -4719 4722 0
-4718 -4719 -4722 0
-4718 4719 4722 0
-4719 4720 4721 0
-4719 -4720 -4721 0
4719 -4720 4721 0
4719 4720 -4721 0
-4720 101 4220 0
-4720 4220 4221 0
-4720 101 4221 0
4720 -4220 -4221 0
4720 -101 -4220 0
4720 -101 -4221 0
-4721 149 -4199 0
-4721 -4199 4205 0
-4721 149 4205 0
4721 4199 -4205 0
4721 -149 4199 0
4721 -149 -4205 0
4722 -4723 4724 0
4722 4723 -4724 0
-4722 4723 4724 0
-4722 -4723 -4724 0
-4723 -4959 4201 0
-4723 4201 4203 0
-4723 -4959 4203 0
4723 4959 -4203 0
4723 -4201 -4203 0
4723 4959 -4201 0
-4724 4207 4209 0
-4724 4209 4211 0
-4724 4207 4211 0
4724 -4207 -4211 0
4724 -4209 -4211 0
4724 -4207 -4209 0
4725 4089 -4726 0
4725 4260 -4726 0
4725 4261 -4726 0
-4725 4726 0
-4725 -4089 -4260 -4261 0
4726 -4090 -4195 0
4726 -4195 4223 0
4726 -4090 4223 0
-4726 4195 -4223 0
-4726 4090 4195 0
-4726 4090 -4223 0
-4727 4728 4732 4747 0
-4727 4728 4734 4747 0
-4727 4732 4734 4747 0
4727 -4732 -4734 0
4727 -4728 -4732 0
4727 -4747 0
4727 -4728 -4734 0
-4728 4729 4730 0
-4728 4730 4731 0
-4728 4729 4731 0
4728 -4729 -4731 0
4728 -4730 -4731 0
4728 -4729 -4730 0
-4729 3165 3166 0
-4729 -3165 -3166 0
4729 -3165 3166 0
4729 3165 -3166 0
-4730 3713 3714 0
-4730 -3713 -3714 0
4730 -3713 3714 0
4730 3713 -3714 0
-4731 4260 4261 0
-4731 -4260 -4261 0
4731 -4260 4261 0
4731 4260 -4261 0
-4732 4088 4733 0
-4732 -4088 -4733 0
4732 -4088 4733 0
4732 4088 -4733 0
-4733 2993 3541 0
-4733 -2993 -3541 0
4733 -2993 3541 0
4733 2993 -3541 0
4734 -4735 -4745 0
-4734 4735 0
-4734 4745 0
-4735 4736 4739 0
-4735 4739 4742 0
-4735 4736 4742 0
4735 -4736 -4742 0
4735 -4739 -4742 0
4735 -4736 -4739 0
-4736 3168 4737 0
-4736 -3168 -4737 0
4736 -3168 4737 0
4736 3168 -4737 0
-4737 3245 3211 0
-4737 3245 4738 0
4737 -3245 0
4737 -3211 -4738 0
-4738 3247 3309 0
-4738 3247 3306 0
4738 -3247 0
4738 -3306 -3309 0
-4739 3716 4740 0
-4739 -3716 -4740 0
4739 -3716 4740 0
4739 3716 -4740 0
-4740 3793 3758 0
-4740 3793 4741 0
4740 -3793 0
4740 -3758 -4741 0
-4741 3795 3857 0
-4741 3795 3854 0
4741 -3795 0
4741 -3854 -3857 0
-4742 4263 4743 0
-4742 -4263 -4743 0
4742 -4263 4743 0
4742 4263 -4743 0
-4743 4339 4305 0
-4743 4339 4744 0
4743 -4339 0
4743 -4305 -4744 0
-4744 4341 4401 0
-4744 4341 4632 0
4744 -4341 0
4744 -4401 -4632 0
-4745 4731 4746 0
-4745 -4731 -4746 0
4745 -4731 4746 0
4745 4731 -4746 0
-4746 4729 4730 0
-4746 -4729 -4730 0
4746 -4729 4730 0
4746 4729 -4730 0
4747 -4748 -4735 4745 -4749 0
4747 -4748 4735 -4745 -4749 0
-4747 4749 0
-4747 4735 4745 0
-4747 4748 0
-4747 -4735 -4745 0
-4748 4728 4732 0
-4748 -4728 -4732 0
4748 -4728 4732 0
4748 4728 -4732 0
-4749 4750 4766 4791 0
-4749 4750 4766 4793 0
4749 -4750 0
4749 -4766 0
4749 -4791 -4793 0
-4750 4751 4755 0
-4750 4755 4764 0
-4750 4751 4764 0
-4750 4755 4757 0
-4750 4751 4757 0
4750 -4751 -4755 0
4750 -4751 -4757 -4764 0
4750 -4755 -4757 -4764 0
-4751 4752 4753 0
-4751 4753 4754 0
-4751 4752 4754 0
4751 -4752 -4754 0
4751 -4753 -4754 0
4751 -4752 -4753 0
-4752 3211 4738 0
-4752 -3211 -4738 0
4752 -3211 4738 0
4752 3211 -4738 0
-4753 3758 4741 0
-4753 -3758 -4741 0
4753 -3758 4741 0
4753 3758 -4741 0
-4754 4305 4744 0
-4754 -4305 -4744 0
4754 -4305 4744 0
4754 4305 -4744 0
-4755 4742 4756 0
-4755 -4742 -4756 0
4755 -4742 4756 0
4755 4742 -4756 0
-4756 4736 4739 0
-4756 -4736 -4739 0
4756 -4736 4739 0
4756 4736 -4739 0
-4757 4758 4760 0
-4757 4760 4762 0
-4757 4758 4762 0
4757 -4758 -4762 0
4757 -4760 -4762 0
4757 -4758 -4760 0
-4758 3307 4759 0
-4758 -3307 -4759 0
4758 -3307 4759 0
4758 3307 -4759 0
-4759 3279 3308 0
-4759 3279 3309 0
4759 -3279 0
4759 -3308 -3309 0
-4760 3855 4761 0
-4760 -3855 -4761 0
4760 -3855 4761 0
4760 3855 -4761 0
-4761 3827 3856 0
-4761 3827 3857 0
4761 -3827 0
4761 -3856 -3857 0
-4762 4633 4763 0
-4762 -4633 -4763 0
4762 -4633 4763 0
4762 4633 -4763 0
-4763 4374 4401 0
-4763 4374 4634 0
4763 -4374 0
4763 -4401 -4634 0
-4764 4754 4765 0
-4764 -4754 -4765 0
4764 -4754 4765 0
4764 4754 -4765 0
-4765 4752 4753 0
-4765 -4752 -4753 0
4765 -4752 4753 0
4765 4752 -4753 0
4766 -4767 -4774 -4776 0
4766 -4767 -4769 -4774 0
4766 -4767 -4769 -4776 0
-4766 4769 4774 0
-4766 4769 4776 0
-4766 4767 0
-4766 4774 4776 0
4767 -4757 4764 -4768 0
4767 4757 -4764 -4768 0
-4767 4768 0
-4767 -4757 -4764 0
-4767 4757 4764 0
-4768 4751 4755 0
-4768 -4751 -4755 0
4768 -4751 4755 0
4768 4751 -4755 0
-4769 4771 4772 0
-4769 4770 4773 0
-4769 4770 4772 0
-4769 4771 4773 0
4769 -4772 -4773 0
4769 -4770 -4771 0
-4770 3308 3309 0
-4770 -3308 -3309 0
4770 -3308 3309 0
4770 3308 -3309 0
-4771 3856 3857 0
-4771 -3856 -3857 0
4771 -3856 3857 0
4771 3856 -3857 0
-4772 4401 4634 0
-4772 -4401 -4634 0
4772 -4401 4634 0
4772 4401 -4634 0
-4773 4770 4771 0
-4773 -4770 -4771 0
4773 -4770 4771 0
4773 4770 -4771 0
-4774 4762 4775 0
-4774 -4762 -4775 0
4774 -4762 4775 0
4774 4762 -4775 0
-4775 4758 4760 0
-4775 -4758 -4760 0
4775 -4758 4760 0
4775 4758 -4760 0
4776 -4777 -4790 0
-4776 4777 0
-4776 4790 0
-4777 4778 4782 0
-4777 4782 4786 0
-4777 4778 4786 0
4777 -4778 -4786 0
4777 -4782 -4786 0
4777 -4778 -4782 0
-4778 3312 4779 0
-4778 -3312 -4779 0
4778 -3312 4779 0
4778 3312 -4779 0
-4779 3412 3342 0
-4779 3412 4780 0
4779 -3412 0
4779 -3342 -4780 0
-4780 3414 4781 0
-4780 3414 3363 0
4780 -3414 0
4780 -3363 -4781 0
-4781 3416 3488 0
-4781 3416 3484 0
4781 -3416 0
4781 -3484 -3488 0
-4782 3860 4783 0
-4782 -3860 -4783 0
4782 -3860 4783 0
4782 3860 -4783 0
-4783 3959 3888 0
-4783 3959 4784 0
4783 -3959 0
4783 -3888 -4784 0
-4784 3961 4785 0
-4784 3961 3910 0
4784 -3961 0
4784 -3910 -4785 0
-4785 3963 4035 0
-4785 3963 4031 0
4785 -3963 0
4785 -4031 -4035 0
-4786 4404 4787 0
-4786 -4404 -4787 0
4786 -4404 4787 0
4786 4404 -4787 0
-4787 4504 4432 0
-4787 4504 4788 0
4787 -4504 0
4787 -4432 -4788 0
-4788 4506 4789 0
-4788 4506 4454 0
4788 -4506 0
4788 -4454 -4789 0
-4789 4508 4579 0
-4789 4508 4575 0
4789 -4508 0
4789 -4575 -4579 0
-4790 4772 4773 0
-4790 -4772 -4773 0
4790 -4772 4773 0
4790 4772 -4773 0
4791 -4767 -4792 -4777 4790 0
4791 -4767 -4792 4777 -4790 0
-4791 4792 0
-4791 -4777 -4790 0
-4791 4767 0
-4791 4777 4790 0
-4792 4769 4774 0
-4792 -4769 -4774 0
4792 -4769 4774 0
4792 4769 -4774 0
-4793 4794 4831 0
-4793 4831 4872 0
-4793 4831 4937 0
4793 -4831 0
4793 -4794 -4872 -4937 0
4794 4795 -4805 -4810 -4820 0
4794 -4795 4805 -4810 -4820 0
-4794 4820 0
-4794 -4795 -4805 0
-4794 4810 0
-4794 4795 4805 0
-4795 4796 4799 0
-4795 4799 4802 0
-4795 4796 4802 0
4795 -4796 -4802 0
4795 -4799 -4802 0
4795 -4796 -4799 0
-4796 3455 4797 0
-4796 -3455 -4797 0
4796 -3455 4797 0
4796 3455 -4797 0
-4797 3438 3451 0
-4797 3451 4798 0
-4797 3438 4798 0
4797 -3451 -4798 0
4797 -3438 -3451 0
4797 -3438 -4798 0
-4798 3457 3488 0
-4798 3457 3485 0
4798 -3457 0
4798 -3485 -3488 0
-4799 4002 4800 0
-4799 -4002 -4800 0
4799 -4002 4800 0
4799 4002 -4800 0
-4800 3985 3998 0
-4800 3998 4801 0
-4800 3985 4801 0
4800 -3998 -4801 0
4800 -3985 -3998 0
4800 -3985 -4801 0
-4801 4004 4035 0
-4801 4004 4032 0
4801 -4004 0
4801 -4032 -4035 0
-4802 4546 4803 0
-4802 -4546 -4803 0
4802 -4546 4803 0
4802 4546 -4803 0
-4803 4528 4547 0
-4803 4528 4804 0
4803 -4528 0
4803 -4547 -4804 0
-4804 4548 4579 0
-4804 4548 4576 0
4804 -4548 0
4804 -4576 -4579 0
-4805 4806 4807 0
-4805 -4806 -4807 0
4805 -4806 4807 0
4805 4806 -4807 0
-4806 4478 4789 0
-4806 -4478 -4789 0
4806 -4478 4789 0
4806 4478 -4789 0
-4807 4808 4809 0
-4807 -4808 -4809 0
4807 -4808 4809 0
4807 4808 -4809 0
-4808 3387 4781 0
-4808 -3387 -4781 0
4808 -3387 4781 0
4808 3387 -4781 0
-4809 3934 4785 0
-4809 -3934 -4785 0
4809 -3934 4785 0
4809 3934 -4785 0
-4810 4811 4812 0
-4810 -4811 -4812 0
4810 -4811 4812 0
4810 4811 -4812 0
-4811 4808 4809 0
-4811 4809 4806 0
-4811 4808 4806 0
4811 -4808 -4806 0
4811 -4809 -4806 0
4811 -4808 -4809 0
-4812 4813 4815 0
-4812 -4813 -4815 0
4812 -4813 4815 0
4812 4813 -4815 0
-4813 4455 4814 0
-4813 -4455 -4814 0
4813 -4455 4814 0
4813 4455 -4814 0
-4814 4507 4478 0
-4814 4507 4789 0
4814 -4507 0
4814 -4478 -4789 0
-4815 4816 4818 0
-4815 -4816 -4818 0
4815 -4816 4818 0
4815 4816 -4818 0
-4816 3364 4817 0
-4816 -3364 -4817 0
4816 -3364 4817 0
4816 3364 -4817 0
-4817 3415 3387 0
-4817 3415 4781 0
4817 -3415 0
4817 -3387 -4781 0
-4818 3911 4819 0
-4818 -3911 -4819 0
4818 -3911 4819 0
4818 3911 -4819 0
-4819 3962 3934 0
-4819 3962 4785 0
4819 -3962 0
4819 -3934 -4785 0
4820 -4821 4822 -4827 0
4820 4821 -4822 -4827 0
-4820 4827 0
-4820 -4821 -4822 0
-4820 4821 4822 0
-4821 4816 4818 0
-4821 4818 4813 0
-4821 4816 4813 0
4821 -4816 -4813 0
4821 -4818 -4813 0
4821 -4816 -4818 0
-4822 4823 4824 0
-4822 -4823 -4824 0
4822 -4823 4824 0
4822 4823 -4824 0
-4823 4432 4788 0
-4823 -4432 -4788 0
4823 -4432 4788 0
4823 4432 -4788 0
-4824 4825 4826 0
-4824 -4825 -4826 0
4824 -4825 4826 0
4824 4825 -4826 0
-4825 3342 4780 0
-4825 -3342 -4780 0
4825 -3342 4780 0
4825 3342 -4780 0
-4826 3888 4784 0
-4826 -3888 -4784 0
4826 -3888 4784 0
4826 3888 -4784 0
-4827 4828 4829 0
-4827 -4828 -4829 0
4827 -4828 4829 0
4827 4828 -4829 0
-4828 4825 4826 0
-4828 4826 4823 0
-4828 4825 4823 0
4828 -4825 -4823 0
4828 -4826 -4823 0
4828 -4825 -4826 0
-4829 4786 4830 0
-4829 -4786 -4830 0
4829 -4786 4830 0
4829 4786 -4830 0
-4830 4778 4782 0
-4830 -4778 -4782 0
4830 -4778 4782 0
4830 4778 -4782 0
-4831 4832 4833 4834 0
-4831 4832 4820 4834 0
4831 -4832 0
4831 -4834 0
4831 -4833 -4820 0
-4832 4828 4829 0
-4832 4829 4822 0
-4832 4828 4822 0
-4832 4829 4821 0
-4832 4828 4821 0
4832 -4828 -4829 0
4832 -4828 -4821 -4822 0
4832 -4829 -4821 -4822 0
-4833 4811 4812 0
-4833 4812 4805 0
-4833 4811 4805 0
-4833 4812 4795 0
-4833 4811 4795 0
4833 -4811 -4812 0
4833 -4811 -4795 -4805 0
4833 -4812 -4795 -4805 0
4834 -4835 -4794 0
4834 -4851 -4853 -4794 0
-4834 4794 0
-4834 4835 4851 0
-4834 4835 4853 0
-4835 4836 4841 0
-4835 4841 4850 0
-4835 4836 4850 0
-4835 4841 4843 0
-4835 4836 4843 0
4835 -4836 -4841 0
4835 -4836 -4843 -4850 0
4835 -4841 -4843 -4850 0
-4836 4838 4839 0
-4836 4837 4840 0
-4836 4837 4839 0
-4836 4838 4840 0
4836 -4839 -4840 0
4836 -4837 -4838 0
-4837 3456 4798 0
-4837 -3456 -4798 0
4837 -3456 4798 0
4837 3456 -4798 0
-4838 4003 4801 0
-4838 -4003 -4801 0
4838 -4003 4801 0
4838 4003 -4801 0
-4839 4547 4804 0
-4839 -4547 -4804 0
4839 -4547 4804 0
4839 4547 -4804 0
-4840 4837 4838 0
-4840 -4837 -4838 0
4840 -4837 4838 0
4840 4837 -4838 0
-4841 4802 4842 0
-4841 -4802 -4842 0
4841 -4802 4842 0
4841 4802 -4842 0
-4842 4796 4799 0
-4842 -4796 -4799 0
4842 -4796 4799 0
4842 4796 -4799 0
-4843 4844 4846 0
-4843 4846 4848 0
-4843 4844 4848 0
4843 -4844 -4848 0
4843 -4846 -4848 0
4843 -4844 -4846 0
-4844 3486 4845 0
-4844 -3486 -4845 0
4844 -3486 4845 0
4844 3486 -4845 0
-4845 3471 3487 0
-4845 3471 3488 0
4845 -3471 0
4845 -3487 -3488 0
-4846 4033 4847 0
-4846 -4033 -4847 0
4846 -4033 4847 0
4846 4033 -4847 0
-4847 4018 4034 0
-4847 4018 4035 0
4847 -4018 0
4847 -4034 -4035 0
-4848 4577 4849 0
-4848 -4577 -4849 0
4848 -4577 4849 0
4848 4577 -4849 0
-4849 4562 4578 0
-4849 4562 4579 0
4849 -4562 0
4849 -4578 -4579 0
-4850 4839 4840 0
-4850 -4839 -4840 0
4850 -4839 4840 0
4850 4839 -4840 0
4851 -4852 4843 -4850 0
4851 -4852 -4843 4850 0
-4851 4852 0
-4851 4843 4850 0
-4851 -4843 -4850 0
-4852 4836 4841 0
-4852 -4836 -4841 0
4852 -4836 4841 0
4852 4836 -4841 0
-4853 4854 4858 0
-4853 4858 4870 0
-4853 4854 4870 0
-4853 4858 4860 0
-4853 4854 4860 0
4853 -4854 -4858 0
4853 -4854 -4860 -4870 0
4853 -4858 -4860 -4870 0
-4854 4855 4856 0
-4854 4856 4857 0
-4854 4855 4857 0
4854 -4855 -4857 0
4854 -4856 -4857 0
4854 -4855 -4856 0
-4855 3487 3488 0
-4855 -3487 -3488 0
4855 -3487 3488 0
4855 3487 -3488 0
-4856 4034 4035 0
-4856 -4034 -4035 0
4856 -4034 4035 0
4856 4034 -4035 0
-4857 4578 4579 0
-4857 -4578 -4579 0
4857 -4578 4579 0
4857 4578 -4579 0
-4858 4848 4859 0
-4858 -4848 -4859 0
4858 -4848 4859 0
4858 4848 -4859 0
-4859 4844 4846 0
-4859 -4844 -4846 0
4859 -4844 4846 0
4859 4844 -4846 0
-4860 4861 4864 0
-4860 4864 4867 0
-4860 4861 4867 0
4860 -4861 -4867 0
4860 -4864 -4867 0
4860 -4861 -4864 0
-4861 3490 4862 0
-4861 -3490 -4862 0
4861 -3490 4862 0
4861 3490 -4862 0
-4862 3503 3508 0
-4862 3508 4863 0
-4862 3503 4863 0
4862 -3508 -4863 0
4862 -3503 -3508 0
4862 -3503 -4863 0
-4863 3513 3533 0
-4863 3513 3530 0
4863 -3513 0
4863 -3530 -3533 0
-4864 4037 4865 0
-4864 -4037 -4865 0
4864 -4037 4865 0
4864 4037 -4865 0
-4865 4058 4049 0
-4865 4058 4866 0
4865 -4058 0
4865 -4049 -4866 0
-4866 4060 4079 0
-4866 4060 4077 0
4866 -4060 0
4866 -4077 -4079 0
-4867 4581 4868 0
-4867 -4581 -4868 0
4867 -4581 4868 0
4867 4581 -4868 0
-4868 4602 4593 0
-4868 4602 4869 0
4868 -4602 0
4868 -4593 -4869 0
-4869 4604 4624 0
-4869 4604 4621 0
4869 -4604 0
4869 -4621 -4624 0
-4870 4857 4871 0
-4870 -4857 -4871 0
4870 -4857 4871 0
4870 4857 -4871 0
-4871 4855 4856 0
-4871 -4855 -4856 0
4871 -4855 4856 0
4871 4855 -4856 0
-4872 4873 4889 4907 0
-4872 4873 4891 4907 0
4872 -4873 0
4872 -4907 0
4872 -4889 -4891 0
-4873 4874 4879 0
-4873 4879 4888 0
-4873 4874 4888 0
-4873 4879 4881 0
-4873 4874 4881 0
4873 -4874 -4879 0
4873 -4874 -4881 -4888 0
4873 -4879 -4881 -4888 0
-4874 4876 4877 0
-4874 4875 4878 0
-4874 4875 4877 0
-4874 4876 4878 0
4874 -4877 -4878 0
4874 -4875 -4876 0
-4875 3502 4863 0
-4875 -3502 -4863 0
4875 -3502 4863 0
4875 3502 -4863 0
-4876 4049 4866 0
-4876 -4049 -4866 0
4876 -4049 4866 0
4876 4049 -4866 0
-4877 4593 4869 0
-4877 -4593 -4869 0
4877 -4593 4869 0
4877 4593 -4869 0
-4878 4875 4876 0
-4878 -4875 -4876 0
4878 -4875 4876 0
4878 4875 -4876 0
-4879 4867 4880 0
-4879 -4867 -4880 0
4879 -4867 4880 0
4879 4867 -4880 0
-4880 4861 4864 0
-4880 -4861 -4864 0
4880 -4861 4864 0
4880 4861 -4864 0
-4881 4882 4884 0
-4881 4884 4886 0
-4881 4882 4886 0
4881 -4882 -4886 0
4881 -4884 -4886 0
4881 -4882 -4884 0
-4882 3531 4883 0
-4882 -3531 -4883 0
4882 -3531 4883 0
4882 3531 -4883 0
-4883 3520 3532 0
-4883 3520 3533 0
4883 -3520 0
4883 -3532 -3533 0
-4884 4076 4885 0
-4884 -4076 -4885 0
4884 -4076 4885 0
4884 4076 -4885 0
-4885 4067 4078 0
-4885 4067 4079 0
4885 -4067 0
4885 -4078 -4079 0
-4886 4622 4887 0
-4886 -4622 -4887 0
4886 -4622 4887 0
4886 4622 -4887 0
-4887 4611 4623 0
-4887 4611 4624 0
4887 -4611 0
4887 -4623 -4624 0
-4888 4877 4878 0
-4888 -4877 -4878 0
4888 -4877 4878 0
4888 4877 -4878 0
4889 -4881 4888 -4890 0
4889 4881 -4888 -4890 0
-4889 4890 0
-4889 -4881 -4888 0
-4889 4881 4888 0
-4890 4874 4879 0
-4890 -4874 -4879 0
4890 -4874 4879 0
4890 4874 -4879 0
-4891 4892 4897 0
-4891 4897 4906 0
-4891 4892 4906 0
-4891 4897 4899 0
-4891 4892 4899 0
4891 -4892 -4897 0
4891 -4892 -4899 -4906 0
4891 -4897 -4899 -4906 0
-4892 4894 4895 0
-4892 4893 4896 0
-4892 4893 4895 0
-4892 4894 4896 0
4892 -4895 -4896 0
4892 -4893 -4894 0
-4893 3532 3533 0
-4893 -3532 -3533 0
4893 -3532 3533 0
4893 3532 -3533 0
-4894 4078 4079 0
-4894 -4078 -4079 0
4894 -4078 4079 0
4894 4078 -4079 0
-4895 4623 4624 0
-4895 -4623 -4624 0
4895 -4623 4624 0
4895 4623 -4624 0
-4896 4893 4894 0
-4896 -4893 -4894 0
4896 -4893 4894 0
4896 4893 -4894 0
-4897 4886 4898 0
-4897 -4886 -4898 0
4897 -4886 4898 0
4897 4886 -4898 0
-4898 4882 4884 0
-4898 -4882 -4884 0
4898 -4882 4884 0
4898 4882 -4884 0
-4899 4900 4902 0
-4899 4902 4904 0
-4899 4900 4904 0
4899 -4900 -4904 0
4899 -4902 -4904 0
4899 -4900 -4902 0
-4900 3537 4901 0
-4900 -3537 -4901 0
4900 -3537 4901 0
4900 3537 -4901 0
-4901 3534 3539 0
-4901 3534 3540 0
4901 -3534 0
4901 -3539 -3540 0
-4902 4083 4903 0
-4902 -4083 -4903 0
4902 -4083 4903 0
4902 4083 -4903 0
-4903 4081 4086 0
-4903 4073 4086 0
-4903 4073 4081 0
4903 -4073 -4086 0
4903 -4073 -4081 0
4903 -4081 -4086 0
-4904 4628 4905 0
-4904 -4628 -4905 0
4904 -4628 4905 0
4904 4628 -4905 0
-4905 4625 4630 0
-4905 4625 4631 0
4905 -4625 0
4905 -4630 -4631 0
-4906 4895 4896 0
-4906 -4895 -4896 0
4906 -4895 4896 0
4906 4895 -4896 0
4907 -4889 -4908 -4932 0
4907 -4889 -4908 -4910 0
-4907 4889 0
-4907 4908 0
-4907 4910 4932 0
4908 -4909 4899 -4906 0
4908 -4909 -4899 4906 0
-4908 4909 0
-4908 4899 4906 0
-4908 -4899 -4906 0
-4909 4892 4897 0
-4909 -4892 -4897 0
4909 -4892 4897 0
4909 4892 -4897 0
-4910 4911 4915 0
-4910 4915 4930 0
-4910 4911 4930 0
-4910 4915 4917 0
-4910 4911 4917 0
4910 -4911 -4915 0
4910 -4911 -4917 -4930 0
4910 -4915 -4917 -4930 0
-4911 4912 4913 0
-4911 4913 4914 0
-4911 4912 4914 0
4911 -4912 -4914 0
4911 -4913 -4914 0
4911 -4912 -4913 0
-4912 3539 3540 0
-4912 -3539 -3540 0
4912 -3539 3540 0
4912 3539 -3540 0
-4913 4086 4087 0
-4913 -4086 -4087 0
4913 -4086 4087 0
4913 4086 -4087 0
-4914 4630 4631 0
-4914 -4630 -4631 0
4914 -4630 4631 0
4914 4630 -4631 0
-4915 4904 4916 0
-4915 -4904 -4916 0
4915 -4904 4916 0
4915 4904 -4916 0
-4916 4900 4902 0
-4916 -4900 -4902 0
4916 -4900 4902 0
4916 4900 -4902 0
-4917 4918 4922 0
-4917 4922 4926 0
-4917 4918 4926 0
4917 -4918 -4926 0
4917 -4922 -4926 0
4917 -4918 -4922 0
-4918 -4919 -4921 0
-4918 4919 4921 0
4918 4919 -4921 0
4918 -4919 4921 0
-4919 4958 4920 0
-4919 -4958 -4920 0
4919 -4958 4920 0
4919 4958 -4920 0
-4920 2754 3177 0
-4920 4955 2754 0
4920 -2754 0
4920 -4955 -3177 0
4921 -4958 2880 0
-4921 4958 0
-4921 -2880 0
-4922 -4923 -4925 0
-4922 4923 4925 0
4922 4923 -4925 0
4922 -4923 4925 0
-4923 4949 4924 0
-4923 -4949 -4924 0
4923 -4949 4924 0
4923 4949 -4924 0
-4924 1838 3725 0
-4924 5001 1838 0
4924 -1838 0
4924 -5001 -3725 0
4925 -4949 2879 0
-4925 4949 0
-4925 -2879 0
-4926 -4927 -4929 0
-4926 4927 4929 0
4926 4927 -4929 0
4926 -4927 4929 0
-4927 4974 4928 0
-4927 -4974 -4928 0
4927 -4974 4928 0
4927 4974 -4928 0
-4928 920 4272 0
-4928 4982 920 0
4928 -920 0
4928 -4982 -4272 0
4929 -4974 2989 0
-4929 4974 0
-4929 -2989 0
-4930 4914 4931 0
-4930 -4914 -4931 0
4930 -4914 4931 0
4930 4914 -4931 0
-4931 4912 4913 0
-4931 -4912 -4913 0
4931 -4912 4913 0
4931 4912 -4913 0
4932 -4933 4917 -4930 -4934 0
4932 -4933 -4917 4930 -4934 0
-4932 4934 0
-4932 4917 4930 0
-4932 4933 0
-4932 -4917 -4930 0
-4933 4911 4915 0
-4933 -4911 -4915 0
4933 -4911 4915 0
4933 4911 -4915 0
4934 -2879 -2989 -4935 0
4934 -2879 -2880 -4935 0
4934 -2880 -2989 -4935 0
-4934 2879 2989 0
-4934 2880 2989 0
-4934 4935 0
-4934 2879 2880 0
-4935 4926 4936 0
-4935 -4926 -4936 0
4935 -4926 4936 0
4935 4926 -4936 0
-4936 4918 4922 0
-4936 -4918 -4922 0
4936 -4918 4922 0
4936 4918 -4922 0
4937 -4851 -4860 4870 -4938 0
4937 -4851 4860 -4870 -4938 0
-4937 4938 0
-4937 4860 4870 0
-4937 4851 0
-4937 -4860 -4870 0
-4938 4854 4858 0
-4938 -4854 -4858 0
4938 -4854 4858 0
4938 4854 -4858 0
-5035 0
2 0
3317 0

