c Result of efficient AIG-to-CNF conversion using package CNF
p cnf 5527 23116
-2 3 3295 0
-2 -3 -3295 0
2 -3 3295 0
2 3 -3295 0
-3 4 3163 0
-3 -4 -3163 0
3 -4 3163 0
3 4 -3163 0
-4 5 1009 0
-4 -5 -1009 0
4 -5 1009 0
4 5 -1009 0
-5 6 287 0
-5 -6 -287 0
5 -6 287 0
5 6 -287 0
-6 -7 -225 0
-6 7 225 0
6 7 -225 0
6 -7 225 0
-7 -8 -170 0
-7 8 170 0
7 8 -170 0
7 -8 170 0
-8 9 126 0
-8 -9 -126 0
8 -9 126 0
8 9 -126 0
-9 10 125 0
-9 -10 -125 0
9 -10 125 0
9 10 -125 0
-10 11 89 0
-10 -11 -89 0
10 -11 89 0
10 11 -89 0
-11 12 71 0
-11 -12 -71 0
11 -12 71 0
11 12 -71 0
-12 -13 -44 0
-12 13 44 0
12 13 -44 0
12 -13 44 0
-13 14 32 0
-13 -14 -32 0
13 -14 32 0
13 14 -32 0
-14 15 16 0
-14 -15 -16 0
14 -15 16 0
14 15 -16 0
15 -5459 -5460 -5466 -5467 0
-15 5467 0
-15 5459 0
-15 5466 0
-15 5460 0
-16 17 27 0
-16 -17 -27 0
16 -17 27 0
16 17 -27 0
-17 18 23 0
-17 -18 -23 0
17 -18 23 0
17 18 -23 0
-18 -19 -22 0
-18 19 22 0
18 19 -22 0
18 -19 22 0
-19 -20 -21 0
-19 20 21 0
19 20 -21 0
19 -20 21 0
20 -5460 -5461 0
-20 5460 0
-20 5461 0
21 -5459 -5462 0
-21 5459 0
-21 5462 0
22 -5456 -5457 0
-22 5456 0
-22 5457 0
-23 24 26 0
-23 25 26 0
-23 24 25 0
23 -24 -25 0
23 -25 -26 0
23 -24 -26 0
24 -5459 -5461 0
-24 5459 0
-24 5461 0
25 -5457 -5462 0
-25 5457 0
-25 5462 0
26 -5456 -5502 0
-26 5456 0
-26 5502 0
-27 -28 -31 0
-27 28 31 0
27 28 -31 0
27 -28 31 0
-28 -29 -30 0
-28 29 30 0
28 29 -30 0
28 -29 30 0
29 -5471 -5502 0
-29 5471 0
-29 5502 0
30 -5451 -5455 0
-30 5451 0
-30 5455 0
31 -5480 -5503 0
-31 5480 0
-31 5503 0
-32 33 35 0
-32 35 39 0
-32 33 39 0
32 -33 -39 0
32 -35 -39 0
32 -33 -35 0
-33 26 34 0
-33 -26 -34 0
33 -26 34 0
33 26 -34 0
-34 -24 -25 0
-34 24 25 0
34 24 -25 0
34 -24 25 0
-35 36 38 0
-35 37 38 0
-35 36 37 0
35 -36 -37 0
35 -37 -38 0
35 -36 -38 0
36 -5457 -5461 0
-36 5457 0
-36 5461 0
37 -5462 -5502 0
-37 5462 0
-37 5502 0
38 -5455 -5456 0
-38 5455 0
-38 5456 0
-39 -40 -43 0
-39 40 43 0
39 40 -43 0
39 -40 43 0
-40 -41 -42 0
-40 41 42 0
40 41 -42 0
40 -41 42 0
41 -5455 -5471 0
-41 5455 0
-41 5471 0
42 -5451 -5480 0
-42 5451 0
-42 5480 0
43 -5448 -5503 0
-43 5448 0
-43 5503 0
44 -45 -47 0
-44 45 0
-44 47 0
-45 46 0
45 -46 0
46 5459 -5460 -5467 0
46 -5460 5466 -5467 0
-46 5467 0
-46 5460 0
-46 -5459 -5466 0
-47 48 59 0
-47 -48 -59 0
47 -48 59 0
47 48 -59 0
-48 49 57 0
-48 -49 -57 0
48 -49 57 0
48 49 -57 0
49 -50 -53 0
-49 50 0
-49 53 0
-50 -51 -52 0
-50 51 52 0
50 51 -52 0
50 -51 52 0
51 -5460 -5466 0
-51 5460 0
-51 5466 0
52 -5459 -5467 0
-52 5459 0
-52 5467 0
-53 54 56 0
-53 55 56 0
-53 54 55 0
53 -54 -55 0
53 -55 -56 0
53 -54 -56 0
54 -5460 -5465 0
-54 5460 0
-54 5465 0
55 -5459 -5466 0
-55 5459 0
-55 5466 0
56 -5457 -5467 0
-56 5457 0
-56 5467 0
-57 39 58 0
-57 -39 -58 0
57 -39 58 0
57 39 -58 0
-58 33 35 0
-58 -33 -35 0
58 -33 35 0
58 33 -35 0
-59 60 62 0
-59 62 66 0
-59 60 66 0
59 -60 -66 0
59 -62 -66 0
59 -60 -62 0
-60 38 61 0
-60 -38 -61 0
60 -38 61 0
60 38 -61 0
-61 -36 -37 0
-61 36 37 0
61 36 -37 0
61 -36 37 0
-62 63 65 0
-62 64 65 0
-62 63 64 0
62 -63 -64 0
62 -64 -65 0
62 -63 -65 0
63 -5461 -5502 0
-63 5461 0
-63 5502 0
64 -5455 -5462 0
-64 5455 0
-64 5462 0
65 -5456 -5480 0
-65 5456 0
-65 5480 0
-66 -67 -70 0
-66 67 70 0
66 67 -70 0
66 -67 70 0
-67 -68 -69 0
-67 68 69 0
67 68 -69 0
67 -68 69 0
68 -5471 -5480 0
-68 5471 0
-68 5480 0
69 -5448 -5451 0
-69 5448 0
-69 5451 0
70 -5452 -5503 0
-70 5452 0
-70 5503 0
-71 -72 -81 0
-71 72 81 0
71 72 -81 0
71 -72 81 0
-72 73 74 0
-72 -73 -74 0
72 -73 74 0
72 73 -74 0
-73 49 57 0
-73 57 59 0
-73 49 59 0
73 -57 -59 0
73 -49 -57 0
73 -49 -59 0
-74 -75 -78 0
-74 75 78 0
74 75 -78 0
74 -75 78 0
-75 -76 -77 0
-75 76 77 0
75 76 -77 0
75 -76 77 0
-76 41 43 0
-76 42 43 0
-76 41 42 0
76 -41 -42 0
76 -42 -43 0
76 -41 -43 0
77 -5448 -5474 0
-77 5448 0
-77 5474 0
78 -79 -80 0
-78 79 0
-78 80 0
79 -5452 -5474 0
-79 5452 0
-79 5474 0
-80 68 70 0
-80 69 70 0
-80 68 69 0
80 -68 -69 0
80 -69 -70 0
80 -68 -70 0
81 -82 -83 0
-81 82 0
-81 83 0
-82 79 80 0
-82 -79 -80 0
82 -79 80 0
82 79 -80 0
83 -84 -85 0
-83 84 0
-83 85 0
84 -5474 -5477 0
-84 5474 0
-84 5477 0
-85 86 88 0
-85 87 88 0
-85 86 87 0
85 -86 -87 0
85 -87 -88 0
85 -86 -88 0
86 -5448 -5471 0
-86 5448 0
-86 5471 0
87 -5451 -5452 0
-87 5451 0
-87 5452 0
88 -5477 -5503 0
-88 5477 0
-88 5503 0
-89 90 113 0
-89 90 91 0
-89 91 113 0
89 -91 -113 0
89 -90 -113 0
89 -90 -91 0
-90 45 47 0
-90 -45 -47 0
90 -45 47 0
90 45 -47 0
91 -92 -93 0
-91 92 0
-91 93 0
-92 50 53 0
-92 -50 -53 0
92 -50 53 0
92 50 -53 0
-93 94 104 0
-93 -94 -104 0
93 -94 104 0
93 94 -104 0
-94 95 102 0
-94 -95 -102 0
94 -95 102 0
94 95 -102 0
95 -96 -98 0
-95 96 0
-95 98 0
-96 56 97 0
-96 -56 -97 0
96 -56 97 0
96 56 -97 0
-97 -54 -55 0
-97 54 55 0
97 54 -55 0
97 -54 55 0
-98 99 101 0
-98 100 101 0
-98 99 100 0
98 -99 -100 0
98 -100 -101 0
98 -99 -101 0
99 -5459 -5465 0
-99 5459 0
-99 5465 0
100 -5457 -5466 0
-100 5457 0
-100 5466 0
101 -5467 -5502 0
-101 5467 0
-101 5502 0
-102 66 103 0
-102 -66 -103 0
102 -66 103 0
102 66 -103 0
-103 60 62 0
-103 -60 -62 0
103 -60 62 0
103 60 -62 0
-104 105 107 0
-104 107 111 0
-104 105 111 0
104 -105 -111 0
104 -107 -111 0
104 -105 -107 0
-105 65 106 0
-105 -65 -106 0
105 -65 106 0
105 65 -106 0
-106 -63 -64 0
-106 63 64 0
106 63 -64 0
106 -63 64 0
-107 108 110 0
-107 109 110 0
-107 108 109 0
107 -108 -109 0
107 -109 -110 0
107 -108 -110 0
108 -5455 -5461 0
-108 5455 0
-108 5461 0
109 -5462 -5480 0
-109 5462 0
-109 5480 0
110 -5448 -5456 0
-110 5448 0
-110 5456 0
-111 88 112 0
-111 -88 -112 0
111 -88 112 0
111 88 -112 0
-112 -86 -87 0
-112 86 87 0
112 86 -87 0
112 -86 87 0
-113 -114 -117 0
-113 114 117 0
113 114 -117 0
113 -114 117 0
-114 115 116 0
-114 -115 -116 0
114 -115 116 0
114 115 -116 0
-115 -82 -83 0
-115 82 83 0
115 82 -83 0
115 -82 83 0
-116 95 102 0
-116 102 104 0
-116 95 104 0
116 -102 -104 0
116 -95 -102 0
116 -95 -104 0
117 -118 -119 0
-117 118 0
-117 119 0
-118 84 85 0
-118 -84 -85 0
118 -84 85 0
118 84 -85 0
119 -120 -121 0
-119 120 0
-119 121 0
120 -5469 -5474 0
-120 5469 0
-120 5474 0
-121 122 124 0
-121 123 124 0
-121 122 123 0
121 -122 -123 0
121 -123 -124 0
121 -122 -124 0
122 -5452 -5471 0
-122 5452 0
-122 5471 0
123 -5451 -5477 0
-123 5451 0
-123 5477 0
124 -5469 -5503 0
-124 5469 0
-124 5503 0
-125 115 116 0
-125 116 117 0
-125 115 117 0
125 -116 -117 0
125 -115 -116 0
125 -115 -117 0
-126 127 129 0
-126 129 169 0
-126 127 169 0
126 -127 -169 0
126 -129 -169 0
126 -127 -129 0
-127 113 128 0
-127 -113 -128 0
127 -113 128 0
127 113 -128 0
-128 -90 -91 0
-128 90 91 0
128 90 -91 0
128 -90 91 0
-129 130 131 0
-129 131 157 0
-129 130 157 0
129 -130 -157 0
129 -131 -157 0
129 -130 -131 0
-130 92 93 0
-130 -92 -93 0
130 -92 93 0
130 92 -93 0
-131 132 143 0
-131 132 133 0
-131 133 143 0
131 -133 -143 0
131 -132 -143 0
131 -132 -133 0
-132 96 98 0
-132 -96 -98 0
132 -96 98 0
132 96 -98 0
133 -5460 -5464 -134 0
-133 5460 0
-133 5464 0
-133 134 0
-134 135 139 0
-134 -135 -139 0
134 -135 139 0
134 135 -139 0
-135 136 137 0
-135 -136 -137 0
135 -136 137 0
135 136 -137 0
136 -5459 -5460 -5463 -5464 0
-136 5464 0
-136 5459 0
-136 5463 0
-136 5460 0
-137 101 138 0
-137 -101 -138 0
137 -101 138 0
137 101 -138 0
-138 -99 -100 0
-138 99 100 0
138 99 -100 0
138 -99 100 0
-139 140 142 0
-139 141 142 0
-139 140 141 0
139 -140 -141 0
139 -141 -142 0
139 -140 -142 0
140 -5457 -5465 0
-140 5457 0
-140 5465 0
141 -5466 -5502 0
-141 5466 0
-141 5502 0
142 -5455 -5467 0
-142 5455 0
-142 5467 0
-143 144 148 0
-143 -144 -148 0
143 -144 148 0
143 144 -148 0
-144 145 146 0
-144 -145 -146 0
144 -145 146 0
144 145 -146 0
-145 136 137 0
-145 137 139 0
-145 136 139 0
145 -137 -139 0
145 -136 -137 0
145 -136 -139 0
-146 111 147 0
-146 -111 -147 0
146 -111 147 0
146 111 -147 0
-147 105 107 0
-147 -105 -107 0
147 -105 107 0
147 105 -107 0
-148 149 151 0
-148 151 155 0
-148 149 155 0
148 -149 -155 0
148 -151 -155 0
148 -149 -151 0
-149 110 150 0
-149 -110 -150 0
149 -110 150 0
149 110 -150 0
-150 -108 -109 0
-150 108 109 0
150 108 -109 0
150 -108 109 0
-151 152 154 0
-151 153 154 0
-151 152 153 0
151 -152 -153 0
151 -153 -154 0
151 -152 -154 0
152 -5461 -5480 0
-152 5461 0
-152 5480 0
153 -5448 -5462 0
-153 5448 0
-153 5462 0
154 -5452 -5456 0
-154 5452 0
-154 5456 0
-155 124 156 0
-155 -124 -156 0
155 -124 156 0
155 124 -156 0
-156 -122 -123 0
-156 122 123 0
156 122 -123 0
156 -122 123 0
-157 -158 -161 0
-157 158 161 0
157 158 -161 0
157 -158 161 0
-158 159 160 0
-158 -159 -160 0
158 -159 160 0
158 159 -160 0
-159 -118 -119 0
-159 118 119 0
159 118 -119 0
159 -118 119 0
-160 145 146 0
-160 146 148 0
-160 145 148 0
160 -145 -148 0
160 -146 -148 0
160 -145 -146 0
161 -162 -163 0
-161 162 0
-161 163 0
-162 120 121 0
-162 -120 -121 0
162 -120 121 0
162 120 -121 0
163 -164 -165 0
-163 164 0
-163 165 0
164 -5474 -5475 0
-164 5474 0
-164 5475 0
-165 166 168 0
-165 167 168 0
-165 166 167 0
165 -166 -167 0
165 -167 -168 0
165 -166 -168 0
166 -5471 -5477 0
-166 5471 0
-166 5477 0
167 -5451 -5469 0
-167 5451 0
-167 5469 0
168 -5475 -5503 0
-168 5475 0
-168 5503 0
-169 159 160 0
-169 160 161 0
-169 159 161 0
169 -160 -161 0
169 -159 -160 0
169 -159 -161 0
170 -171 -173 0
-170 171 0
-170 173 0
-171 169 172 0
-171 -169 -172 0
171 -169 172 0
171 169 -172 0
-172 127 129 0
-172 -127 -129 0
172 -127 129 0
172 127 -129 0
-173 174 176 0
-173 176 224 0
-173 174 224 0
173 -174 -224 0
173 -176 -224 0
173 -174 -176 0
-174 157 175 0
-174 -157 -175 0
174 -157 175 0
174 157 -175 0
-175 130 131 0
-175 -130 -131 0
175 -130 131 0
175 130 -131 0
-176 177 179 0
-176 179 212 0
-176 177 212 0
176 -177 -212 0
176 -179 -212 0
176 -177 -179 0
-177 143 178 0
-177 -143 -178 0
177 -143 178 0
177 143 -178 0
-178 -132 -133 0
-178 132 133 0
178 132 -133 0
178 -132 133 0
-179 180 198 0
-179 180 182 0
-179 182 198 0
179 -182 -198 0
179 -180 -198 0
179 -180 -182 0
-180 181 134 0
-180 -181 -134 0
180 -181 134 0
180 181 -134 0
181 -5460 -5464 0
-181 5460 0
-181 5464 0
182 -183 -186 0
-182 183 0
-182 186 0
-183 -184 -185 0
-183 184 185 0
183 184 -185 0
183 -184 185 0
184 -5460 -5463 0
-184 5460 0
-184 5463 0
185 -5459 -5464 0
-185 5459 0
-185 5464 0
-186 187 194 0
-186 -187 -194 0
186 -187 194 0
186 187 -194 0
-187 188 192 0
-187 -188 -192 0
187 -188 192 0
187 188 -192 0
-188 189 191 0
-188 190 191 0
-188 189 190 0
188 -189 -190 0
188 -190 -191 0
188 -189 -191 0
189 -5453 -5460 0
-189 5453 0
-189 5460 0
190 -5459 -5463 0
-190 5459 0
-190 5463 0
191 -5457 -5464 0
-191 5457 0
-191 5464 0
-192 142 193 0
-192 -142 -193 0
192 -142 193 0
192 142 -193 0
-193 -140 -141 0
-193 140 141 0
193 140 -141 0
193 -140 141 0
-194 195 197 0
-194 196 197 0
-194 195 196 0
194 -195 -196 0
194 -196 -197 0
194 -195 -197 0
195 -5465 -5502 0
-195 5465 0
-195 5502 0
196 -5455 -5466 0
-196 5455 0
-196 5466 0
197 -5467 -5480 0
-197 5467 0
-197 5480 0
-198 199 203 0
-198 -199 -203 0
198 -199 203 0
198 199 -203 0
-199 200 201 0
-199 -200 -201 0
199 -200 201 0
199 200 -201 0
-200 188 192 0
-200 192 194 0
-200 188 194 0
200 -188 -194 0
200 -192 -194 0
200 -188 -192 0
-201 155 202 0
-201 -155 -202 0
201 -155 202 0
201 155 -202 0
-202 149 151 0
-202 -149 -151 0
202 -149 151 0
202 149 -151 0
-203 204 206 0
-203 206 210 0
-203 204 210 0
203 -204 -210 0
203 -206 -210 0
203 -204 -206 0
-204 154 205 0
-204 -154 -205 0
204 -154 205 0
204 154 -205 0
-205 -152 -153 0
-205 152 153 0
205 152 -153 0
205 -152 153 0
-206 207 209 0
-206 208 209 0
-206 207 208 0
206 -207 -208 0
206 -208 -209 0
206 -207 -209 0
207 -5448 -5461 0
-207 5448 0
-207 5461 0
208 -5452 -5462 0
-208 5452 0
-208 5462 0
209 -5456 -5477 0
-209 5456 0
-209 5477 0
-210 168 211 0
-210 -168 -211 0
210 -168 211 0
210 168 -211 0
-211 -166 -167 0
-211 166 167 0
211 166 -167 0
211 -166 167 0
-212 -213 -216 0
-212 213 216 0
212 213 -216 0
212 -213 216 0
-213 214 215 0
-213 -214 -215 0
213 -214 215 0
213 214 -215 0
-214 -162 -163 0
-214 162 163 0
214 162 -163 0
214 -162 163 0
-215 200 201 0
-215 201 203 0
-215 200 203 0
215 -200 -203 0
215 -201 -203 0
215 -200 -201 0
216 -217 -218 0
-216 217 0
-216 218 0
-217 164 165 0
-217 -164 -165 0
217 -164 165 0
217 164 -165 0
218 -219 -220 0
-218 219 0
-218 220 0
219 -5472 -5474 0
-219 5472 0
-219 5474 0
-220 221 223 0
-220 222 223 0
-220 221 222 0
220 -221 -222 0
220 -222 -223 0
220 -221 -223 0
221 -5469 -5471 0
-221 5469 0
-221 5471 0
222 -5451 -5475 0
-222 5451 0
-222 5475 0
223 -5472 -5503 0
-223 5472 0
-223 5503 0
-224 214 215 0
-224 215 216 0
-224 214 216 0
224 -215 -216 0
224 -214 -215 0
224 -214 -216 0
225 -226 -227 0
-225 226 0
-225 227 0
-226 171 173 0
-226 -171 -173 0
226 -171 173 0
226 171 -173 0
227 -228 -230 0
-227 228 0
-227 230 0
-228 224 229 0
-228 -224 -229 0
228 -224 229 0
228 224 -229 0
-229 174 176 0
-229 -174 -176 0
229 -174 176 0
229 174 -176 0
-230 231 233 0
-230 233 286 0
-230 231 286 0
230 -231 -286 0
230 -233 -286 0
230 -231 -233 0
-231 212 232 0
-231 -212 -232 0
231 -212 232 0
231 212 -232 0
-232 177 179 0
-232 -177 -179 0
232 -177 179 0
232 177 -179 0
-233 234 236 0
-233 236 274 0
-233 234 274 0
233 -234 -274 0
233 -236 -274 0
233 -234 -236 0
-234 198 235 0
-234 -198 -235 0
234 -198 235 0
234 198 -235 0
-235 -180 -182 0
-235 180 182 0
235 180 -182 0
235 -180 182 0
-236 237 238 0
-236 238 260 0
-236 237 260 0
236 -237 -260 0
236 -238 -260 0
236 -237 -238 0
-237 183 186 0
-237 -183 -186 0
237 -183 186 0
237 183 -186 0
-238 239 241 0
-238 241 251 0
-238 239 251 0
238 -239 -251 0
238 -241 -251 0
238 -239 -241 0
-239 -240 -191 0
-239 240 191 0
239 240 -191 0
239 -240 191 0
-240 -189 -190 0
-240 189 190 0
240 189 -190 0
240 -189 190 0
-241 242 249 0
-241 243 244 0
-241 243 249 0
-241 242 244 0
241 -242 -243 0
241 -244 -249 0
242 -5460 -5506 0
-242 5460 0
-242 5506 0
243 -5454 -5459 -5460 -5506 0
-243 5506 0
-243 5454 0
-243 5460 0
-243 5459 0
-244 -245 -248 0
-244 245 248 0
244 245 -248 0
244 -245 248 0
-245 -246 -247 0
-245 246 247 0
245 246 -247 0
245 -246 247 0
246 -5453 -5459 0
-246 5453 0
-246 5459 0
247 -5457 -5463 0
-247 5457 0
-247 5463 0
248 -5464 -5502 0
-248 5464 0
-248 5502 0
-249 250 0
249 -250 0
250 5454 -5460 -5506 0
250 5459 -5460 -5506 0
-250 5506 0
-250 5460 0
-250 -5454 -5459 0
-251 252 256 0
-251 -252 -256 0
251 -252 256 0
251 252 -256 0
-252 253 254 0
-252 -253 -254 0
252 -253 254 0
252 253 -254 0
-253 246 248 0
-253 247 248 0
-253 246 247 0
253 -246 -247 0
253 -247 -248 0
253 -246 -248 0
-254 197 255 0
-254 -197 -255 0
254 -197 255 0
254 197 -255 0
-255 -195 -196 0
-255 195 196 0
255 195 -196 0
255 -195 196 0
-256 257 259 0
-256 258 259 0
-256 257 258 0
256 -257 -258 0
256 -258 -259 0
256 -257 -259 0
257 -5455 -5465 0
-257 5455 0
-257 5465 0
258 -5466 -5480 0
-258 5466 0
-258 5480 0
259 -5448 -5467 0
-259 5448 0
-259 5467 0
-260 261 265 0
-260 -261 -265 0
260 -261 265 0
260 261 -265 0
-261 262 263 0
-261 -262 -263 0
261 -262 263 0
261 262 -263 0
-262 253 254 0
-262 254 256 0
-262 253 256 0
262 -253 -256 0
262 -254 -256 0
262 -253 -254 0
-263 210 264 0
-263 -210 -264 0
263 -210 264 0
263 210 -264 0
-264 204 206 0
-264 -204 -206 0
264 -204 206 0
264 204 -206 0
-265 266 268 0
-265 268 272 0
-265 266 272 0
265 -266 -272 0
265 -268 -272 0
265 -266 -268 0
-266 209 267 0
-266 -209 -267 0
266 -209 267 0
266 209 -267 0
-267 -207 -208 0
-267 207 208 0
267 207 -208 0
267 -207 208 0
-268 269 271 0
-268 270 271 0
-268 269 270 0
268 -269 -270 0
268 -270 -271 0
268 -269 -271 0
269 -5452 -5461 0
-269 5452 0
-269 5461 0
270 -5462 -5477 0
-270 5462 0
-270 5477 0
271 -5456 -5469 0
-271 5456 0
-271 5469 0
-272 223 273 0
-272 -223 -273 0
272 -223 273 0
272 223 -273 0
-273 -221 -222 0
-273 221 222 0
273 221 -222 0
273 -221 222 0
-274 -275 -278 0
-274 275 278 0
274 275 -278 0
274 -275 278 0
-275 276 277 0
-275 -276 -277 0
275 -276 277 0
275 276 -277 0
-276 -217 -218 0
-276 217 218 0
276 217 -218 0
276 -217 218 0
-277 262 263 0
-277 263 265 0
-277 262 265 0
277 -262 -265 0
277 -263 -265 0
277 -262 -263 0
278 -279 -280 0
-278 279 0
-278 280 0
-279 219 220 0
-279 -219 -220 0
279 -219 220 0
279 219 -220 0
280 -281 -282 0
-280 281 0
-280 282 0
281 -5458 -5474 0
-281 5458 0
-281 5474 0
-282 283 285 0
-282 284 285 0
-282 283 284 0
282 -283 -284 0
282 -284 -285 0
282 -283 -285 0
283 -5471 -5475 0
-283 5471 0
-283 5475 0
284 -5451 -5472 0
-284 5451 0
-284 5472 0
285 -5458 -5503 0
-285 5458 0
-285 5503 0
-286 276 277 0
-286 277 278 0
-286 276 278 0
286 -277 -278 0
286 -276 -277 0
286 -276 -278 0
-287 288 550 0
-287 550 769 0
-287 550 773 0
287 -550 0
287 -288 -769 -773 0
288 -289 -424 0
-288 289 0
-288 424 0
289 -290 -357 0
-289 290 0
-289 357 0
-290 -291 -292 0
-290 291 292 0
290 291 -292 0
290 -291 292 0
-291 -226 -227 0
-291 226 227 0
291 226 -227 0
291 -226 227 0
292 -293 -294 0
-292 293 0
-292 294 0
-293 228 230 0
-293 -228 -230 0
293 -228 230 0
293 228 -230 0
294 -295 -297 0
-294 295 0
-294 297 0
-295 286 296 0
-295 -286 -296 0
295 -286 296 0
295 286 -296 0
-296 231 233 0
-296 -231 -233 0
296 -231 233 0
296 231 -233 0
-297 298 300 0
-297 300 356 0
-297 298 356 0
297 -298 -356 0
297 -300 -356 0
297 -298 -300 0
-298 274 299 0
-298 -274 -299 0
298 -274 299 0
298 274 -299 0
-299 234 236 0
-299 -234 -236 0
299 -234 236 0
299 234 -236 0
-300 301 303 0
-300 303 344 0
-300 301 344 0
300 -301 -344 0
300 -303 -344 0
300 -301 -303 0
-301 260 302 0
-301 -260 -302 0
301 -260 302 0
301 260 -302 0
-302 237 238 0
-302 -237 -238 0
302 -237 238 0
302 237 -238 0
-303 304 306 0
-303 306 330 0
-303 304 330 0
303 -304 -330 0
303 -306 -330 0
303 -304 -306 0
-304 251 305 0
-304 -251 -305 0
304 -251 305 0
304 251 -305 0
-305 239 241 0
-305 -239 -241 0
305 -239 241 0
305 239 -241 0
-306 307 308 0
-306 308 321 0
-306 307 321 0
306 -307 -321 0
306 -308 -321 0
306 -307 -308 0
-307 244 249 0
-307 -244 -249 0
307 -244 249 0
307 244 -249 0
-308 309 312 0
-308 312 316 0
-308 309 316 0
308 -309 -316 0
308 -312 -316 0
308 -309 -312 0
-309 -310 -311 0
-309 310 311 0
309 310 -311 0
309 -310 311 0
310 -5454 -5460 0
-310 5454 0
-310 5460 0
311 -5459 -5506 0
-311 5459 0
-311 5506 0
-312 313 315 0
-312 314 315 0
-312 313 314 0
312 -313 -314 0
312 -314 -315 0
312 -313 -315 0
313 -5460 -5509 0
-313 5460 0
-313 5509 0
314 -5454 -5459 0
-314 5454 0
-314 5459 0
315 -5457 -5506 0
-315 5457 0
-315 5506 0
-316 -317 -320 0
-316 317 320 0
316 317 -320 0
316 -317 320 0
-317 -318 -319 0
-317 318 319 0
317 318 -319 0
317 -318 319 0
318 -5453 -5457 0
-318 5453 0
-318 5457 0
319 -5463 -5502 0
-319 5463 0
-319 5502 0
320 -5455 -5464 0
-320 5455 0
-320 5464 0
-321 322 326 0
-321 -322 -326 0
321 -322 326 0
321 322 -326 0
-322 323 324 0
-322 -323 -324 0
322 -323 324 0
322 323 -324 0
-323 318 320 0
-323 319 320 0
-323 318 319 0
323 -318 -319 0
323 -319 -320 0
323 -318 -320 0
-324 259 325 0
-324 -259 -325 0
324 -259 325 0
324 259 -325 0
-325 -257 -258 0
-325 257 258 0
325 257 -258 0
325 -257 258 0
-326 327 329 0
-326 328 329 0
-326 327 328 0
326 -327 -328 0
326 -328 -329 0
326 -327 -329 0
327 -5465 -5480 0
-327 5465 0
-327 5480 0
328 -5448 -5466 0
-328 5448 0
-328 5466 0
329 -5452 -5467 0
-329 5452 0
-329 5467 0
-330 331 335 0
-330 -331 -335 0
330 -331 335 0
330 331 -335 0
-331 332 333 0
-331 -332 -333 0
331 -332 333 0
331 332 -333 0
-332 323 324 0
-332 324 326 0
-332 323 326 0
332 -323 -326 0
332 -324 -326 0
332 -323 -324 0
-333 272 334 0
-333 -272 -334 0
333 -272 334 0
333 272 -334 0
-334 266 268 0
-334 -266 -268 0
334 -266 268 0
334 266 -268 0
-335 336 338 0
-335 338 342 0
-335 336 342 0
335 -336 -342 0
335 -338 -342 0
335 -336 -338 0
-336 271 337 0
-336 -271 -337 0
336 -271 337 0
336 271 -337 0
-337 -269 -270 0
-337 269 270 0
337 269 -270 0
337 -269 270 0
-338 339 341 0
-338 340 341 0
-338 339 340 0
338 -339 -340 0
338 -340 -341 0
338 -339 -341 0
339 -5461 -5477 0
-339 5461 0
-339 5477 0
340 -5462 -5469 0
-340 5462 0
-340 5469 0
341 -5456 -5475 0
-341 5456 0
-341 5475 0
-342 285 343 0
-342 -285 -343 0
342 -285 343 0
342 285 -343 0
-343 -283 -284 0
-343 283 284 0
343 283 -284 0
343 -283 284 0
-344 -345 -348 0
-344 345 348 0
344 345 -348 0
344 -345 348 0
-345 346 347 0
-345 -346 -347 0
345 -346 347 0
345 346 -347 0
-346 -279 -280 0
-346 279 280 0
346 279 -280 0
346 -279 280 0
-347 332 333 0
-347 333 335 0
-347 332 335 0
347 -332 -335 0
347 -333 -335 0
347 -332 -333 0
348 -349 -350 0
-348 349 0
-348 350 0
-349 281 282 0
-349 -281 -282 0
349 -281 282 0
349 281 -282 0
350 -351 -352 0
-350 351 0
-350 352 0
351 -5444 -5474 0
-351 5444 0
-351 5474 0
-352 353 355 0
-352 354 355 0
-352 353 354 0
352 -353 -354 0
352 -354 -355 0
352 -353 -355 0
353 -5471 -5472 0
-353 5471 0
-353 5472 0
354 -5451 -5458 0
-354 5451 0
-354 5458 0
355 -5444 -5503 0
-355 5444 0
-355 5503 0
-356 346 347 0
-356 347 348 0
-356 346 348 0
356 -347 -348 0
356 -346 -347 0
356 -346 -348 0
-357 -358 -359 0
-357 358 359 0
357 358 -359 0
357 -358 359 0
-358 -293 -294 0
-358 293 294 0
358 293 -294 0
358 -293 294 0
359 -360 -361 0
-359 360 0
-359 361 0
-360 295 297 0
-360 -295 -297 0
360 -295 297 0
360 295 -297 0
361 -362 -364 0
-361 362 0
-361 364 0
-362 356 363 0
-362 -356 -363 0
362 -356 363 0
362 356 -363 0
-363 298 300 0
-363 -298 -300 0
363 -298 300 0
363 298 -300 0
-364 365 367 0
-364 367 423 0
-364 365 423 0
364 -365 -423 0
364 -367 -423 0
364 -365 -367 0
-365 344 366 0
-365 -344 -366 0
365 -344 366 0
365 344 -366 0
-366 301 303 0
-366 -301 -303 0
366 -301 303 0
366 301 -303 0
-367 368 370 0
-367 370 411 0
-367 368 411 0
367 -368 -411 0
367 -370 -411 0
367 -368 -370 0
-368 330 369 0
-368 -330 -369 0
368 -330 369 0
368 330 -369 0
-369 304 306 0
-369 -304 -306 0
369 -304 306 0
369 304 -306 0
-370 371 373 0
-370 373 397 0
-370 371 397 0
370 -371 -397 0
370 -373 -397 0
370 -371 -373 0
-371 321 372 0
-371 -321 -372 0
371 -321 372 0
371 321 -372 0
-372 307 308 0
-372 -307 -308 0
372 -307 308 0
372 307 -308 0
-373 374 376 0
-373 376 388 0
-373 374 388 0
373 -374 -388 0
373 -376 -388 0
373 -374 -376 0
-374 316 375 0
-374 -316 -375 0
374 -316 375 0
374 316 -375 0
-375 309 312 0
-375 -309 -312 0
375 -309 312 0
375 309 -312 0
-376 377 379 0
-376 379 383 0
-376 377 383 0
376 -377 -383 0
376 -379 -383 0
376 -377 -379 0
-377 315 378 0
-377 -315 -378 0
377 -315 378 0
377 315 -378 0
-378 -313 -314 0
-378 313 314 0
378 313 -314 0
378 -313 314 0
-379 380 382 0
-379 381 382 0
-379 380 381 0
379 -380 -381 0
379 -381 -382 0
379 -380 -382 0
380 -5459 -5509 0
-380 5459 0
-380 5509 0
381 -5454 -5457 0
-381 5454 0
-381 5457 0
382 -5502 -5506 0
-382 5502 0
-382 5506 0
-383 -384 -387 0
-383 384 387 0
383 384 -387 0
383 -384 387 0
-384 -385 -386 0
-384 385 386 0
384 385 -386 0
384 -385 386 0
385 -5453 -5502 0
-385 5453 0
-385 5502 0
386 -5455 -5463 0
-386 5455 0
-386 5463 0
387 -5464 -5480 0
-387 5464 0
-387 5480 0
-388 389 393 0
-388 -389 -393 0
388 -389 393 0
388 389 -393 0
-389 390 391 0
-389 -390 -391 0
389 -390 391 0
389 390 -391 0
-390 385 387 0
-390 386 387 0
-390 385 386 0
390 -385 -386 0
390 -386 -387 0
390 -385 -387 0
-391 329 392 0
-391 -329 -392 0
391 -329 392 0
391 329 -392 0
-392 -327 -328 0
-392 327 328 0
392 327 -328 0
392 -327 328 0
-393 394 396 0
-393 395 396 0
-393 394 395 0
393 -394 -395 0
393 -395 -396 0
393 -394 -396 0
394 -5448 -5465 0
-394 5448 0
-394 5465 0
395 -5452 -5466 0
-395 5452 0
-395 5466 0
396 -5467 -5477 0
-396 5467 0
-396 5477 0
-397 398 402 0
-397 -398 -402 0
397 -398 402 0
397 398 -402 0
-398 399 400 0
-398 -399 -400 0
398 -399 400 0
398 399 -400 0
-399 390 391 0
-399 391 393 0
-399 390 393 0
399 -390 -393 0
399 -391 -393 0
399 -390 -391 0
-400 342 401 0
-400 -342 -401 0
400 -342 401 0
400 342 -401 0
-401 336 338 0
-401 -336 -338 0
401 -336 338 0
401 336 -338 0
-402 403 405 0
-402 405 409 0
-402 403 409 0
402 -403 -409 0
402 -405 -409 0
402 -403 -405 0
-403 341 404 0
-403 -341 -404 0
403 -341 404 0
403 341 -404 0
-404 -339 -340 0
-404 339 340 0
404 339 -340 0
404 -339 340 0
-405 406 408 0
-405 407 408 0
-405 406 407 0
405 -406 -407 0
405 -407 -408 0
405 -406 -408 0
406 -5461 -5469 0
-406 5461 0
-406 5469 0
407 -5462 -5475 0
-407 5462 0
-407 5475 0
408 -5456 -5472 0
-408 5456 0
-408 5472 0
-409 355 410 0
-409 -355 -410 0
409 -355 410 0
409 355 -410 0
-410 -353 -354 0
-410 353 354 0
410 353 -354 0
410 -353 354 0
-411 -412 -415 0
-411 412 415 0
411 412 -415 0
411 -412 415 0
-412 413 414 0
-412 -413 -414 0
412 -413 414 0
412 413 -414 0
-413 -349 -350 0
-413 349 350 0
413 349 -350 0
413 -349 350 0
-414 399 400 0
-414 400 402 0
-414 399 402 0
414 -399 -402 0
414 -400 -402 0
414 -399 -400 0
415 -416 -417 0
-415 416 0
-415 417 0
-416 351 352 0
-416 -351 -352 0
416 -351 352 0
416 351 -352 0
417 -418 -419 0
-417 418 0
-417 419 0
418 -5473 -5474 0
-418 5473 0
-418 5474 0
-419 420 422 0
-419 421 422 0
-419 420 421 0
419 -420 -421 0
419 -421 -422 0
419 -420 -422 0
420 -5458 -5471 0
-420 5458 0
-420 5471 0
421 -5444 -5451 0
-421 5444 0
-421 5451 0
422 -5473 -5503 0
-422 5473 0
-422 5503 0
-423 413 414 0
-423 414 415 0
-423 413 415 0
423 -414 -415 0
423 -413 -414 0
423 -413 -415 0
424 -425 -492 0
-424 425 0
-424 492 0
-425 -426 -427 0
-425 426 427 0
425 426 -427 0
425 -426 427 0
-426 -360 -361 0
-426 360 361 0
426 360 -361 0
426 -360 361 0
427 -428 -429 0
-427 428 0
-427 429 0
-428 362 364 0
-428 -362 -364 0
428 -362 364 0
428 362 -364 0
429 -430 -432 0
-429 430 0
-429 432 0
-430 423 431 0
-430 -423 -431 0
430 -423 431 0
430 423 -431 0
-431 365 367 0
-431 -365 -367 0
431 -365 367 0
431 365 -367 0
-432 433 435 0
-432 435 491 0
-432 433 491 0
432 -433 -491 0
432 -435 -491 0
432 -433 -435 0
-433 411 434 0
-433 -411 -434 0
433 -411 434 0
433 411 -434 0
-434 368 370 0
-434 -368 -370 0
434 -368 370 0
434 368 -370 0
-435 436 438 0
-435 438 479 0
-435 436 479 0
435 -436 -479 0
435 -438 -479 0
435 -436 -438 0
-436 397 437 0
-436 -397 -437 0
436 -397 437 0
436 397 -437 0
-437 371 373 0
-437 -371 -373 0
437 -371 373 0
437 371 -373 0
-438 439 441 0
-438 441 465 0
-438 439 465 0
438 -439 -465 0
438 -441 -465 0
438 -439 -441 0
-439 388 440 0
-439 -388 -440 0
439 -388 440 0
439 388 -440 0
-440 374 376 0
-440 -374 -376 0
440 -374 376 0
440 374 -376 0
-441 442 444 0
-441 444 456 0
-441 442 456 0
441 -442 -456 0
441 -444 -456 0
441 -442 -444 0
-442 383 443 0
-442 -383 -443 0
442 -383 443 0
442 383 -443 0
-443 377 379 0
-443 -377 -379 0
443 -377 379 0
443 377 -379 0
-444 445 447 0
-444 447 451 0
-444 445 451 0
444 -445 -451 0
444 -447 -451 0
444 -445 -447 0
-445 382 446 0
-445 -382 -446 0
445 -382 446 0
445 382 -446 0
-446 -380 -381 0
-446 380 381 0
446 380 -381 0
446 -380 381 0
-447 448 450 0
-447 449 450 0
-447 448 449 0
447 -448 -449 0
447 -449 -450 0
447 -448 -450 0
448 -5457 -5509 0
-448 5457 0
-448 5509 0
449 -5454 -5502 0
-449 5454 0
-449 5502 0
450 -5455 -5506 0
-450 5455 0
-450 5506 0
-451 -452 -455 0
-451 452 455 0
451 452 -455 0
451 -452 455 0
-452 -453 -454 0
-452 453 454 0
452 453 -454 0
452 -453 454 0
453 -5453 -5455 0
-453 5453 0
-453 5455 0
454 -5463 -5480 0
-454 5463 0
-454 5480 0
455 -5448 -5464 0
-455 5448 0
-455 5464 0
-456 457 461 0
-456 -457 -461 0
456 -457 461 0
456 457 -461 0
-457 458 459 0
-457 -458 -459 0
457 -458 459 0
457 458 -459 0
-458 453 455 0
-458 454 455 0
-458 453 454 0
458 -453 -454 0
458 -454 -455 0
458 -453 -455 0
-459 396 460 0
-459 -396 -460 0
459 -396 460 0
459 396 -460 0
-460 -394 -395 0
-460 394 395 0
460 394 -395 0
460 -394 395 0
-461 462 464 0
-461 463 464 0
-461 462 463 0
461 -462 -463 0
461 -463 -464 0
461 -462 -464 0
462 -5452 -5465 0
-462 5452 0
-462 5465 0
463 -5466 -5477 0
-463 5466 0
-463 5477 0
464 -5467 -5469 0
-464 5467 0
-464 5469 0
-465 466 470 0
-465 -466 -470 0
465 -466 470 0
465 466 -470 0
-466 467 468 0
-466 -467 -468 0
466 -467 468 0
466 467 -468 0
-467 458 459 0
-467 459 461 0
-467 458 461 0
467 -458 -461 0
467 -459 -461 0
467 -458 -459 0
-468 409 469 0
-468 -409 -469 0
468 -409 469 0
468 409 -469 0
-469 403 405 0
-469 -403 -405 0
469 -403 405 0
469 403 -405 0
-470 471 473 0
-470 473 477 0
-470 471 477 0
470 -471 -477 0
470 -473 -477 0
470 -471 -473 0
-471 408 472 0
-471 -408 -472 0
471 -408 472 0
471 408 -472 0
-472 -406 -407 0
-472 406 407 0
472 406 -407 0
472 -406 407 0
-473 474 476 0
-473 475 476 0
-473 474 475 0
473 -474 -475 0
473 -475 -476 0
473 -474 -476 0
474 -5461 -5475 0
-474 5461 0
-474 5475 0
475 -5462 -5472 0
-475 5462 0
-475 5472 0
476 -5456 -5458 0
-476 5456 0
-476 5458 0
-477 422 478 0
-477 -422 -478 0
477 -422 478 0
477 422 -478 0
-478 -420 -421 0
-478 420 421 0
478 420 -421 0
478 -420 421 0
-479 -480 -483 0
-479 480 483 0
479 480 -483 0
479 -480 483 0
-480 481 482 0
-480 -481 -482 0
480 -481 482 0
480 481 -482 0
-481 -416 -417 0
-481 416 417 0
481 416 -417 0
481 -416 417 0
-482 467 468 0
-482 468 470 0
-482 467 470 0
482 -467 -470 0
482 -468 -470 0
482 -467 -468 0
483 -484 -485 0
-483 484 0
-483 485 0
-484 418 419 0
-484 -418 -419 0
484 -418 419 0
484 418 -419 0
485 -486 -487 0
-485 486 0
-485 487 0
486 -5445 -5474 0
-486 5445 0
-486 5474 0
-487 488 490 0
-487 489 490 0
-487 488 489 0
487 -488 -489 0
487 -489 -490 0
487 -488 -490 0
488 -5444 -5471 0
-488 5444 0
-488 5471 0
489 -5451 -5473 0
-489 5451 0
-489 5473 0
490 -5445 -5503 0
-490 5445 0
-490 5503 0
-491 481 482 0
-491 482 483 0
-491 481 483 0
491 -482 -483 0
491 -481 -482 0
491 -481 -483 0
-492 -493 -494 0
-492 493 494 0
492 493 -494 0
492 -493 494 0
-493 -428 -429 0
-493 428 429 0
493 428 -429 0
493 -428 429 0
494 -495 -496 0
-494 495 0
-494 496 0
-495 430 432 0
-495 -430 -432 0
495 -430 432 0
495 430 -432 0
496 -497 -499 0
-496 497 0
-496 499 0
-497 491 498 0
-497 -491 -498 0
497 -491 498 0
497 491 -498 0
-498 433 435 0
-498 -433 -435 0
498 -433 435 0
498 433 -435 0
-499 500 502 0
-499 502 549 0
-499 500 549 0
499 -502 -549 0
499 -500 -502 0
499 -500 -549 0
-500 479 501 0
-500 -479 -501 0
500 -479 501 0
500 479 -501 0
-501 436 438 0
-501 -436 -438 0
501 -436 438 0
501 436 -438 0
-502 503 505 0
-502 505 546 0
-502 503 546 0
502 -503 -546 0
502 -505 -546 0
502 -503 -505 0
-503 465 504 0
-503 -465 -504 0
503 -465 504 0
503 465 -504 0
-504 439 441 0
-504 -439 -441 0
504 -439 441 0
504 439 -441 0
-505 506 508 0
-505 508 532 0
-505 506 532 0
505 -506 -532 0
505 -508 -532 0
505 -506 -508 0
-506 456 507 0
-506 -456 -507 0
506 -456 507 0
506 456 -507 0
-507 442 444 0
-507 -442 -444 0
507 -442 444 0
507 442 -444 0
-508 509 511 0
-508 511 523 0
-508 509 523 0
508 -509 -523 0
508 -511 -523 0
508 -509 -511 0
-509 451 510 0
-509 -451 -510 0
509 -451 510 0
509 451 -510 0
-510 445 447 0
-510 -445 -447 0
510 -445 447 0
510 445 -447 0
-511 512 514 0
-511 514 518 0
-511 512 518 0
511 -512 -518 0
511 -514 -518 0
511 -512 -514 0
-512 450 513 0
-512 -450 -513 0
512 -450 513 0
512 450 -513 0
-513 -448 -449 0
-513 448 449 0
513 448 -449 0
513 -448 449 0
-514 515 517 0
-514 516 517 0
-514 515 516 0
514 -515 -516 0
514 -516 -517 0
514 -515 -517 0
515 -5502 -5509 0
-515 5502 0
-515 5509 0
516 -5454 -5455 0
-516 5454 0
-516 5455 0
517 -5480 -5506 0
-517 5480 0
-517 5506 0
-518 -519 -522 0
-518 519 522 0
518 519 -522 0
518 -519 522 0
-519 -520 -521 0
-519 520 521 0
519 520 -521 0
519 -520 521 0
520 -5453 -5480 0
-520 5453 0
-520 5480 0
521 -5448 -5463 0
-521 5448 0
-521 5463 0
522 -5452 -5464 0
-522 5452 0
-522 5464 0
-523 524 528 0
-523 -524 -528 0
523 -524 528 0
523 524 -528 0
-524 525 526 0
-524 -525 -526 0
524 -525 526 0
524 525 -526 0
-525 520 522 0
-525 521 522 0
-525 520 521 0
525 -520 -521 0
525 -521 -522 0
525 -520 -522 0
-526 464 527 0
-526 -464 -527 0
526 -464 527 0
526 464 -527 0
-527 -462 -463 0
-527 462 463 0
527 462 -463 0
527 -462 463 0
-528 529 531 0
-528 530 531 0
-528 529 530 0
528 -529 -530 0
528 -530 -531 0
528 -529 -531 0
529 -5465 -5477 0
-529 5465 0
-529 5477 0
530 -5466 -5469 0
-530 5466 0
-530 5469 0
531 -5467 -5475 0
-531 5467 0
-531 5475 0
-532 533 537 0
-532 -533 -537 0
532 -533 537 0
532 533 -537 0
-533 534 535 0
-533 -534 -535 0
533 -534 535 0
533 534 -535 0
-534 525 526 0
-534 526 528 0
-534 525 528 0
534 -525 -528 0
534 -526 -528 0
534 -525 -526 0
-535 477 536 0
-535 -477 -536 0
535 -477 536 0
535 477 -536 0
-536 471 473 0
-536 -471 -473 0
536 -471 473 0
536 471 -473 0
-537 538 540 0
-537 540 544 0
-537 538 544 0
537 -538 -544 0
537 -540 -544 0
537 -538 -540 0
-538 476 539 0
-538 -476 -539 0
538 -476 539 0
538 476 -539 0
-539 -474 -475 0
-539 474 475 0
539 474 -475 0
539 -474 475 0
-540 541 543 0
-540 542 543 0
-540 541 542 0
540 -541 -542 0
540 -542 -543 0
540 -541 -543 0
541 -5461 -5472 0
-541 5461 0
-541 5472 0
542 -5458 -5462 0
-542 5458 0
-542 5462 0
543 -5444 -5456 0
-543 5444 0
-543 5456 0
-544 490 545 0
-544 -490 -545 0
544 -490 545 0
544 490 -545 0
-545 -488 -489 0
-545 488 489 0
545 488 -489 0
545 -488 489 0
-546 547 548 0
-546 -547 -548 0
546 -547 548 0
546 547 -548 0
-547 -484 -485 0
-547 484 485 0
547 484 -485 0
547 -484 485 0
-548 534 535 0
-548 535 537 0
-548 534 537 0
548 -534 -537 0
548 -535 -537 0
548 -534 -535 0
549 -547 -548 0
-549 547 0
-549 548 0
-550 551 553 288 0
-550 551 553 556 0
550 -551 0
550 -553 0
550 -288 -556 0
-551 292 552 0
-551 291 292 0
-551 291 552 0
551 -291 -292 0
551 -292 -552 0
551 -291 -552 0
552 -358 -359 0
-552 358 0
-552 359 0
553 -289 -554 0
-553 289 0
-553 554 0
-554 427 555 0
-554 426 427 0
-554 426 555 0
554 -426 -427 0
554 -427 -555 0
554 -426 -555 0
555 -493 -494 0
-555 493 0
-555 494 0
-556 557 558 672 0
-556 557 615 672 0
-556 558 615 672 0
556 -557 -558 0
556 -558 -615 0
556 -672 0
556 -557 -615 0
-557 -495 -496 0
-557 495 496 0
557 495 -496 0
557 -495 496 0
558 -559 -560 0
-558 559 0
-558 560 0
-559 497 499 0
-559 -497 -499 0
559 -497 499 0
559 497 -499 0
560 -561 -563 0
-560 561 0
-560 563 0
-561 549 562 0
-561 -549 -562 0
561 -549 562 0
561 549 -562 0
-562 500 502 0
-562 -500 -502 0
562 -500 502 0
562 500 -502 0
-563 564 566 0
-563 566 614 0
-563 564 614 0
563 -566 -614 0
563 -564 -566 0
563 -564 -614 0
-564 546 565 0
-564 -546 -565 0
564 -546 565 0
564 546 -565 0
-565 503 505 0
-565 -503 -505 0
565 -503 505 0
565 503 -505 0
-566 567 569 0
-566 569 611 0
-566 567 611 0
566 -567 -611 0
566 -569 -611 0
566 -567 -569 0
-567 532 568 0
-567 -532 -568 0
567 -532 568 0
567 532 -568 0
-568 506 508 0
-568 -506 -508 0
568 -506 508 0
568 506 -508 0
-569 570 572 0
-569 572 596 0
-569 570 596 0
569 -570 -596 0
569 -572 -596 0
569 -570 -572 0
-570 523 571 0
-570 -523 -571 0
570 -523 571 0
570 523 -571 0
-571 509 511 0
-571 -509 -511 0
571 -509 511 0
571 509 -511 0
-572 573 575 0
-572 575 587 0
-572 573 587 0
572 -573 -587 0
572 -575 -587 0
572 -573 -575 0
-573 518 574 0
-573 -518 -574 0
573 -518 574 0
573 518 -574 0
-574 512 514 0
-574 -512 -514 0
574 -512 514 0
574 512 -514 0
-575 576 578 0
-575 578 582 0
-575 576 582 0
575 -576 -582 0
575 -578 -582 0
575 -576 -578 0
-576 517 577 0
-576 -517 -577 0
576 -517 577 0
576 517 -577 0
-577 -515 -516 0
-577 515 516 0
577 515 -516 0
577 -515 516 0
-578 579 581 0
-578 580 581 0
-578 579 580 0
578 -579 -580 0
578 -580 -581 0
578 -579 -581 0
579 -5455 -5509 0
-579 5455 0
-579 5509 0
580 -5454 -5480 0
-580 5454 0
-580 5480 0
581 -5448 -5506 0
-581 5448 0
-581 5506 0
-582 -583 -586 0
-582 583 586 0
582 583 -586 0
582 -583 586 0
-583 -584 -585 0
-583 584 585 0
583 584 -585 0
583 -584 585 0
584 -5448 -5453 0
-584 5448 0
-584 5453 0
585 -5452 -5463 0
-585 5452 0
-585 5463 0
586 -5464 -5477 0
-586 5464 0
-586 5477 0
-587 588 592 0
-587 -588 -592 0
587 -588 592 0
587 588 -592 0
-588 589 590 0
-588 -589 -590 0
588 -589 590 0
588 589 -590 0
-589 584 586 0
-589 585 586 0
-589 584 585 0
589 -584 -585 0
589 -585 -586 0
589 -584 -586 0
-590 531 591 0
-590 -531 -591 0
590 -531 591 0
590 531 -591 0
-591 -529 -530 0
-591 529 530 0
591 529 -530 0
591 -529 530 0
-592 593 595 0
-592 594 595 0
-592 593 594 0
592 -593 -594 0
592 -594 -595 0
592 -593 -595 0
593 -5465 -5469 0
-593 5465 0
-593 5469 0
594 -5466 -5475 0
-594 5466 0
-594 5475 0
595 -5467 -5472 0
-595 5467 0
-595 5472 0
-596 597 601 0
-596 -597 -601 0
596 -597 601 0
596 597 -601 0
-597 598 599 0
-597 -598 -599 0
597 -598 599 0
597 598 -599 0
-598 589 590 0
-598 590 592 0
-598 589 592 0
598 -589 -592 0
598 -590 -592 0
598 -589 -590 0
-599 544 600 0
-599 -544 -600 0
599 -544 600 0
599 544 -600 0
-600 538 540 0
-600 -538 -540 0
600 -538 540 0
600 538 -540 0
-601 602 604 0
-601 604 608 0
-601 602 608 0
601 -602 -608 0
601 -604 -608 0
601 -602 -604 0
-602 543 603 0
-602 -543 -603 0
602 -543 603 0
602 543 -603 0
-603 -541 -542 0
-603 541 542 0
603 541 -542 0
603 -541 542 0
-604 605 607 0
-604 606 607 0
-604 605 606 0
604 -605 -606 0
604 -606 -607 0
604 -605 -607 0
605 -5458 -5461 0
-605 5458 0
-605 5461 0
606 -5444 -5462 0
-606 5444 0
-606 5462 0
607 -5456 -5473 0
-607 5456 0
-607 5473 0
-608 -609 -610 0
-608 609 610 0
608 609 -610 0
608 -609 610 0
609 -5471 -5473 0
-609 5471 0
-609 5473 0
610 -5445 -5451 0
-610 5445 0
-610 5451 0
-611 612 613 0
-611 -612 -613 0
611 -612 613 0
611 612 -613 0
-612 486 487 0
-612 -486 -487 0
612 -486 487 0
612 486 -487 0
-613 598 599 0
-613 599 601 0
-613 598 601 0
613 -598 -601 0
613 -599 -601 0
613 -598 -599 0
614 -612 -613 0
-614 612 0
-614 613 0
615 -616 -617 0
-615 616 0
-615 617 0
-616 -559 -560 0
-616 559 560 0
616 559 -560 0
616 -559 560 0
617 -618 -619 0
-617 618 0
-617 619 0
-618 561 563 0
-618 -561 -563 0
618 -561 563 0
618 561 -563 0
619 -620 -622 0
-619 620 0
-619 622 0
-620 614 621 0
-620 -614 -621 0
620 -614 621 0
620 614 -621 0
-621 564 566 0
-621 -564 -566 0
621 -564 566 0
621 564 -566 0
-622 623 625 0
-622 625 671 0
-622 623 671 0
622 -625 -671 0
622 -623 -625 0
622 -623 -671 0
-623 611 624 0
-623 -611 -624 0
623 -611 624 0
623 611 -624 0
-624 567 569 0
-624 -567 -569 0
624 -567 569 0
624 567 -569 0
-625 626 628 0
-625 628 668 0
-625 626 668 0
625 -626 -668 0
625 -628 -668 0
625 -626 -628 0
-626 596 627 0
-626 -596 -627 0
626 -596 627 0
626 596 -627 0
-627 570 572 0
-627 -570 -572 0
627 -570 572 0
627 570 -572 0
-628 629 631 0
-628 631 655 0
-628 629 655 0
628 -629 -655 0
628 -631 -655 0
628 -629 -631 0
-629 587 630 0
-629 -587 -630 0
629 -587 630 0
629 587 -630 0
-630 573 575 0
-630 -573 -575 0
630 -573 575 0
630 573 -575 0
-631 632 634 0
-631 634 646 0
-631 632 646 0
631 -632 -646 0
631 -634 -646 0
631 -632 -634 0
-632 582 633 0
-632 -582 -633 0
632 -582 633 0
632 582 -633 0
-633 576 578 0
-633 -576 -578 0
633 -576 578 0
633 576 -578 0
-634 635 637 0
-634 637 641 0
-634 635 641 0
634 -635 -641 0
634 -637 -641 0
634 -635 -637 0
-635 581 636 0
-635 -581 -636 0
635 -581 636 0
635 581 -636 0
-636 -579 -580 0
-636 579 580 0
636 579 -580 0
636 -579 580 0
-637 638 640 0
-637 639 640 0
-637 638 639 0
637 -638 -639 0
637 -639 -640 0
637 -638 -640 0
638 -5480 -5509 0
-638 5480 0
-638 5509 0
639 -5448 -5454 0
-639 5448 0
-639 5454 0
640 -5452 -5506 0
-640 5452 0
-640 5506 0
-641 -642 -645 0
-641 642 645 0
641 642 -645 0
641 -642 645 0
-642 -643 -644 0
-642 643 644 0
642 643 -644 0
642 -643 644 0
643 -5452 -5453 0
-643 5452 0
-643 5453 0
644 -5463 -5477 0
-644 5463 0
-644 5477 0
645 -5464 -5469 0
-645 5464 0
-645 5469 0
-646 647 651 0
-646 -647 -651 0
646 -647 651 0
646 647 -651 0
-647 648 649 0
-647 -648 -649 0
647 -648 649 0
647 648 -649 0
-648 643 645 0
-648 644 645 0
-648 643 644 0
648 -643 -644 0
648 -644 -645 0
648 -643 -645 0
-649 595 650 0
-649 -595 -650 0
649 -595 650 0
649 595 -650 0
-650 -593 -594 0
-650 593 594 0
650 593 -594 0
650 -593 594 0
-651 652 654 0
-651 653 654 0
-651 652 653 0
651 -652 -653 0
651 -653 -654 0
651 -652 -654 0
652 -5465 -5475 0
-652 5465 0
-652 5475 0
653 -5466 -5472 0
-653 5466 0
-653 5472 0
654 -5458 -5467 0
-654 5458 0
-654 5467 0
-655 656 660 0
-655 -656 -660 0
655 -656 660 0
655 656 -660 0
-656 657 658 0
-656 -657 -658 0
656 -657 658 0
656 657 -658 0
-657 648 649 0
-657 649 651 0
-657 648 651 0
657 -648 -651 0
657 -649 -651 0
657 -648 -649 0
-658 608 659 0
-658 -608 -659 0
658 -608 659 0
658 608 -659 0
-659 602 604 0
-659 -602 -604 0
659 -602 604 0
659 602 -604 0
-660 661 663 0
-660 663 667 0
-660 661 667 0
660 -663 -667 0
660 -661 -663 0
660 -661 -667 0
-661 607 662 0
-661 -607 -662 0
661 -607 662 0
661 607 -662 0
-662 -605 -606 0
-662 605 606 0
662 605 -606 0
662 -605 606 0
-663 664 666 0
-663 665 666 0
-663 664 665 0
663 -664 -665 0
663 -665 -666 0
663 -664 -666 0
664 -5444 -5461 0
-664 5444 0
-664 5461 0
665 -5462 -5473 0
-665 5462 0
-665 5473 0
666 -5445 -5456 0
-666 5445 0
-666 5456 0
667 -5445 -5471 0
-667 5445 0
-667 5471 0
-668 669 670 0
-668 -669 -670 0
668 -669 670 0
668 669 -670 0
669 -5445 -5451 -5471 -5473 0
-669 5473 0
-669 5445 0
-669 5471 0
-669 5451 0
-670 657 658 0
-670 658 660 0
-670 657 660 0
670 -657 -660 0
670 -658 -660 0
670 -657 -658 0
671 -669 -670 0
-671 669 0
-671 670 0
672 -673 -676 0
-672 673 0
-672 676 0
673 -674 -675 0
-673 674 0
-673 675 0
-674 -557 -558 0
-674 557 558 0
674 557 -558 0
674 -557 558 0
-675 -616 -617 0
-675 616 617 0
675 616 -617 0
675 -616 617 0
-676 678 726 0
-676 677 678 0
-676 677 726 0
676 -677 -678 0
676 -678 -726 0
676 -677 -726 0
-677 -618 -619 0
-677 618 619 0
677 618 -619 0
677 -618 619 0
678 -679 -680 0
-678 679 0
-678 680 0
-679 620 622 0
-679 -620 -622 0
679 -620 622 0
679 620 -622 0
680 -681 -683 0
-680 681 0
-680 683 0
-681 671 682 0
-681 -671 -682 0
681 -671 682 0
681 671 -682 0
-682 623 625 0
-682 -623 -625 0
682 -623 625 0
682 623 -625 0
683 -684 -686 0
-683 684 0
-683 686 0
-684 668 685 0
-684 -668 -685 0
684 -668 685 0
684 668 -685 0
-685 626 628 0
-685 -626 -628 0
685 -626 628 0
685 626 -628 0
-686 687 689 0
-686 689 725 0
-686 687 725 0
686 -687 -725 0
686 -689 -725 0
686 -687 -689 0
-687 655 688 0
-687 -655 -688 0
687 -655 688 0
687 655 -688 0
-688 629 631 0
-688 -629 -631 0
688 -629 631 0
688 629 -631 0
-689 690 692 0
-689 692 716 0
-689 690 716 0
689 -690 -716 0
689 -692 -716 0
689 -690 -692 0
-690 646 691 0
-690 -646 -691 0
690 -646 691 0
690 646 -691 0
-691 632 634 0
-691 -632 -634 0
691 -632 634 0
691 632 -634 0
-692 693 695 0
-692 695 707 0
-692 693 707 0
692 -693 -707 0
692 -695 -707 0
692 -693 -695 0
-693 641 694 0
-693 -641 -694 0
693 -641 694 0
693 641 -694 0
-694 635 637 0
-694 -635 -637 0
694 -635 637 0
694 635 -637 0
-695 696 698 0
-695 698 702 0
-695 696 702 0
695 -696 -702 0
695 -698 -702 0
695 -696 -698 0
-696 640 697 0
-696 -640 -697 0
696 -640 697 0
696 640 -697 0
-697 -638 -639 0
-697 638 639 0
697 638 -639 0
697 -638 639 0
-698 699 701 0
-698 700 701 0
-698 699 700 0
698 -699 -700 0
698 -700 -701 0
698 -699 -701 0
699 -5448 -5509 0
-699 5448 0
-699 5509 0
700 -5452 -5454 0
-700 5452 0
-700 5454 0
701 -5477 -5506 0
-701 5477 0
-701 5506 0
-702 -703 -706 0
-702 703 706 0
702 703 -706 0
702 -703 706 0
-703 -704 -705 0
-703 704 705 0
703 704 -705 0
703 -704 705 0
704 -5453 -5477 0
-704 5453 0
-704 5477 0
705 -5463 -5469 0
-705 5463 0
-705 5469 0
706 -5464 -5475 0
-706 5464 0
-706 5475 0
-707 708 712 0
-707 -708 -712 0
707 -708 712 0
707 708 -712 0
-708 709 710 0
-708 -709 -710 0
708 -709 710 0
708 709 -710 0
-709 704 706 0
-709 705 706 0
-709 704 705 0
709 -704 -705 0
709 -705 -706 0
709 -704 -706 0
-710 654 711 0
-710 -654 -711 0
710 -654 711 0
710 654 -711 0
-711 -652 -653 0
-711 652 653 0
711 652 -653 0
711 -652 653 0
-712 713 715 0
-712 714 715 0
-712 713 714 0
712 -713 -714 0
712 -714 -715 0
712 -713 -715 0
713 -5465 -5472 0
-713 5465 0
-713 5472 0
714 -5458 -5466 0
-714 5458 0
-714 5466 0
715 -5444 -5467 0
-715 5444 0
-715 5467 0
-716 -717 -721 0
-716 717 721 0
716 717 -721 0
716 -717 721 0
-717 718 719 0
-717 -718 -719 0
717 -718 719 0
717 718 -719 0
-718 709 710 0
-718 710 712 0
-718 709 712 0
718 -709 -712 0
718 -710 -712 0
718 -709 -710 0
-719 667 720 0
-719 -667 -720 0
719 -667 720 0
719 667 -720 0
-720 661 663 0
-720 -661 -663 0
720 -661 663 0
720 661 -663 0
721 -722 -724 0
-721 722 0
-721 724 0
-722 666 723 0
-722 -666 -723 0
722 -666 723 0
722 666 -723 0
-723 -664 -665 0
-723 664 665 0
723 664 -665 0
723 -664 665 0
724 -5445 -5461 -5462 -5473 0
-724 5473 0
-724 5445 0
-724 5462 0
-724 5461 0
-725 718 719 0
-725 719 721 0
-725 718 721 0
725 -719 -721 0
725 -718 -719 0
725 -718 -721 0
726 -727 -728 0
-726 727 0
-726 728 0
-727 -679 -680 0
-727 679 680 0
727 679 -680 0
727 -679 680 0
728 -729 -730 0
-728 729 0
-728 730 0
-729 -681 -683 0
-729 681 683 0
729 681 -683 0
729 -681 683 0
730 -731 -732 0
-730 731 0
-730 732 0
-731 684 686 0
-731 -684 -686 0
731 -684 686 0
731 684 -686 0
732 -733 -735 0
-732 733 0
-732 735 0
-733 725 734 0
-733 -725 -734 0
733 -725 734 0
733 725 -734 0
-734 687 689 0
-734 -687 -689 0
734 -687 689 0
734 687 -689 0
-735 736 738 0
-735 738 768 0
-735 736 768 0
735 -738 -768 0
735 -736 -738 0
735 -736 -768 0
-736 716 737 0
-736 -716 -737 0
736 -716 737 0
736 716 -737 0
-737 690 692 0
-737 -690 -692 0
737 -690 692 0
737 690 -692 0
-738 739 741 0
-738 741 765 0
-738 739 765 0
738 -739 -765 0
738 -741 -765 0
738 -739 -741 0
-739 707 740 0
-739 -707 -740 0
739 -707 740 0
739 707 -740 0
-740 693 695 0
-740 -693 -695 0
740 -693 695 0
740 693 -695 0
-741 742 744 0
-741 744 756 0
-741 742 756 0
741 -742 -756 0
741 -744 -756 0
741 -742 -744 0
-742 702 743 0
-742 -702 -743 0
742 -702 743 0
742 702 -743 0
-743 696 698 0
-743 -696 -698 0
743 -696 698 0
743 696 -698 0
-744 745 747 0
-744 747 751 0
-744 745 751 0
744 -745 -751 0
744 -747 -751 0
744 -745 -747 0
-745 701 746 0
-745 -701 -746 0
745 -701 746 0
745 701 -746 0
-746 -699 -700 0
-746 699 700 0
746 699 -700 0
746 -699 700 0
-747 748 750 0
-747 749 750 0
-747 748 749 0
747 -748 -749 0
747 -749 -750 0
747 -748 -750 0
748 -5452 -5509 0
-748 5452 0
-748 5509 0
749 -5454 -5477 0
-749 5454 0
-749 5477 0
750 -5469 -5506 0
-750 5469 0
-750 5506 0
-751 -752 -755 0
-751 752 755 0
751 752 -755 0
751 -752 755 0
-752 -753 -754 0
-752 753 754 0
752 753 -754 0
752 -753 754 0
753 -5453 -5469 0
-753 5453 0
-753 5469 0
754 -5463 -5475 0
-754 5463 0
-754 5475 0
755 -5464 -5472 0
-755 5464 0
-755 5472 0
-756 757 761 0
-756 -757 -761 0
756 -757 761 0
756 757 -761 0
-757 758 759 0
-757 -758 -759 0
757 -758 759 0
757 758 -759 0
-758 753 755 0
-758 754 755 0
-758 753 754 0
758 -753 -754 0
758 -754 -755 0
758 -753 -755 0
-759 715 760 0
-759 -715 -760 0
759 -715 760 0
759 715 -760 0
-760 -713 -714 0
-760 713 714 0
760 713 -714 0
760 -713 714 0
-761 762 764 0
-761 763 764 0
-761 762 763 0
761 -762 -763 0
761 -763 -764 0
761 -762 -764 0
762 -5458 -5465 0
-762 5458 0
-762 5465 0
763 -5444 -5466 0
-763 5444 0
-763 5466 0
764 -5467 -5473 0
-764 5467 0
-764 5473 0
-765 766 767 0
-765 -766 -767 0
765 -766 767 0
765 766 -767 0
-766 -722 -724 0
-766 722 724 0
766 722 -724 0
766 -722 724 0
-767 758 759 0
-767 759 761 0
-767 758 761 0
767 -758 -761 0
767 -759 -761 0
767 -758 -759 0
768 -766 -767 0
-768 766 0
-768 767 0
769 -673 -770 0
-769 673 0
-769 770 0
770 -771 -772 0
-770 771 0
-770 772 0
-771 -677 -678 0
-771 677 678 0
771 677 -678 0
771 -677 678 0
-772 -727 -728 0
-772 727 728 0
772 727 -728 0
772 -727 728 0
-773 774 860 0
-773 860 929 0
-773 860 934 0
773 -860 0
773 -774 -929 -934 0
774 -775 -820 0
-774 775 0
-774 820 0
-775 -776 -777 0
-775 776 777 0
775 776 -777 0
775 -776 777 0
-776 -729 -730 0
-776 729 730 0
776 729 -730 0
776 -729 730 0
777 -778 -779 0
-777 778 0
-777 779 0
-778 -731 -732 0
-778 731 732 0
778 731 -732 0
778 -731 732 0
779 -780 -781 0
-779 780 0
-779 781 0
-780 733 735 0
-780 -733 -735 0
780 -733 735 0
780 733 -735 0
781 -782 -784 0
-781 782 0
-781 784 0
-782 768 783 0
-782 -768 -783 0
782 -768 783 0
782 768 -783 0
-783 736 738 0
-783 -736 -738 0
783 -736 738 0
783 736 -738 0
-784 785 787 0
-784 787 819 0
-784 785 819 0
784 -787 -819 0
784 -785 -787 0
784 -785 -819 0
-785 765 786 0
-785 -765 -786 0
785 -765 786 0
785 765 -786 0
-786 739 741 0
-786 -739 -741 0
786 -739 741 0
786 739 -741 0
-787 788 790 0
-787 790 814 0
-787 788 814 0
787 -788 -814 0
787 -790 -814 0
787 -788 -790 0
-788 756 789 0
-788 -756 -789 0
788 -756 789 0
788 756 -789 0
-789 742 744 0
-789 -742 -744 0
789 -742 744 0
789 742 -744 0
-790 791 793 0
-790 793 805 0
-790 791 805 0
790 -791 -805 0
790 -793 -805 0
790 -791 -793 0
-791 751 792 0
-791 -751 -792 0
791 -751 792 0
791 751 -792 0
-792 745 747 0
-792 -745 -747 0
792 -745 747 0
792 745 -747 0
-793 794 796 0
-793 796 800 0
-793 794 800 0
793 -794 -800 0
793 -796 -800 0
793 -794 -796 0
-794 750 795 0
-794 -750 -795 0
794 -750 795 0
794 750 -795 0
-795 -748 -749 0
-795 748 749 0
795 748 -749 0
795 -748 749 0
-796 797 799 0
-796 798 799 0
-796 797 798 0
796 -797 -798 0
796 -798 -799 0
796 -797 -799 0
797 -5477 -5509 0
-797 5477 0
-797 5509 0
798 -5454 -5469 0
-798 5454 0
-798 5469 0
799 -5475 -5506 0
-799 5475 0
-799 5506 0
-800 -801 -804 0
-800 801 804 0
800 801 -804 0
800 -801 804 0
-801 -802 -803 0
-801 802 803 0
801 802 -803 0
801 -802 803 0
802 -5453 -5475 0
-802 5453 0
-802 5475 0
803 -5463 -5472 0
-803 5463 0
-803 5472 0
804 -5458 -5464 0
-804 5458 0
-804 5464 0
-805 806 810 0
-805 -806 -810 0
805 -806 810 0
805 806 -810 0
-806 807 808 0
-806 -807 -808 0
806 -807 808 0
806 807 -808 0
-807 802 804 0
-807 803 804 0
-807 802 803 0
807 -802 -803 0
807 -803 -804 0
807 -802 -804 0
-808 764 809 0
-808 -764 -809 0
808 -764 809 0
808 764 -809 0
-809 -762 -763 0
-809 762 763 0
809 762 -763 0
809 -762 763 0
-810 811 813 0
-810 812 813 0
-810 811 812 0
810 -811 -812 0
810 -812 -813 0
810 -811 -813 0
811 -5444 -5465 0
-811 5444 0
-811 5465 0
812 -5466 -5473 0
-812 5466 0
-812 5473 0
813 -5445 -5467 0
-813 5445 0
-813 5467 0
-814 815 818 0
-814 -815 -818 0
814 -815 818 0
814 815 -818 0
-815 -816 -817 0
-815 816 817 0
815 816 -817 0
815 -816 817 0
816 -5461 -5473 0
-816 5461 0
-816 5473 0
817 -5445 -5462 0
-817 5445 0
-817 5462 0
-818 807 808 0
-818 808 810 0
-818 807 810 0
818 -807 -810 0
818 -808 -810 0
818 -807 -808 0
819 -815 -818 0
-819 815 0
-819 818 0
-820 -821 -822 0
-820 821 822 0
820 821 -822 0
820 -821 822 0
-821 -778 -779 0
-821 778 779 0
821 778 -779 0
821 -778 779 0
822 -823 -824 0
-822 823 0
-822 824 0
-823 -780 -781 0
-823 780 781 0
823 780 -781 0
823 -780 781 0
824 -825 -826 0
-824 825 0
-824 826 0
-825 782 784 0
-825 -782 -784 0
825 -782 784 0
825 782 -784 0
826 -827 -829 0
-826 827 0
-826 829 0
-827 819 828 0
-827 -819 -828 0
827 -819 828 0
827 819 -828 0
-828 785 787 0
-828 -785 -787 0
828 -785 787 0
828 785 -787 0
-829 830 832 0
-829 832 859 0
-829 830 859 0
829 -832 -859 0
829 -830 -832 0
829 -830 -859 0
-830 814 831 0
-830 -814 -831 0
830 -814 831 0
830 814 -831 0
-831 788 790 0
-831 -788 -790 0
831 -788 790 0
831 788 -790 0
-832 833 835 0
-832 835 856 0
-832 833 856 0
832 -833 -856 0
832 -835 -856 0
832 -833 -835 0
-833 805 834 0
-833 -805 -834 0
833 -805 834 0
833 805 -834 0
-834 791 793 0
-834 -791 -793 0
834 -791 793 0
834 791 -793 0
-835 836 838 0
-835 838 850 0
-835 836 850 0
835 -836 -850 0
835 -838 -850 0
835 -836 -838 0
-836 800 837 0
-836 -800 -837 0
836 -800 837 0
836 800 -837 0
-837 794 796 0
-837 -794 -796 0
837 -794 796 0
837 794 -796 0
-838 839 841 0
-838 841 845 0
-838 839 845 0
838 -839 -845 0
838 -841 -845 0
838 -839 -841 0
-839 799 840 0
-839 -799 -840 0
839 -799 840 0
839 799 -840 0
-840 -797 -798 0
-840 797 798 0
840 797 -798 0
840 -797 798 0
-841 842 844 0
-841 843 844 0
-841 842 843 0
841 -842 -843 0
841 -843 -844 0
841 -842 -844 0
842 -5469 -5509 0
-842 5469 0
-842 5509 0
843 -5454 -5475 0
-843 5454 0
-843 5475 0
844 -5472 -5506 0
-844 5472 0
-844 5506 0
-845 -846 -849 0
-845 846 849 0
845 846 -849 0
845 -846 849 0
-846 -847 -848 0
-846 847 848 0
846 847 -848 0
846 -847 848 0
847 -5453 -5472 0
-847 5453 0
-847 5472 0
848 -5458 -5463 0
-848 5458 0
-848 5463 0
849 -5444 -5464 0
-849 5444 0
-849 5464 0
-850 -851 -855 0
-850 851 855 0
850 851 -855 0
850 -851 855 0
-851 852 853 0
-851 -852 -853 0
851 -852 853 0
851 852 -853 0
-852 847 849 0
-852 848 849 0
-852 847 848 0
852 -847 -848 0
852 -848 -849 0
852 -847 -849 0
-853 813 854 0
-853 -813 -854 0
853 -813 854 0
853 813 -854 0
-854 -811 -812 0
-854 811 812 0
854 811 -812 0
854 -811 812 0
855 -5445 -5465 -5466 -5473 0
-855 5473 0
-855 5445 0
-855 5466 0
-855 5465 0
-856 857 858 0
-856 -857 -858 0
856 -857 858 0
856 857 -858 0
857 -5445 -5461 0
-857 5445 0
-857 5461 0
-858 852 853 0
-858 853 855 0
-858 852 855 0
858 -853 -855 0
858 -852 -853 0
858 -852 -855 0
859 -5445 -5461 -858 0
-859 5445 0
-859 5461 0
-859 858 0
-860 861 863 0
-860 861 774 0
860 -861 0
860 -774 -863 0
-861 776 862 0
-861 777 775 0
-861 777 862 0
-861 776 775 0
861 -776 -777 0
861 -775 -862 0
862 -821 -822 0
-862 821 0
-862 822 0
-863 865 866 0
-863 866 898 0
-863 864 0
-863 865 898 0
863 -864 -865 -898 0
863 -864 -866 -898 0
863 -864 -865 -866 0
-864 -823 -824 0
-864 823 824 0
864 823 -824 0
864 -823 824 0
-865 -825 -826 0
-865 825 826 0
865 825 -826 0
865 -825 826 0
866 -867 -868 0
-866 867 0
-866 868 0
-867 827 829 0
-867 -827 -829 0
867 -827 829 0
867 827 -829 0
868 -869 -871 0
-868 869 0
-868 871 0
-869 859 870 0
-869 -859 -870 0
869 -859 870 0
869 859 -870 0
-870 830 832 0
-870 -830 -832 0
870 -830 832 0
870 830 -832 0
871 -872 -874 0
-871 872 0
-871 874 0
-872 856 873 0
-872 -856 -873 0
872 -856 873 0
872 856 -873 0
-873 833 835 0
-873 -833 -835 0
873 -833 835 0
873 833 -835 0
-874 875 877 0
-874 877 897 0
-874 875 897 0
874 -877 -897 0
874 -875 -877 0
874 -875 -897 0
-875 850 876 0
-875 -850 -876 0
875 -850 876 0
875 850 -876 0
-876 836 838 0
-876 -836 -838 0
876 -836 838 0
876 836 -838 0
-877 878 880 0
-877 880 892 0
-877 878 892 0
877 -878 -892 0
877 -880 -892 0
877 -878 -880 0
-878 845 879 0
-878 -845 -879 0
878 -845 879 0
878 845 -879 0
-879 839 841 0
-879 -839 -841 0
879 -839 841 0
879 839 -841 0
-880 881 883 0
-880 883 887 0
-880 881 887 0
880 -881 -887 0
880 -883 -887 0
880 -881 -883 0
-881 844 882 0
-881 -844 -882 0
881 -844 882 0
881 844 -882 0
-882 -842 -843 0
-882 842 843 0
882 842 -843 0
882 -842 843 0
-883 884 886 0
-883 885 886 0
-883 884 885 0
883 -884 -885 0
883 -885 -886 0
883 -884 -886 0
884 -5475 -5509 0
-884 5475 0
-884 5509 0
885 -5454 -5472 0
-885 5454 0
-885 5472 0
886 -5458 -5506 0
-886 5458 0
-886 5506 0
-887 -888 -891 0
-887 888 891 0
887 888 -891 0
887 -888 891 0
-888 -889 -890 0
-888 889 890 0
888 889 -890 0
888 -889 890 0
889 -5453 -5458 0
-889 5453 0
-889 5458 0
890 -5444 -5463 0
-890 5444 0
-890 5463 0
891 -5464 -5473 0
-891 5464 0
-891 5473 0
-892 893 896 0
-892 -893 -896 0
892 -893 896 0
892 893 -896 0
-893 -894 -895 0
-893 894 895 0
893 894 -895 0
893 -894 895 0
894 -5465 -5473 0
-894 5465 0
-894 5473 0
895 -5445 -5466 0
-895 5445 0
-895 5466 0
-896 889 891 0
-896 890 891 0
-896 889 890 0
896 -889 -890 0
896 -890 -891 0
896 -889 -891 0
897 -893 -896 0
-897 893 0
-897 896 0
898 -899 -900 0
-898 899 0
-898 900 0
-899 -867 -868 0
-899 867 868 0
899 867 -868 0
899 -867 868 0
900 -901 -902 0
-900 901 0
-900 902 0
-901 -869 -871 0
-901 869 871 0
901 869 -871 0
901 -869 871 0
902 -903 -904 0
-902 903 0
-902 904 0
-903 872 874 0
-903 -872 -874 0
903 -872 874 0
903 872 -874 0
904 -905 -907 0
-904 905 0
-904 907 0
-905 897 906 0
-905 -897 -906 0
905 -897 906 0
905 897 -906 0
-906 875 877 0
-906 -875 -877 0
906 -875 877 0
906 875 -877 0
-907 908 910 0
-907 910 928 0
-907 908 928 0
907 -910 -928 0
907 -908 -910 0
907 -908 -928 0
-908 892 909 0
-908 -892 -909 0
908 -892 909 0
908 892 -909 0
-909 878 880 0
-909 -878 -880 0
909 -878 880 0
909 878 -880 0
-910 911 913 0
-910 913 925 0
-910 911 925 0
910 -911 -925 0
910 -913 -925 0
910 -911 -913 0
-911 887 912 0
-911 -887 -912 0
911 -887 912 0
911 887 -912 0
-912 881 883 0
-912 -881 -883 0
912 -881 883 0
912 881 -883 0
-913 914 916 0
-913 916 920 0
-913 914 920 0
913 -914 -920 0
913 -916 -920 0
913 -914 -916 0
-914 886 915 0
-914 -886 -915 0
914 -886 915 0
914 886 -915 0
-915 -884 -885 0
-915 884 885 0
915 884 -885 0
915 -884 885 0
-916 917 919 0
-916 918 919 0
-916 917 918 0
916 -917 -918 0
916 -918 -919 0
916 -917 -919 0
917 -5472 -5509 0
-917 5472 0
-917 5509 0
918 -5454 -5458 0
-918 5454 0
-918 5458 0
919 -5444 -5506 0
-919 5444 0
-919 5506 0
-920 -921 -924 0
-920 921 924 0
920 921 -924 0
920 -921 924 0
-921 -922 -923 0
-921 922 923 0
921 922 -923 0
921 -922 923 0
922 -5444 -5453 0
-922 5444 0
-922 5453 0
923 -5463 -5473 0
-923 5463 0
-923 5473 0
924 -5445 -5464 0
-924 5445 0
-924 5464 0
-925 926 927 0
-925 -926 -927 0
925 -926 927 0
925 926 -927 0
926 -5445 -5465 0
-926 5445 0
-926 5465 0
-927 922 924 0
-927 923 924 0
-927 922 923 0
927 -922 -923 0
927 -923 -924 0
927 -922 -924 0
928 -5445 -5465 -927 0
-928 5445 0
-928 5465 0
-928 927 0
929 -930 -932 0
-929 930 0
-929 932 0
-930 -864 -931 0
-930 864 931 0
930 864 -931 0
930 -864 931 0
931 -865 -866 0
-931 865 0
-931 866 0
-932 -933 -898 0
-932 933 898 0
932 933 -898 0
932 -933 898 0
-933 -865 -866 0
-933 865 866 0
933 865 -866 0
933 -865 866 0
-934 935 963 0
-934 963 988 0
-934 963 989 0
934 -963 0
934 -935 -988 -989 0
-935 -936 -937 0
-935 936 937 0
935 936 -937 0
935 -936 937 0
-936 -899 -900 0
-936 899 900 0
936 899 -900 0
936 -899 900 0
937 -938 -939 0
-937 938 0
-937 939 0
-938 -901 -902 0
-938 901 902 0
938 901 -902 0
938 -901 902 0
939 -940 -941 0
-939 940 0
-939 941 0
-940 -903 -904 0
-940 903 904 0
940 903 -904 0
940 -903 904 0
941 -942 -943 0
-941 942 0
-941 943 0
-942 905 907 0
-942 -905 -907 0
942 -905 907 0
942 905 -907 0
943 -944 -946 0
-943 944 0
-943 946 0
-944 928 945 0
-944 -928 -945 0
944 -928 945 0
944 928 -945 0
-945 908 910 0
-945 -908 -910 0
945 -908 910 0
945 908 -910 0
946 -947 -949 0
-946 947 0
-946 949 0
-947 925 948 0
-947 -925 -948 0
947 -925 948 0
947 925 -948 0
-948 911 913 0
-948 -911 -913 0
948 -911 913 0
948 911 -913 0
-949 950 952 0
-949 952 962 0
-949 950 962 0
949 -952 -962 0
949 -950 -952 0
949 -950 -962 0
-950 920 951 0
-950 -920 -951 0
950 -920 951 0
950 920 -951 0
-951 914 916 0
-951 -914 -916 0
951 -914 916 0
951 914 -916 0
-952 953 955 0
-952 955 959 0
-952 953 959 0
952 -953 -959 0
952 -955 -959 0
952 -953 -955 0
-953 919 954 0
-953 -919 -954 0
953 -919 954 0
953 919 -954 0
-954 -917 -918 0
-954 917 918 0
954 917 -918 0
954 -917 918 0
-955 956 958 0
-955 957 958 0
-955 956 957 0
955 -956 -957 0
955 -957 -958 0
955 -956 -958 0
956 -5458 -5509 0
-956 5458 0
-956 5509 0
957 -5444 -5454 0
-957 5444 0
-957 5454 0
958 -5473 -5506 0
-958 5473 0
-958 5506 0
-959 -960 -961 0
-959 960 961 0
959 960 -961 0
959 -960 961 0
960 -5453 -5473 0
-960 5453 0
-960 5473 0
961 -5445 -5463 0
-961 5445 0
-961 5463 0
962 -5445 -5453 -5463 -5473 0
-962 5473 0
-962 5445 0
-962 5463 0
-962 5453 0
-963 937 964 0
-963 936 937 0
-963 936 964 0
963 -936 -937 0
963 -937 -964 0
963 -936 -964 0
964 -965 -966 0
-964 965 0
-964 966 0
-965 -938 -939 0
-965 938 939 0
965 938 -939 0
965 -938 939 0
966 -967 -968 0
-966 967 0
-966 968 0
-967 -940 -941 0
-967 940 941 0
967 940 -941 0
967 -940 941 0
968 -969 -970 0
-968 969 0
-968 970 0
-969 -942 -943 0
-969 942 943 0
969 942 -943 0
969 -942 943 0
970 -971 -972 0
-970 971 0
-970 972 0
-971 -944 -946 0
-971 944 946 0
971 944 -946 0
971 -944 946 0
972 -973 -974 0
-972 973 0
-972 974 0
-973 947 949 0
-973 -947 -949 0
973 -947 949 0
973 947 -949 0
974 -975 -977 0
-974 975 0
-974 977 0
-975 962 976 0
-975 -962 -976 0
975 -962 976 0
975 962 -976 0
-976 950 952 0
-976 -950 -952 0
976 -950 952 0
976 950 -952 0
977 -978 -980 0
-977 978 0
-977 980 0
-978 959 979 0
-978 -959 -979 0
978 -959 979 0
978 959 -979 0
-979 953 955 0
-979 -953 -955 0
979 -953 955 0
979 953 -955 0
-980 981 983 0
-980 983 987 0
-980 981 987 0
980 -983 -987 0
980 -981 -983 0
980 -981 -987 0
-981 958 982 0
-981 -958 -982 0
981 -958 982 0
981 958 -982 0
-982 -956 -957 0
-982 956 957 0
982 956 -957 0
982 -956 957 0
-983 984 986 0
-983 985 986 0
-983 984 985 0
983 -984 -985 0
983 -985 -986 0
983 -984 -986 0
984 -5444 -5509 0
-984 5444 0
-984 5509 0
985 -5454 -5473 0
-985 5454 0
-985 5473 0
986 -5445 -5506 0
-986 5445 0
-986 5506 0
987 -5445 -5453 0
-987 5445 0
-987 5453 0
-988 -965 -966 0
-988 965 966 0
988 965 -966 0
988 -965 966 0
989 -990 -991 0
-989 990 0
-989 991 0
-990 -967 -968 0
-990 967 968 0
990 967 -968 0
990 -967 968 0
991 -992 -993 0
-991 992 0
-991 993 0
-992 -969 -970 0
-992 969 970 0
992 969 -970 0
992 -969 970 0
993 -994 -995 0
-993 994 0
-993 995 0
-994 -971 -972 0
-994 971 972 0
994 971 -972 0
994 -971 972 0
995 -996 -997 0
-995 996 0
-995 997 0
-996 -973 -974 0
-996 973 974 0
996 973 -974 0
996 -973 974 0
997 -998 -999 0
-997 998 0
-997 999 0
-998 -975 -977 0
-998 975 977 0
998 975 -977 0
998 -975 977 0
999 -1000 -1001 0
-999 1000 0
-999 1001 0
-1000 978 980 0
-1000 -978 -980 0
1000 -978 980 0
1000 978 -980 0
1001 -1002 -1004 0
-1001 1002 0
-1001 1004 0
-1002 987 1003 0
-1002 -987 -1003 0
1002 -987 1003 0
1002 987 -1003 0
-1003 981 983 0
-1003 -981 -983 0
1003 -981 983 0
1003 981 -983 0
1004 -1005 -1007 0
-1004 1005 0
-1004 1007 0
-1005 986 1006 0
-1005 -986 -1006 0
1005 -986 1006 0
1005 986 -1006 0
-1006 -984 -985 0
-1006 984 985 0
1006 984 -985 0
1006 -984 985 0
1007 -5445 -5454 -1008 0
-1007 5445 0
-1007 5454 0
-1007 1008 0
1008 -5473 -5509 0
-1008 5473 0
-1008 5509 0
-1009 1010 3019 0
-1009 -1010 -3019 0
1009 -1010 3019 0
1009 1010 -3019 0
-1010 1011 2015 0
-1010 -1011 -2015 0
1010 -1011 2015 0
1010 1011 -2015 0
-1011 1012 1293 0
-1011 -1012 -1293 0
1011 -1012 1293 0
1011 1012 -1293 0
-1012 -1013 -1231 0
-1012 1013 1231 0
1012 1013 -1231 0
1012 -1013 1231 0
-1013 -1014 -1176 0
-1013 1014 1176 0
1013 1014 -1176 0
1013 -1014 1176 0
-1014 1015 1132 0
-1014 -1015 -1132 0
1014 -1015 1132 0
1014 1015 -1132 0
-1015 1016 1131 0
-1015 -1016 -1131 0
1015 -1016 1131 0
1015 1016 -1131 0
-1016 1017 1095 0
-1016 -1017 -1095 0
1016 -1017 1095 0
1016 1017 -1095 0
-1017 1018 1077 0
-1017 -1018 -1077 0
1017 -1018 1077 0
1017 1018 -1077 0
-1018 -1019 -1050 0
-1018 1019 1050 0
1018 1019 -1050 0
1018 -1019 1050 0
-1019 1020 1038 0
-1019 -1020 -1038 0
1019 -1020 1038 0
1019 1020 -1038 0
-1020 1021 1022 0
-1020 -1021 -1022 0
1020 -1021 1022 0
1020 1021 -1022 0
1021 -5440 -5485 -5486 -5488 0
-1021 5488 0
-1021 5440 0
-1021 5486 0
-1021 5485 0
-1022 1023 1033 0
-1022 -1023 -1033 0
1022 -1023 1033 0
1022 1023 -1033 0
-1023 1024 1029 0
-1023 -1024 -1029 0
1023 -1024 1029 0
1023 1024 -1029 0
-1024 -1025 -1028 0
-1024 1025 1028 0
1024 1025 -1028 0
1024 -1025 1028 0
-1025 -1026 -1027 0
-1025 1026 1027 0
1025 1026 -1027 0
1025 -1026 1027 0
1026 -5440 -5479 0
-1026 5440 0
-1026 5479 0
1027 -5488 -5489 0
-1027 5488 0
-1027 5489 0
1028 -5490 -5491 0
-1028 5490 0
-1028 5491 0
-1029 1030 1032 0
-1029 1031 1032 0
-1029 1030 1031 0
1029 -1030 -1031 0
1029 -1031 -1032 0
1029 -1030 -1032 0
1030 -5479 -5488 0
-1030 5479 0
-1030 5488 0
1031 -5489 -5490 0
-1031 5489 0
-1031 5490 0
1032 -5481 -5491 0
-1032 5481 0
-1032 5491 0
-1033 -1034 -1037 0
-1033 1034 1037 0
1033 1034 -1037 0
1033 -1034 1037 0
-1034 -1035 -1036 0
-1034 1035 1036 0
1034 1035 -1036 0
1034 -1035 1036 0
1035 -5481 -5492 0
-1035 5481 0
-1035 5492 0
1036 -5441 -5510 0
-1036 5441 0
-1036 5510 0
1037 -5493 -5494 0
-1037 5493 0
-1037 5494 0
-1038 1039 1041 0
-1038 1041 1045 0
-1038 1039 1045 0
1038 -1039 -1045 0
1038 -1041 -1045 0
1038 -1039 -1041 0
-1039 1032 1040 0
-1039 -1032 -1040 0
1039 -1032 1040 0
1039 1032 -1040 0
-1040 -1030 -1031 0
-1040 1030 1031 0
1040 1030 -1031 0
1040 -1030 1031 0
-1041 1042 1044 0
-1041 1043 1044 0
-1041 1042 1043 0
1041 -1042 -1043 0
1041 -1043 -1044 0
1041 -1042 -1044 0
1042 -5479 -5490 0
-1042 5479 0
-1042 5490 0
1043 -5481 -5489 0
-1043 5481 0
-1043 5489 0
1044 -5441 -5491 0
-1044 5441 0
-1044 5491 0
-1045 -1046 -1049 0
-1045 1046 1049 0
1045 1046 -1049 0
1045 -1046 1049 0
-1046 -1047 -1048 0
-1046 1047 1048 0
1046 1047 -1048 0
1046 -1047 1048 0
1047 -5441 -5492 0
-1047 5441 0
-1047 5492 0
1048 -5493 -5510 0
-1048 5493 0
-1048 5510 0
1049 -5494 -5495 0
-1049 5494 0
-1049 5495 0
1050 -1051 -1053 0
-1050 1051 0
-1050 1053 0
-1051 1052 0
1051 -1052 0
1052 -5440 5485 -5486 0
1052 -5440 -5486 5488 0
-1052 5440 0
-1052 5486 0
-1052 -5485 -5488 0
-1053 1054 1065 0
-1053 -1054 -1065 0
1053 -1054 1065 0
1053 1054 -1065 0
-1054 1055 1063 0
-1054 -1055 -1063 0
1054 -1055 1063 0
1054 1055 -1063 0
1055 -1056 -1059 0
-1055 1056 0
-1055 1059 0
-1056 -1057 -1058 0
-1056 1057 1058 0
1056 1057 -1058 0
1056 -1057 1058 0
1057 -5440 -5485 0
-1057 5440 0
-1057 5485 0
1058 -5486 -5488 0
-1058 5486 0
-1058 5488 0
-1059 1060 1062 0
-1059 1061 1062 0
-1059 1060 1061 0
1059 -1060 -1061 0
1059 -1061 -1062 0
1059 -1060 -1062 0
1060 -5440 -5476 0
-1060 5440 0
-1060 5476 0
1061 -5485 -5488 0
-1061 5485 0
-1061 5488 0
1062 -5486 -5490 0
-1062 5486 0
-1062 5490 0
-1063 1045 1064 0
-1063 -1045 -1064 0
1063 -1045 1064 0
1063 1045 -1064 0
-1064 1039 1041 0
-1064 -1039 -1041 0
1064 -1039 1041 0
1064 1039 -1041 0
-1065 1066 1068 0
-1065 1068 1072 0
-1065 1066 1072 0
1065 -1066 -1072 0
1065 -1068 -1072 0
1065 -1066 -1068 0
-1066 1044 1067 0
-1066 -1044 -1067 0
1066 -1044 1067 0
1066 1044 -1067 0
-1067 -1042 -1043 0
-1067 1042 1043 0
1067 1042 -1043 0
1067 -1042 1043 0
-1068 1069 1071 0
-1068 1070 1071 0
-1068 1069 1070 0
1068 -1069 -1070 0
1068 -1070 -1071 0
1068 -1069 -1071 0
1069 -5479 -5481 0
-1069 5479 0
-1069 5481 0
1070 -5441 -5489 0
-1070 5441 0
-1070 5489 0
1071 -5491 -5493 0
-1071 5491 0
-1071 5493 0
-1072 -1073 -1076 0
-1072 1073 1076 0
1072 1073 -1076 0
1072 -1073 1076 0
-1073 -1074 -1075 0
-1073 1074 1075 0
1073 1074 -1075 0
1073 -1074 1075 0
1074 -5492 -5493 0
-1074 5492 0
-1074 5493 0
1075 -5495 -5510 0
-1075 5495 0
-1075 5510 0
1076 -5494 -5496 0
-1076 5494 0
-1076 5496 0
-1077 -1078 -1087 0
-1077 1078 1087 0
1077 1078 -1087 0
1077 -1078 1087 0
-1078 1079 1080 0
-1078 -1079 -1080 0
1078 -1079 1080 0
1078 1079 -1080 0
-1079 1055 1063 0
-1079 1063 1065 0
-1079 1055 1065 0
1079 -1063 -1065 0
1079 -1055 -1063 0
1079 -1055 -1065 0
-1080 -1081 -1084 0
-1080 1081 1084 0
1080 1081 -1084 0
1080 -1081 1084 0
-1081 -1082 -1083 0
-1081 1082 1083 0
1081 1082 -1083 0
1081 -1082 1083 0
-1082 1047 1049 0
-1082 1048 1049 0
-1082 1047 1048 0
1082 -1047 -1048 0
1082 -1048 -1049 0
1082 -1047 -1049 0
1083 -5487 -5495 0
-1083 5487 0
-1083 5495 0
1084 -1085 -1086 0
-1084 1085 0
-1084 1086 0
1085 -5487 -5496 0
-1085 5487 0
-1085 5496 0
-1086 1074 1076 0
-1086 1075 1076 0
-1086 1074 1075 0
1086 -1074 -1075 0
1086 -1075 -1076 0
1086 -1074 -1076 0
1087 -1088 -1089 0
-1087 1088 0
-1087 1089 0
-1088 1085 1086 0
-1088 -1085 -1086 0
1088 -1085 1086 0
1088 1085 -1086 0
1089 -1090 -1091 0
-1089 1090 0
-1089 1091 0
1090 -5432 -5487 0
-1090 5432 0
-1090 5487 0
-1091 1092 1094 0
-1091 1093 1094 0
-1091 1092 1093 0
1091 -1092 -1093 0
1091 -1093 -1094 0
1091 -1092 -1094 0
1092 -5492 -5495 0
-1092 5492 0
-1092 5495 0
1093 -5496 -5510 0
-1093 5496 0
-1093 5510 0
1094 -5432 -5494 0
-1094 5432 0
-1094 5494 0
-1095 1096 1119 0
-1095 1096 1097 0
-1095 1097 1119 0
1095 -1097 -1119 0
1095 -1096 -1119 0
1095 -1096 -1097 0
-1096 1051 1053 0
-1096 -1051 -1053 0
1096 -1051 1053 0
1096 1051 -1053 0
1097 -1098 -1099 0
-1097 1098 0
-1097 1099 0
-1098 1056 1059 0
-1098 -1056 -1059 0
1098 -1056 1059 0
1098 1056 -1059 0
-1099 1100 1110 0
-1099 -1100 -1110 0
1099 -1100 1110 0
1099 1100 -1110 0
-1100 1101 1108 0
-1100 -1101 -1108 0
1100 -1101 1108 0
1100 1101 -1108 0
1101 -1102 -1104 0
-1101 1102 0
-1101 1104 0
-1102 1062 1103 0
-1102 -1062 -1103 0
1102 -1062 1103 0
1102 1062 -1103 0
-1103 -1060 -1061 0
-1103 1060 1061 0
1103 1060 -1061 0
1103 -1060 1061 0
-1104 1105 1107 0
-1104 1106 1107 0
-1104 1105 1106 0
1104 -1105 -1106 0
1104 -1106 -1107 0
1104 -1105 -1107 0
1105 -5476 -5488 0
-1105 5476 0
-1105 5488 0
1106 -5485 -5490 0
-1106 5485 0
-1106 5490 0
1107 -5481 -5486 0
-1107 5481 0
-1107 5486 0
-1108 1072 1109 0
-1108 -1072 -1109 0
1108 -1072 1109 0
1108 1072 -1109 0
-1109 1066 1068 0
-1109 -1066 -1068 0
1109 -1066 1068 0
1109 1066 -1068 0
-1110 1111 1113 0
-1110 1113 1117 0
-1110 1111 1117 0
1110 -1111 -1117 0
1110 -1113 -1117 0
1110 -1111 -1113 0
-1111 1071 1112 0
-1111 -1071 -1112 0
1111 -1071 1112 0
1111 1071 -1112 0
-1112 -1069 -1070 0
-1112 1069 1070 0
1112 1069 -1070 0
1112 -1069 1070 0
-1113 1114 1116 0
-1113 1115 1116 0
-1113 1114 1115 0
1113 -1114 -1115 0
1113 -1115 -1116 0
1113 -1114 -1116 0
1114 -5441 -5479 0
-1114 5441 0
-1114 5479 0
1115 -5489 -5493 0
-1115 5489 0
-1115 5493 0
1116 -5491 -5495 0
-1116 5491 0
-1116 5495 0
-1117 1094 1118 0
-1117 -1094 -1118 0
1117 -1094 1118 0
1117 1094 -1118 0
-1118 -1092 -1093 0
-1118 1092 1093 0
1118 1092 -1093 0
1118 -1092 1093 0
-1119 -1120 -1123 0
-1119 1120 1123 0
1119 1120 -1123 0
1119 -1120 1123 0
-1120 1121 1122 0
-1120 -1121 -1122 0
1120 -1121 1122 0
1120 1121 -1122 0
-1121 -1088 -1089 0
-1121 1088 1089 0
1121 1088 -1089 0
1121 -1088 1089 0
-1122 1101 1108 0
-1122 1108 1110 0
-1122 1101 1110 0
1122 -1108 -1110 0
1122 -1101 -1108 0
1122 -1101 -1110 0
1123 -1124 -1125 0
-1123 1124 0
-1123 1125 0
-1124 1090 1091 0
-1124 -1090 -1091 0
1124 -1090 1091 0
1124 1090 -1091 0
1125 -1126 -1127 0
-1125 1126 0
-1125 1127 0
1126 -5449 -5487 0
-1126 5449 0
-1126 5487 0
-1127 1128 1130 0
-1127 1129 1130 0
-1127 1128 1129 0
1127 -1128 -1129 0
1127 -1129 -1130 0
1127 -1128 -1130 0
1128 -5492 -5496 0
-1128 5492 0
-1128 5496 0
1129 -5432 -5510 0
-1129 5432 0
-1129 5510 0
1130 -5449 -5494 0
-1130 5449 0
-1130 5494 0
-1131 1121 1122 0
-1131 1122 1123 0
-1131 1121 1123 0
1131 -1122 -1123 0
1131 -1121 -1122 0
1131 -1121 -1123 0
-1132 1133 1135 0
-1132 1135 1175 0
-1132 1133 1175 0
1132 -1133 -1175 0
1132 -1135 -1175 0
1132 -1133 -1135 0
-1133 1119 1134 0
-1133 -1119 -1134 0
1133 -1119 1134 0
1133 1119 -1134 0
-1134 -1096 -1097 0
-1134 1096 1097 0
1134 1096 -1097 0
1134 -1096 1097 0
-1135 1136 1137 0
-1135 1137 1163 0
-1135 1136 1163 0
1135 -1136 -1163 0
1135 -1137 -1163 0
1135 -1136 -1137 0
-1136 1098 1099 0
-1136 -1098 -1099 0
1136 -1098 1099 0
1136 1098 -1099 0
-1137 1138 1149 0
-1137 1138 1139 0
-1137 1139 1149 0
1137 -1139 -1149 0
1137 -1138 -1149 0
1137 -1138 -1139 0
-1138 1102 1104 0
-1138 -1102 -1104 0
1138 -1102 1104 0
1138 1102 -1104 0
1139 -5440 -5468 -1140 0
-1139 5440 0
-1139 5468 0
-1139 1140 0
-1140 1141 1145 0
-1140 -1141 -1145 0
1140 -1141 1145 0
1140 1141 -1145 0
-1141 1142 1143 0
-1141 -1142 -1143 0
1141 -1142 1143 0
1141 1142 -1143 0
1142 -5440 -5468 -5484 -5488 0
-1142 5488 0
-1142 5440 0
-1142 5484 0
-1142 5468 0
-1143 1107 1144 0
-1143 -1107 -1144 0
1143 -1107 1144 0
1143 1107 -1144 0
-1144 -1105 -1106 0
-1144 1105 1106 0
1144 1105 -1106 0
1144 -1105 1106 0
-1145 1146 1148 0
-1145 1147 1148 0
-1145 1146 1147 0
1145 -1146 -1147 0
1145 -1147 -1148 0
1145 -1146 -1148 0
1146 -5476 -5490 0
-1146 5476 0
-1146 5490 0
1147 -5481 -5485 0
-1147 5481 0
-1147 5485 0
1148 -5441 -5486 0
-1148 5441 0
-1148 5486 0
-1149 1150 1154 0
-1149 -1150 -1154 0
1149 -1150 1154 0
1149 1150 -1154 0
-1150 1151 1152 0
-1150 -1151 -1152 0
1150 -1151 1152 0
1150 1151 -1152 0
-1151 1142 1143 0
-1151 1143 1145 0
-1151 1142 1145 0
1151 -1143 -1145 0
1151 -1142 -1143 0
1151 -1142 -1145 0
-1152 1117 1153 0
-1152 -1117 -1153 0
1152 -1117 1153 0
1152 1117 -1153 0
-1153 1111 1113 0
-1153 -1111 -1113 0
1153 -1111 1113 0
1153 1111 -1113 0
-1154 1155 1157 0
-1154 1157 1161 0
-1154 1155 1161 0
1154 -1155 -1161 0
1154 -1157 -1161 0
1154 -1155 -1157 0
-1155 1116 1156 0
-1155 -1116 -1156 0
1155 -1116 1156 0
1155 1116 -1156 0
-1156 -1114 -1115 0
-1156 1114 1115 0
1156 1114 -1115 0
1156 -1114 1115 0
-1157 1158 1160 0
-1157 1159 1160 0
-1157 1158 1159 0
1157 -1158 -1159 0
1157 -1159 -1160 0
1157 -1158 -1160 0
1158 -5479 -5493 0
-1158 5479 0
-1158 5493 0
1159 -5489 -5495 0
-1159 5489 0
-1159 5495 0
1160 -5491 -5496 0
-1160 5491 0
-1160 5496 0
-1161 1130 1162 0
-1161 -1130 -1162 0
1161 -1130 1162 0
1161 1130 -1162 0
-1162 -1128 -1129 0
-1162 1128 1129 0
1162 1128 -1129 0
1162 -1128 1129 0
-1163 -1164 -1167 0
-1163 1164 1167 0
1163 1164 -1167 0
1163 -1164 1167 0
-1164 1165 1166 0
-1164 -1165 -1166 0
1164 -1165 1166 0
1164 1165 -1166 0
-1165 -1124 -1125 0
-1165 1124 1125 0
1165 1124 -1125 0
1165 -1124 1125 0
-1166 1151 1152 0
-1166 1152 1154 0
-1166 1151 1154 0
1166 -1151 -1154 0
1166 -1152 -1154 0
1166 -1151 -1152 0
1167 -1168 -1169 0
-1167 1168 0
-1167 1169 0
-1168 1126 1127 0
-1168 -1126 -1127 0
1168 -1126 1127 0
1168 1126 -1127 0
1169 -1170 -1171 0
-1169 1170 0
-1169 1171 0
1170 -5438 -5487 0
-1170 5438 0
-1170 5487 0
-1171 1172 1174 0
-1171 1173 1174 0
-1171 1172 1173 0
1171 -1172 -1173 0
1171 -1173 -1174 0
1171 -1172 -1174 0
1172 -5432 -5492 0
-1172 5432 0
-1172 5492 0
1173 -5449 -5510 0
-1173 5449 0
-1173 5510 0
1174 -5438 -5494 0
-1174 5438 0
-1174 5494 0
-1175 1165 1166 0
-1175 1166 1167 0
-1175 1165 1167 0
1175 -1166 -1167 0
1175 -1165 -1166 0
1175 -1165 -1167 0
1176 -1177 -1179 0
-1176 1177 0
-1176 1179 0
-1177 1175 1178 0
-1177 -1175 -1178 0
1177 -1175 1178 0
1177 1175 -1178 0
-1178 1133 1135 0
-1178 -1133 -1135 0
1178 -1133 1135 0
1178 1133 -1135 0
-1179 1180 1182 0
-1179 1182 1230 0
-1179 1180 1230 0
1179 -1180 -1230 0
1179 -1182 -1230 0
1179 -1180 -1182 0
-1180 1163 1181 0
-1180 -1163 -1181 0
1180 -1163 1181 0
1180 1163 -1181 0
-1181 1136 1137 0
-1181 -1136 -1137 0
1181 -1136 1137 0
1181 1136 -1137 0
-1182 1183 1185 0
-1182 1185 1218 0
-1182 1183 1218 0
1182 -1183 -1218 0
1182 -1185 -1218 0
1182 -1183 -1185 0
-1183 1149 1184 0
-1183 -1149 -1184 0
1183 -1149 1184 0
1183 1149 -1184 0
-1184 -1138 -1139 0
-1184 1138 1139 0
1184 1138 -1139 0
1184 -1138 1139 0
-1185 1186 1204 0
-1185 1186 1188 0
-1185 1188 1204 0
1185 -1188 -1204 0
1185 -1186 -1204 0
1185 -1186 -1188 0
-1186 1187 1140 0
-1186 -1187 -1140 0
1186 -1187 1140 0
1186 1187 -1140 0
1187 -5440 -5468 0
-1187 5440 0
-1187 5468 0
1188 -1189 -1192 0
-1188 1189 0
-1188 1192 0
-1189 -1190 -1191 0
-1189 1190 1191 0
1189 1190 -1191 0
1189 -1190 1191 0
1190 -5440 -5484 0
-1190 5440 0
-1190 5484 0
1191 -5468 -5488 0
-1191 5468 0
-1191 5488 0
-1192 1193 1200 0
-1192 -1193 -1200 0
1192 -1193 1200 0
1192 1193 -1200 0
-1193 1194 1198 0
-1193 -1194 -1198 0
1193 -1194 1198 0
1193 1194 -1198 0
-1194 1195 1197 0
-1194 1196 1197 0
-1194 1195 1196 0
1194 -1195 -1196 0
1194 -1196 -1197 0
1194 -1195 -1197 0
1195 -5433 -5440 0
-1195 5433 0
-1195 5440 0
1196 -5484 -5488 0
-1196 5484 0
-1196 5488 0
1197 -5468 -5490 0
-1197 5468 0
-1197 5490 0
-1198 1148 1199 0
-1198 -1148 -1199 0
1198 -1148 1199 0
1198 1148 -1199 0
-1199 -1146 -1147 0
-1199 1146 1147 0
1199 1146 -1147 0
1199 -1146 1147 0
-1200 1201 1203 0
-1200 1202 1203 0
-1200 1201 1202 0
1200 -1201 -1202 0
1200 -1202 -1203 0
1200 -1201 -1203 0
1201 -5476 -5481 0
-1201 5476 0
-1201 5481 0
1202 -5441 -5485 0
-1202 5441 0
-1202 5485 0
1203 -5486 -5493 0
-1203 5486 0
-1203 5493 0
-1204 1205 1209 0
-1204 -1205 -1209 0
1204 -1205 1209 0
1204 1205 -1209 0
-1205 1206 1207 0
-1205 -1206 -1207 0
1205 -1206 1207 0
1205 1206 -1207 0
-1206 1194 1198 0
-1206 1198 1200 0
-1206 1194 1200 0
1206 -1194 -1200 0
1206 -1198 -1200 0
1206 -1194 -1198 0
-1207 1161 1208 0
-1207 -1161 -1208 0
1207 -1161 1208 0
1207 1161 -1208 0
-1208 1155 1157 0
-1208 -1155 -1157 0
1208 -1155 1157 0
1208 1155 -1157 0
-1209 1210 1212 0
-1209 1212 1216 0
-1209 1210 1216 0
1209 -1210 -1216 0
1209 -1212 -1216 0
1209 -1210 -1212 0
-1210 1160 1211 0
-1210 -1160 -1211 0
1210 -1160 1211 0
1210 1160 -1211 0
-1211 -1158 -1159 0
-1211 1158 1159 0
1211 1158 -1159 0
1211 -1158 1159 0
-1212 1213 1215 0
-1212 1214 1215 0
-1212 1213 1214 0
1212 -1213 -1214 0
1212 -1214 -1215 0
1212 -1213 -1215 0
1213 -5479 -5495 0
-1213 5479 0
-1213 5495 0
1214 -5489 -5496 0
-1214 5489 0
-1214 5496 0
1215 -5432 -5491 0
-1215 5432 0
-1215 5491 0
-1216 1174 1217 0
-1216 -1174 -1217 0
1216 -1174 1217 0
1216 1174 -1217 0
-1217 -1172 -1173 0
-1217 1172 1173 0
1217 1172 -1173 0
1217 -1172 1173 0
-1218 -1219 -1222 0
-1218 1219 1222 0
1218 1219 -1222 0
1218 -1219 1222 0
-1219 1220 1221 0
-1219 -1220 -1221 0
1219 -1220 1221 0
1219 1220 -1221 0
-1220 -1168 -1169 0
-1220 1168 1169 0
1220 1168 -1169 0
1220 -1168 1169 0
-1221 1206 1207 0
-1221 1207 1209 0
-1221 1206 1209 0
1221 -1206 -1209 0
1221 -1207 -1209 0
1221 -1206 -1207 0
1222 -1223 -1224 0
-1222 1223 0
-1222 1224 0
-1223 1170 1171 0
-1223 -1170 -1171 0
1223 -1170 1171 0
1223 1170 -1171 0
1224 -1225 -1226 0
-1224 1225 0
-1224 1226 0
1225 -5487 -5497 0
-1225 5487 0
-1225 5497 0
-1226 1227 1229 0
-1226 1228 1229 0
-1226 1227 1228 0
1226 -1227 -1228 0
1226 -1228 -1229 0
1226 -1227 -1229 0
1227 -5449 -5492 0
-1227 5449 0
-1227 5492 0
1228 -5438 -5510 0
-1228 5438 0
-1228 5510 0
1229 -5494 -5497 0
-1229 5494 0
-1229 5497 0
-1230 1220 1221 0
-1230 1221 1222 0
-1230 1220 1222 0
1230 -1221 -1222 0
1230 -1220 -1221 0
1230 -1220 -1222 0
1231 -1232 -1233 0
-1231 1232 0
-1231 1233 0
-1232 1177 1179 0
-1232 -1177 -1179 0
1232 -1177 1179 0
1232 1177 -1179 0
1233 -1234 -1236 0
-1233 1234 0
-1233 1236 0
-1234 1230 1235 0
-1234 -1230 -1235 0
1234 -1230 1235 0
1234 1230 -1235 0
-1235 1180 1182 0
-1235 -1180 -1182 0
1235 -1180 1182 0
1235 1180 -1182 0
-1236 1237 1239 0
-1236 1239 1292 0
-1236 1237 1292 0
1236 -1237 -1292 0
1236 -1239 -1292 0
1236 -1237 -1239 0
-1237 1218 1238 0
-1237 -1218 -1238 0
1237 -1218 1238 0
1237 1218 -1238 0
-1238 1183 1185 0
-1238 -1183 -1185 0
1238 -1183 1185 0
1238 1183 -1185 0
-1239 1240 1242 0
-1239 1242 1280 0
-1239 1240 1280 0
1239 -1240 -1280 0
1239 -1242 -1280 0
1239 -1240 -1242 0
-1240 1204 1241 0
-1240 -1204 -1241 0
1240 -1204 1241 0
1240 1204 -1241 0
-1241 -1186 -1188 0
-1241 1186 1188 0
1241 1186 -1188 0
1241 -1186 1188 0
-1242 1243 1244 0
-1242 1244 1266 0
-1242 1243 1266 0
1242 -1243 -1266 0
1242 -1244 -1266 0
1242 -1243 -1244 0
-1243 1189 1192 0
-1243 -1189 -1192 0
1243 -1189 1192 0
1243 1189 -1192 0
-1244 1245 1247 0
-1244 1247 1257 0
-1244 1245 1257 0
1244 -1245 -1257 0
1244 -1247 -1257 0
1244 -1245 -1247 0
-1245 -1246 -1197 0
-1245 1246 1197 0
1245 1246 -1197 0
1245 -1246 1197 0
-1246 -1195 -1196 0
-1246 1195 1196 0
1246 1195 -1196 0
1246 -1195 1196 0
-1247 1248 1255 0
-1247 1249 1250 0
-1247 1249 1255 0
-1247 1248 1250 0
1247 -1248 -1249 0
1247 -1250 -1255 0
1248 -5440 -5443 0
-1248 5440 0
-1248 5443 0
1249 -5440 -5443 -5483 -5488 0
-1249 5488 0
-1249 5440 0
-1249 5483 0
-1249 5443 0
-1250 -1251 -1254 0
-1250 1251 1254 0
1250 1251 -1254 0
1250 -1251 1254 0
-1251 -1252 -1253 0
-1251 1252 1253 0
1251 1252 -1253 0
1251 -1252 1253 0
1252 -5433 -5488 0
-1252 5433 0
-1252 5488 0
1253 -5484 -5490 0
-1253 5484 0
-1253 5490 0
1254 -5468 -5481 0
-1254 5468 0
-1254 5481 0
-1255 1256 0
1255 -1256 0
1256 -5440 -5443 5488 0
1256 -5440 -5443 5483 0
-1256 5440 0
-1256 5443 0
-1256 -5483 -5488 0
-1257 1258 1262 0
-1257 -1258 -1262 0
1257 -1258 1262 0
1257 1258 -1262 0
-1258 1259 1260 0
-1258 -1259 -1260 0
1258 -1259 1260 0
1258 1259 -1260 0
-1259 1252 1254 0
-1259 1253 1254 0
-1259 1252 1253 0
1259 -1252 -1253 0
1259 -1253 -1254 0
1259 -1252 -1254 0
-1260 1203 1261 0
-1260 -1203 -1261 0
1260 -1203 1261 0
1260 1203 -1261 0
-1261 -1201 -1202 0
-1261 1201 1202 0
1261 1201 -1202 0
1261 -1201 1202 0
-1262 1263 1265 0
-1262 1264 1265 0
-1262 1263 1264 0
1262 -1263 -1264 0
1262 -1264 -1265 0
1262 -1263 -1265 0
1263 -5441 -5476 0
-1263 5441 0
-1263 5476 0
1264 -5485 -5493 0
-1264 5485 0
-1264 5493 0
1265 -5486 -5495 0
-1265 5486 0
-1265 5495 0
-1266 1267 1271 0
-1266 -1267 -1271 0
1266 -1267 1271 0
1266 1267 -1271 0
-1267 1268 1269 0
-1267 -1268 -1269 0
1267 -1268 1269 0
1267 1268 -1269 0
-1268 1259 1260 0
-1268 1260 1262 0
-1268 1259 1262 0
1268 -1259 -1262 0
1268 -1260 -1262 0
1268 -1259 -1260 0
-1269 1216 1270 0
-1269 -1216 -1270 0
1269 -1216 1270 0
1269 1216 -1270 0
-1270 1210 1212 0
-1270 -1210 -1212 0
1270 -1210 1212 0
1270 1210 -1212 0
-1271 1272 1274 0
-1271 1274 1278 0
-1271 1272 1278 0
1271 -1272 -1278 0
1271 -1274 -1278 0
1271 -1272 -1274 0
-1272 1215 1273 0
-1272 -1215 -1273 0
1272 -1215 1273 0
1272 1215 -1273 0
-1273 -1213 -1214 0
-1273 1213 1214 0
1273 1213 -1214 0
1273 -1213 1214 0
-1274 1275 1277 0
-1274 1276 1277 0
-1274 1275 1276 0
1274 -1275 -1276 0
1274 -1276 -1277 0
1274 -1275 -1277 0
1275 -5479 -5496 0
-1275 5479 0
-1275 5496 0
1276 -5432 -5489 0
-1276 5432 0
-1276 5489 0
1277 -5449 -5491 0
-1277 5449 0
-1277 5491 0
-1278 1229 1279 0
-1278 -1229 -1279 0
1278 -1229 1279 0
1278 1229 -1279 0
-1279 -1227 -1228 0
-1279 1227 1228 0
1279 1227 -1228 0
1279 -1227 1228 0
-1280 -1281 -1284 0
-1280 1281 1284 0
1280 1281 -1284 0
1280 -1281 1284 0
-1281 1282 1283 0
-1281 -1282 -1283 0
1281 -1282 1283 0
1281 1282 -1283 0
-1282 -1223 -1224 0
-1282 1223 1224 0
1282 1223 -1224 0
1282 -1223 1224 0
-1283 1268 1269 0
-1283 1269 1271 0
-1283 1268 1271 0
1283 -1268 -1271 0
1283 -1269 -1271 0
1283 -1268 -1269 0
1284 -1285 -1286 0
-1284 1285 0
-1284 1286 0
-1285 1225 1226 0
-1285 -1225 -1226 0
1285 -1225 1226 0
1285 1225 -1226 0
1286 -1287 -1288 0
-1286 1287 0
-1286 1288 0
1287 -5447 -5487 0
-1287 5447 0
-1287 5487 0
-1288 1289 1291 0
-1288 1290 1291 0
-1288 1289 1290 0
1288 -1289 -1290 0
1288 -1290 -1291 0
1288 -1289 -1291 0
1289 -5438 -5492 0
-1289 5438 0
-1289 5492 0
1290 -5497 -5510 0
-1290 5497 0
-1290 5510 0
1291 -5447 -5494 0
-1291 5447 0
-1291 5494 0
-1292 1282 1283 0
-1292 1283 1284 0
-1292 1282 1284 0
1292 -1283 -1284 0
1292 -1282 -1283 0
1292 -1282 -1284 0
-1293 1294 1556 0
-1293 1556 1775 0
-1293 1556 1779 0
1293 -1556 0
1293 -1294 -1775 -1779 0
1294 -1295 -1430 0
-1294 1295 0
-1294 1430 0
1295 -1296 -1363 0
-1295 1296 0
-1295 1363 0
-1296 -1297 -1298 0
-1296 1297 1298 0
1296 1297 -1298 0
1296 -1297 1298 0
-1297 -1232 -1233 0
-1297 1232 1233 0
1297 1232 -1233 0
1297 -1232 1233 0
1298 -1299 -1300 0
-1298 1299 0
-1298 1300 0
-1299 1234 1236 0
-1299 -1234 -1236 0
1299 -1234 1236 0
1299 1234 -1236 0
1300 -1301 -1303 0
-1300 1301 0
-1300 1303 0
-1301 1292 1302 0
-1301 -1292 -1302 0
1301 -1292 1302 0
1301 1292 -1302 0
-1302 1237 1239 0
-1302 -1237 -1239 0
1302 -1237 1239 0
1302 1237 -1239 0
-1303 1304 1306 0
-1303 1306 1362 0
-1303 1304 1362 0
1303 -1304 -1362 0
1303 -1306 -1362 0
1303 -1304 -1306 0
-1304 1280 1305 0
-1304 -1280 -1305 0
1304 -1280 1305 0
1304 1280 -1305 0
-1305 1240 1242 0
-1305 -1240 -1242 0
1305 -1240 1242 0
1305 1240 -1242 0
-1306 1307 1309 0
-1306 1309 1350 0
-1306 1307 1350 0
1306 -1307 -1350 0
1306 -1309 -1350 0
1306 -1307 -1309 0
-1307 1266 1308 0
-1307 -1266 -1308 0
1307 -1266 1308 0
1307 1266 -1308 0
-1308 1243 1244 0
-1308 -1243 -1244 0
1308 -1243 1244 0
1308 1243 -1244 0
-1309 1310 1312 0
-1309 1312 1336 0
-1309 1310 1336 0
1309 -1310 -1336 0
1309 -1312 -1336 0
1309 -1310 -1312 0
-1310 1257 1311 0
-1310 -1257 -1311 0
1310 -1257 1311 0
1310 1257 -1311 0
-1311 1245 1247 0
-1311 -1245 -1247 0
1311 -1245 1247 0
1311 1245 -1247 0
-1312 1313 1314 0
-1312 1314 1327 0
-1312 1313 1327 0
1312 -1313 -1327 0
1312 -1314 -1327 0
1312 -1313 -1314 0
-1313 1250 1255 0
-1313 -1250 -1255 0
1313 -1250 1255 0
1313 1250 -1255 0
-1314 1315 1318 0
-1314 1318 1322 0
-1314 1315 1322 0
1314 -1315 -1322 0
1314 -1318 -1322 0
1314 -1315 -1318 0
-1315 -1316 -1317 0
-1315 1316 1317 0
1315 1316 -1317 0
1315 -1316 1317 0
1316 -5440 -5483 0
-1316 5440 0
-1316 5483 0
1317 -5443 -5488 0
-1317 5443 0
-1317 5488 0
-1318 1319 1321 0
-1318 1320 1321 0
-1318 1319 1320 0
1318 -1319 -1320 0
1318 -1320 -1321 0
1318 -1319 -1321 0
1319 -5440 -5482 0
-1319 5440 0
-1319 5482 0
1320 -5483 -5488 0
-1320 5483 0
-1320 5488 0
1321 -5443 -5490 0
-1321 5443 0
-1321 5490 0
-1322 -1323 -1326 0
-1322 1323 1326 0
1322 1323 -1326 0
1322 -1323 1326 0
-1323 -1324 -1325 0
-1323 1324 1325 0
1323 1324 -1325 0
1323 -1324 1325 0
1324 -5433 -5490 0
-1324 5433 0
-1324 5490 0
1325 -5481 -5484 0
-1325 5481 0
-1325 5484 0
1326 -5441 -5468 0
-1326 5441 0
-1326 5468 0
-1327 1328 1332 0
-1327 -1328 -1332 0
1327 -1328 1332 0
1327 1328 -1332 0
-1328 1329 1330 0
-1328 -1329 -1330 0
1328 -1329 1330 0
1328 1329 -1330 0
-1329 1324 1326 0
-1329 1325 1326 0
-1329 1324 1325 0
1329 -1324 -1325 0
1329 -1325 -1326 0
1329 -1324 -1326 0
-1330 1265 1331 0
-1330 -1265 -1331 0
1330 -1265 1331 0
1330 1265 -1331 0
-1331 -1263 -1264 0
-1331 1263 1264 0
1331 1263 -1264 0
1331 -1263 1264 0
-1332 1333 1335 0
-1332 1334 1335 0
-1332 1333 1334 0
1332 -1333 -1334 0
1332 -1334 -1335 0
1332 -1333 -1335 0
1333 -5476 -5493 0
-1333 5476 0
-1333 5493 0
1334 -5485 -5495 0
-1334 5485 0
-1334 5495 0
1335 -5486 -5496 0
-1335 5486 0
-1335 5496 0
-1336 1337 1341 0
-1336 -1337 -1341 0
1336 -1337 1341 0
1336 1337 -1341 0
-1337 1338 1339 0
-1337 -1338 -1339 0
1337 -1338 1339 0
1337 1338 -1339 0
-1338 1329 1330 0
-1338 1330 1332 0
-1338 1329 1332 0
1338 -1329 -1332 0
1338 -1330 -1332 0
1338 -1329 -1330 0
-1339 1278 1340 0
-1339 -1278 -1340 0
1339 -1278 1340 0
1339 1278 -1340 0
-1340 1272 1274 0
-1340 -1272 -1274 0
1340 -1272 1274 0
1340 1272 -1274 0
-1341 1342 1344 0
-1341 1344 1348 0
-1341 1342 1348 0
1341 -1342 -1348 0
1341 -1344 -1348 0
1341 -1342 -1344 0
-1342 1277 1343 0
-1342 -1277 -1343 0
1342 -1277 1343 0
1342 1277 -1343 0
-1343 -1275 -1276 0
-1343 1275 1276 0
1343 1275 -1276 0
1343 -1275 1276 0
-1344 1345 1347 0
-1344 1346 1347 0
-1344 1345 1346 0
1344 -1345 -1346 0
1344 -1346 -1347 0
1344 -1345 -1347 0
1345 -5432 -5479 0
-1345 5432 0
-1345 5479 0
1346 -5449 -5489 0
-1346 5449 0
-1346 5489 0
1347 -5438 -5491 0
-1347 5438 0
-1347 5491 0
-1348 1291 1349 0
-1348 -1291 -1349 0
1348 -1291 1349 0
1348 1291 -1349 0
-1349 -1289 -1290 0
-1349 1289 1290 0
1349 1289 -1290 0
1349 -1289 1290 0
-1350 -1351 -1354 0
-1350 1351 1354 0
1350 1351 -1354 0
1350 -1351 1354 0
-1351 1352 1353 0
-1351 -1352 -1353 0
1351 -1352 1353 0
1351 1352 -1353 0
-1352 -1285 -1286 0
-1352 1285 1286 0
1352 1285 -1286 0
1352 -1285 1286 0
-1353 1338 1339 0
-1353 1339 1341 0
-1353 1338 1341 0
1353 -1338 -1341 0
1353 -1339 -1341 0
1353 -1338 -1339 0
1354 -1355 -1356 0
-1354 1355 0
-1354 1356 0
-1355 1287 1288 0
-1355 -1287 -1288 0
1355 -1287 1288 0
1355 1287 -1288 0
1356 -1357 -1358 0
-1356 1357 0
-1356 1358 0
1357 -5487 -5498 0
-1357 5487 0
-1357 5498 0
-1358 1359 1361 0
-1358 1360 1361 0
-1358 1359 1360 0
1358 -1359 -1360 0
1358 -1360 -1361 0
1358 -1359 -1361 0
1359 -5492 -5497 0
-1359 5492 0
-1359 5497 0
1360 -5447 -5510 0
-1360 5447 0
-1360 5510 0
1361 -5494 -5498 0
-1361 5494 0
-1361 5498 0
-1362 1352 1353 0
-1362 1353 1354 0
-1362 1352 1354 0
1362 -1353 -1354 0
1362 -1352 -1353 0
1362 -1352 -1354 0
-1363 -1364 -1365 0
-1363 1364 1365 0
1363 1364 -1365 0
1363 -1364 1365 0
-1364 -1299 -1300 0
-1364 1299 1300 0
1364 1299 -1300 0
1364 -1299 1300 0
1365 -1366 -1367 0
-1365 1366 0
-1365 1367 0
-1366 1301 1303 0
-1366 -1301 -1303 0
1366 -1301 1303 0
1366 1301 -1303 0
1367 -1368 -1370 0
-1367 1368 0
-1367 1370 0
-1368 1362 1369 0
-1368 -1362 -1369 0
1368 -1362 1369 0
1368 1362 -1369 0
-1369 1304 1306 0
-1369 -1304 -1306 0
1369 -1304 1306 0
1369 1304 -1306 0
-1370 1371 1373 0
-1370 1373 1429 0
-1370 1371 1429 0
1370 -1371 -1429 0
1370 -1373 -1429 0
1370 -1371 -1373 0
-1371 1350 1372 0
-1371 -1350 -1372 0
1371 -1350 1372 0
1371 1350 -1372 0
-1372 1307 1309 0
-1372 -1307 -1309 0
1372 -1307 1309 0
1372 1307 -1309 0
-1373 1374 1376 0
-1373 1376 1417 0
-1373 1374 1417 0
1373 -1374 -1417 0
1373 -1376 -1417 0
1373 -1374 -1376 0
-1374 1336 1375 0
-1374 -1336 -1375 0
1374 -1336 1375 0
1374 1336 -1375 0
-1375 1310 1312 0
-1375 -1310 -1312 0
1375 -1310 1312 0
1375 1310 -1312 0
-1376 1377 1379 0
-1376 1379 1403 0
-1376 1377 1403 0
1376 -1377 -1403 0
1376 -1379 -1403 0
1376 -1377 -1379 0
-1377 1327 1378 0
-1377 -1327 -1378 0
1377 -1327 1378 0
1377 1327 -1378 0
-1378 1313 1314 0
-1378 -1313 -1314 0
1378 -1313 1314 0
1378 1313 -1314 0
-1379 1380 1382 0
-1379 1382 1394 0
-1379 1380 1394 0
1379 -1380 -1394 0
1379 -1382 -1394 0
1379 -1380 -1382 0
-1380 1322 1381 0
-1380 -1322 -1381 0
1380 -1322 1381 0
1380 1322 -1381 0
-1381 1315 1318 0
-1381 -1315 -1318 0
1381 -1315 1318 0
1381 1315 -1318 0
-1382 1383 1385 0
-1382 1385 1389 0
-1382 1383 1389 0
1382 -1383 -1389 0
1382 -1385 -1389 0
1382 -1383 -1385 0
-1383 1321 1384 0
-1383 -1321 -1384 0
1383 -1321 1384 0
1383 1321 -1384 0
-1384 -1319 -1320 0
-1384 1319 1320 0
1384 1319 -1320 0
1384 -1319 1320 0
-1385 1386 1388 0
-1385 1387 1388 0
-1385 1386 1387 0
1385 -1386 -1387 0
1385 -1387 -1388 0
1385 -1386 -1388 0
1386 -5482 -5488 0
-1386 5482 0
-1386 5488 0
1387 -5483 -5490 0
-1387 5483 0
-1387 5490 0
1388 -5443 -5481 0
-1388 5443 0
-1388 5481 0
-1389 -1390 -1393 0
-1389 1390 1393 0
1389 1390 -1393 0
1389 -1390 1393 0
-1390 -1391 -1392 0
-1390 1391 1392 0
1390 1391 -1392 0
1390 -1391 1392 0
1391 -5433 -5481 0
-1391 5433 0
-1391 5481 0
1392 -5441 -5484 0
-1392 5441 0
-1392 5484 0
1393 -5468 -5493 0
-1393 5468 0
-1393 5493 0
-1394 1395 1399 0
-1394 -1395 -1399 0
1394 -1395 1399 0
1394 1395 -1399 0
-1395 1396 1397 0
-1395 -1396 -1397 0
1395 -1396 1397 0
1395 1396 -1397 0
-1396 1391 1393 0
-1396 1392 1393 0
-1396 1391 1392 0
1396 -1391 -1392 0
1396 -1392 -1393 0
1396 -1391 -1393 0
-1397 1335 1398 0
-1397 -1335 -1398 0
1397 -1335 1398 0
1397 1335 -1398 0
-1398 -1333 -1334 0
-1398 1333 1334 0
1398 1333 -1334 0
1398 -1333 1334 0
-1399 1400 1402 0
-1399 1401 1402 0
-1399 1400 1401 0
1399 -1400 -1401 0
1399 -1401 -1402 0
1399 -1400 -1402 0
1400 -5476 -5495 0
-1400 5476 0
-1400 5495 0
1401 -5485 -5496 0
-1401 5485 0
-1401 5496 0
1402 -5432 -5486 0
-1402 5432 0
-1402 5486 0
-1403 1404 1408 0
-1403 -1404 -1408 0
1403 -1404 1408 0
1403 1404 -1408 0
-1404 1405 1406 0
-1404 -1405 -1406 0
1404 -1405 1406 0
1404 1405 -1406 0
-1405 1396 1397 0
-1405 1397 1399 0
-1405 1396 1399 0
1405 -1396 -1399 0
1405 -1397 -1399 0
1405 -1396 -1397 0
-1406 1348 1407 0
-1406 -1348 -1407 0
1406 -1348 1407 0
1406 1348 -1407 0
-1407 1342 1344 0
-1407 -1342 -1344 0
1407 -1342 1344 0
1407 1342 -1344 0
-1408 1409 1411 0
-1408 1411 1415 0
-1408 1409 1415 0
1408 -1409 -1415 0
1408 -1411 -1415 0
1408 -1409 -1411 0
-1409 1347 1410 0
-1409 -1347 -1410 0
1409 -1347 1410 0
1409 1347 -1410 0
-1410 -1345 -1346 0
-1410 1345 1346 0
1410 1345 -1346 0
1410 -1345 1346 0
-1411 1412 1414 0
-1411 1413 1414 0
-1411 1412 1413 0
1411 -1412 -1413 0
1411 -1413 -1414 0
1411 -1412 -1414 0
1412 -5449 -5479 0
-1412 5449 0
-1412 5479 0
1413 -5438 -5489 0
-1413 5438 0
-1413 5489 0
1414 -5491 -5497 0
-1414 5491 0
-1414 5497 0
-1415 1361 1416 0
-1415 -1361 -1416 0
1415 -1361 1416 0
1415 1361 -1416 0
-1416 -1359 -1360 0
-1416 1359 1360 0
1416 1359 -1360 0
1416 -1359 1360 0
-1417 -1418 -1421 0
-1417 1418 1421 0
1417 1418 -1421 0
1417 -1418 1421 0
-1418 1419 1420 0
-1418 -1419 -1420 0
1418 -1419 1420 0
1418 1419 -1420 0
-1419 -1355 -1356 0
-1419 1355 1356 0
1419 1355 -1356 0
1419 -1355 1356 0
-1420 1405 1406 0
-1420 1406 1408 0
-1420 1405 1408 0
1420 -1405 -1408 0
1420 -1406 -1408 0
1420 -1405 -1406 0
1421 -1422 -1423 0
-1421 1422 0
-1421 1423 0
-1422 1357 1358 0
-1422 -1357 -1358 0
1422 -1357 1358 0
1422 1357 -1358 0
1423 -1424 -1425 0
-1423 1424 0
-1423 1425 0
1424 -5487 -5499 0
-1424 5487 0
-1424 5499 0
-1425 1426 1428 0
-1425 1427 1428 0
-1425 1426 1427 0
1425 -1426 -1427 0
1425 -1427 -1428 0
1425 -1426 -1428 0
1426 -5447 -5492 0
-1426 5447 0
-1426 5492 0
1427 -5498 -5510 0
-1427 5498 0
-1427 5510 0
1428 -5494 -5499 0
-1428 5494 0
-1428 5499 0
-1429 1419 1420 0
-1429 1420 1421 0
-1429 1419 1421 0
1429 -1420 -1421 0
1429 -1419 -1420 0
1429 -1419 -1421 0
1430 -1431 -1498 0
-1430 1431 0
-1430 1498 0
-1431 -1432 -1433 0
-1431 1432 1433 0
1431 1432 -1433 0
1431 -1432 1433 0
-1432 -1366 -1367 0
-1432 1366 1367 0
1432 1366 -1367 0
1432 -1366 1367 0
1433 -1434 -1435 0
-1433 1434 0
-1433 1435 0
-1434 1368 1370 0
-1434 -1368 -1370 0
1434 -1368 1370 0
1434 1368 -1370 0
1435 -1436 -1438 0
-1435 1436 0
-1435 1438 0
-1436 1429 1437 0
-1436 -1429 -1437 0
1436 -1429 1437 0
1436 1429 -1437 0
-1437 1371 1373 0
-1437 -1371 -1373 0
1437 -1371 1373 0
1437 1371 -1373 0
-1438 1439 1441 0
-1438 1441 1497 0
-1438 1439 1497 0
1438 -1439 -1497 0
1438 -1441 -1497 0
1438 -1439 -1441 0
-1439 1417 1440 0
-1439 -1417 -1440 0
1439 -1417 1440 0
1439 1417 -1440 0
-1440 1374 1376 0
-1440 -1374 -1376 0
1440 -1374 1376 0
1440 1374 -1376 0
-1441 1442 1444 0
-1441 1444 1485 0
-1441 1442 1485 0
1441 -1442 -1485 0
1441 -1444 -1485 0
1441 -1442 -1444 0
-1442 1403 1443 0
-1442 -1403 -1443 0
1442 -1403 1443 0
1442 1403 -1443 0
-1443 1377 1379 0
-1443 -1377 -1379 0
1443 -1377 1379 0
1443 1377 -1379 0
-1444 1445 1447 0
-1444 1447 1471 0
-1444 1445 1471 0
1444 -1445 -1471 0
1444 -1447 -1471 0
1444 -1445 -1447 0
-1445 1394 1446 0
-1445 -1394 -1446 0
1445 -1394 1446 0
1445 1394 -1446 0
-1446 1380 1382 0
-1446 -1380 -1382 0
1446 -1380 1382 0
1446 1380 -1382 0
-1447 1448 1450 0
-1447 1450 1462 0
-1447 1448 1462 0
1447 -1448 -1462 0
1447 -1450 -1462 0
1447 -1448 -1450 0
-1448 1389 1449 0
-1448 -1389 -1449 0
1448 -1389 1449 0
1448 1389 -1449 0
-1449 1383 1385 0
-1449 -1383 -1385 0
1449 -1383 1385 0
1449 1383 -1385 0
-1450 1451 1453 0
-1450 1453 1457 0
-1450 1451 1457 0
1450 -1451 -1457 0
1450 -1453 -1457 0
1450 -1451 -1453 0
-1451 1388 1452 0
-1451 -1388 -1452 0
1451 -1388 1452 0
1451 1388 -1452 0
-1452 -1386 -1387 0
-1452 1386 1387 0
1452 1386 -1387 0
1452 -1386 1387 0
-1453 1454 1456 0
-1453 1455 1456 0
-1453 1454 1455 0
1453 -1454 -1455 0
1453 -1455 -1456 0
1453 -1454 -1456 0
1454 -5482 -5490 0
-1454 5482 0
-1454 5490 0
1455 -5481 -5483 0
-1455 5481 0
-1455 5483 0
1456 -5441 -5443 0
-1456 5441 0
-1456 5443 0
-1457 -1458 -1461 0
-1457 1458 1461 0
1457 1458 -1461 0
1457 -1458 1461 0
-1458 -1459 -1460 0
-1458 1459 1460 0
1458 1459 -1460 0
1458 -1459 1460 0
1459 -5433 -5441 0
-1459 5433 0
-1459 5441 0
1460 -5484 -5493 0
-1460 5484 0
-1460 5493 0
1461 -5468 -5495 0
-1461 5468 0
-1461 5495 0
-1462 1463 1467 0
-1462 -1463 -1467 0
1462 -1463 1467 0
1462 1463 -1467 0
-1463 1464 1465 0
-1463 -1464 -1465 0
1463 -1464 1465 0
1463 1464 -1465 0
-1464 1459 1461 0
-1464 1460 1461 0
-1464 1459 1460 0
1464 -1459 -1460 0
1464 -1460 -1461 0
1464 -1459 -1461 0
-1465 1402 1466 0
-1465 -1402 -1466 0
1465 -1402 1466 0
1465 1402 -1466 0
-1466 -1400 -1401 0
-1466 1400 1401 0
1466 1400 -1401 0
1466 -1400 1401 0
-1467 1468 1470 0
-1467 1469 1470 0
-1467 1468 1469 0
1467 -1468 -1469 0
1467 -1469 -1470 0
1467 -1468 -1470 0
1468 -5476 -5496 0
-1468 5476 0
-1468 5496 0
1469 -5432 -5485 0
-1469 5432 0
-1469 5485 0
1470 -5449 -5486 0
-1470 5449 0
-1470 5486 0
-1471 1472 1476 0
-1471 -1472 -1476 0
1471 -1472 1476 0
1471 1472 -1476 0
-1472 1473 1474 0
-1472 -1473 -1474 0
1472 -1473 1474 0
1472 1473 -1474 0
-1473 1464 1465 0
-1473 1465 1467 0
-1473 1464 1467 0
1473 -1464 -1467 0
1473 -1465 -1467 0
1473 -1464 -1465 0
-1474 1415 1475 0
-1474 -1415 -1475 0
1474 -1415 1475 0
1474 1415 -1475 0
-1475 1409 1411 0
-1475 -1409 -1411 0
1475 -1409 1411 0
1475 1409 -1411 0
-1476 1477 1479 0
-1476 1479 1483 0
-1476 1477 1483 0
1476 -1477 -1483 0
1476 -1479 -1483 0
1476 -1477 -1479 0
-1477 1414 1478 0
-1477 -1414 -1478 0
1477 -1414 1478 0
1477 1414 -1478 0
-1478 -1412 -1413 0
-1478 1412 1413 0
1478 1412 -1413 0
1478 -1412 1413 0
-1479 1480 1482 0
-1479 1481 1482 0
-1479 1480 1481 0
1479 -1480 -1481 0
1479 -1481 -1482 0
1479 -1480 -1482 0
1480 -5438 -5479 0
-1480 5438 0
-1480 5479 0
1481 -5489 -5497 0
-1481 5489 0
-1481 5497 0
1482 -5447 -5491 0
-1482 5447 0
-1482 5491 0
-1483 1428 1484 0
-1483 -1428 -1484 0
1483 -1428 1484 0
1483 1428 -1484 0
-1484 -1426 -1427 0
-1484 1426 1427 0
1484 1426 -1427 0
1484 -1426 1427 0
-1485 -1486 -1489 0
-1485 1486 1489 0
1485 1486 -1489 0
1485 -1486 1489 0
-1486 1487 1488 0
-1486 -1487 -1488 0
1486 -1487 1488 0
1486 1487 -1488 0
-1487 -1422 -1423 0
-1487 1422 1423 0
1487 1422 -1423 0
1487 -1422 1423 0
-1488 1473 1474 0
-1488 1474 1476 0
-1488 1473 1476 0
1488 -1473 -1476 0
1488 -1474 -1476 0
1488 -1473 -1474 0
1489 -1490 -1491 0
-1489 1490 0
-1489 1491 0
-1490 1424 1425 0
-1490 -1424 -1425 0
1490 -1424 1425 0
1490 1424 -1425 0
1491 -1492 -1493 0
-1491 1492 0
-1491 1493 0
1492 -5487 -5500 0
-1492 5487 0
-1492 5500 0
-1493 1494 1496 0
-1493 1495 1496 0
-1493 1494 1495 0
1493 -1494 -1495 0
1493 -1495 -1496 0
1493 -1494 -1496 0
1494 -5492 -5498 0
-1494 5492 0
-1494 5498 0
1495 -5499 -5510 0
-1495 5499 0
-1495 5510 0
1496 -5494 -5500 0
-1496 5494 0
-1496 5500 0
-1497 1487 1488 0
-1497 1488 1489 0
-1497 1487 1489 0
1497 -1488 -1489 0
1497 -1487 -1488 0
1497 -1487 -1489 0
-1498 -1499 -1500 0
-1498 1499 1500 0
1498 1499 -1500 0
1498 -1499 1500 0
-1499 -1434 -1435 0
-1499 1434 1435 0
1499 1434 -1435 0
1499 -1434 1435 0
1500 -1501 -1502 0
-1500 1501 0
-1500 1502 0
-1501 1436 1438 0
-1501 -1436 -1438 0
1501 -1436 1438 0
1501 1436 -1438 0
1502 -1503 -1505 0
-1502 1503 0
-1502 1505 0
-1503 1497 1504 0
-1503 -1497 -1504 0
1503 -1497 1504 0
1503 1497 -1504 0
-1504 1439 1441 0
-1504 -1439 -1441 0
1504 -1439 1441 0
1504 1439 -1441 0
-1505 1506 1508 0
-1505 1508 1555 0
-1505 1506 1555 0
1505 -1508 -1555 0
1505 -1506 -1508 0
1505 -1506 -1555 0
-1506 1485 1507 0
-1506 -1485 -1507 0
1506 -1485 1507 0
1506 1485 -1507 0
-1507 1442 1444 0
-1507 -1442 -1444 0
1507 -1442 1444 0
1507 1442 -1444 0
-1508 1509 1511 0
-1508 1511 1552 0
-1508 1509 1552 0
1508 -1509 -1552 0
1508 -1511 -1552 0
1508 -1509 -1511 0
-1509 1471 1510 0
-1509 -1471 -1510 0
1509 -1471 1510 0
1509 1471 -1510 0
-1510 1445 1447 0
-1510 -1445 -1447 0
1510 -1445 1447 0
1510 1445 -1447 0
-1511 1512 1514 0
-1511 1514 1538 0
-1511 1512 1538 0
1511 -1512 -1538 0
1511 -1514 -1538 0
1511 -1512 -1514 0
-1512 1462 1513 0
-1512 -1462 -1513 0
1512 -1462 1513 0
1512 1462 -1513 0
-1513 1448 1450 0
-1513 -1448 -1450 0
1513 -1448 1450 0
1513 1448 -1450 0
-1514 1515 1517 0
-1514 1517 1529 0
-1514 1515 1529 0
1514 -1515 -1529 0
1514 -1517 -1529 0
1514 -1515 -1517 0
-1515 1457 1516 0
-1515 -1457 -1516 0
1515 -1457 1516 0
1515 1457 -1516 0
-1516 1451 1453 0
-1516 -1451 -1453 0
1516 -1451 1453 0
1516 1451 -1453 0
-1517 1518 1520 0
-1517 1520 1524 0
-1517 1518 1524 0
1517 -1518 -1524 0
1517 -1520 -1524 0
1517 -1518 -1520 0
-1518 1456 1519 0
-1518 -1456 -1519 0
1518 -1456 1519 0
1518 1456 -1519 0
-1519 -1454 -1455 0
-1519 1454 1455 0
1519 1454 -1455 0
1519 -1454 1455 0
-1520 1521 1523 0
-1520 1522 1523 0
-1520 1521 1522 0
1520 -1521 -1522 0
1520 -1522 -1523 0
1520 -1521 -1523 0
1521 -5481 -5482 0
-1521 5481 0
-1521 5482 0
1522 -5441 -5483 0
-1522 5441 0
-1522 5483 0
1523 -5443 -5493 0
-1523 5443 0
-1523 5493 0
-1524 -1525 -1528 0
-1524 1525 1528 0
1524 1525 -1528 0
1524 -1525 1528 0
-1525 -1526 -1527 0
-1525 1526 1527 0
1525 1526 -1527 0
1525 -1526 1527 0
1526 -5433 -5493 0
-1526 5433 0
-1526 5493 0
1527 -5484 -5495 0
-1527 5484 0
-1527 5495 0
1528 -5468 -5496 0
-1528 5468 0
-1528 5496 0
-1529 1530 1534 0
-1529 -1530 -1534 0
1529 -1530 1534 0
1529 1530 -1534 0
-1530 1531 1532 0
-1530 -1531 -1532 0
1530 -1531 1532 0
1530 1531 -1532 0
-1531 1526 1528 0
-1531 1527 1528 0
-1531 1526 1527 0
1531 -1526 -1527 0
1531 -1527 -1528 0
1531 -1526 -1528 0
-1532 1470 1533 0
-1532 -1470 -1533 0
1532 -1470 1533 0
1532 1470 -1533 0
-1533 -1468 -1469 0
-1533 1468 1469 0
1533 1468 -1469 0
1533 -1468 1469 0
-1534 1535 1537 0
-1534 1536 1537 0
-1534 1535 1536 0
1534 -1535 -1536 0
1534 -1536 -1537 0
1534 -1535 -1537 0
1535 -5432 -5476 0
-1535 5432 0
-1535 5476 0
1536 -5449 -5485 0
-1536 5449 0
-1536 5485 0
1537 -5438 -5486 0
-1537 5438 0
-1537 5486 0
-1538 1539 1543 0
-1538 -1539 -1543 0
1538 -1539 1543 0
1538 1539 -1543 0
-1539 1540 1541 0
-1539 -1540 -1541 0
1539 -1540 1541 0
1539 1540 -1541 0
-1540 1531 1532 0
-1540 1532 1534 0
-1540 1531 1534 0
1540 -1531 -1534 0
1540 -1532 -1534 0
1540 -1531 -1532 0
-1541 1483 1542 0
-1541 -1483 -1542 0
1541 -1483 1542 0
1541 1483 -1542 0
-1542 1477 1479 0
-1542 -1477 -1479 0
1542 -1477 1479 0
1542 1477 -1479 0
-1543 1544 1546 0
-1543 1546 1550 0
-1543 1544 1550 0
1543 -1544 -1550 0
1543 -1546 -1550 0
1543 -1544 -1546 0
-1544 1482 1545 0
-1544 -1482 -1545 0
1544 -1482 1545 0
1544 1482 -1545 0
-1545 -1480 -1481 0
-1545 1480 1481 0
1545 1480 -1481 0
1545 -1480 1481 0
-1546 1547 1549 0
-1546 1548 1549 0
-1546 1547 1548 0
1546 -1547 -1548 0
1546 -1548 -1549 0
1546 -1547 -1549 0
1547 -5479 -5497 0
-1547 5479 0
-1547 5497 0
1548 -5447 -5489 0
-1548 5447 0
-1548 5489 0
1549 -5491 -5498 0
-1549 5491 0
-1549 5498 0
-1550 1496 1551 0
-1550 -1496 -1551 0
1550 -1496 1551 0
1550 1496 -1551 0
-1551 -1494 -1495 0
-1551 1494 1495 0
1551 1494 -1495 0
1551 -1494 1495 0
-1552 1553 1554 0
-1552 -1553 -1554 0
1552 -1553 1554 0
1552 1553 -1554 0
-1553 -1490 -1491 0
-1553 1490 1491 0
1553 1490 -1491 0
1553 -1490 1491 0
-1554 1540 1541 0
-1554 1541 1543 0
-1554 1540 1543 0
1554 -1540 -1543 0
1554 -1541 -1543 0
1554 -1540 -1541 0
1555 -1553 -1554 0
-1555 1553 0
-1555 1554 0
-1556 1557 1559 1294 0
-1556 1557 1559 1562 0
1556 -1557 0
1556 -1559 0
1556 -1294 -1562 0
-1557 1298 1558 0
-1557 1297 1298 0
-1557 1297 1558 0
1557 -1297 -1298 0
1557 -1298 -1558 0
1557 -1297 -1558 0
1558 -1364 -1365 0
-1558 1364 0
-1558 1365 0
1559 -1295 -1560 0
-1559 1295 0
-1559 1560 0
-1560 1433 1561 0
-1560 1432 1433 0
-1560 1432 1561 0
1560 -1432 -1433 0
1560 -1433 -1561 0
1560 -1432 -1561 0
1561 -1499 -1500 0
-1561 1499 0
-1561 1500 0
-1562 1563 1564 1678 0
-1562 1563 1621 1678 0
-1562 1564 1621 1678 0
1562 -1563 -1564 0
1562 -1564 -1621 0
1562 -1678 0
1562 -1563 -1621 0
-1563 -1501 -1502 0
-1563 1501 1502 0
1563 1501 -1502 0
1563 -1501 1502 0
1564 -1565 -1566 0
-1564 1565 0
-1564 1566 0
-1565 1503 1505 0
-1565 -1503 -1505 0
1565 -1503 1505 0
1565 1503 -1505 0
1566 -1567 -1569 0
-1566 1567 0
-1566 1569 0
-1567 1555 1568 0
-1567 -1555 -1568 0
1567 -1555 1568 0
1567 1555 -1568 0
-1568 1506 1508 0
-1568 -1506 -1508 0
1568 -1506 1508 0
1568 1506 -1508 0
-1569 1570 1572 0
-1569 1572 1620 0
-1569 1570 1620 0
1569 -1572 -1620 0
1569 -1570 -1572 0
1569 -1570 -1620 0
-1570 1552 1571 0
-1570 -1552 -1571 0
1570 -1552 1571 0
1570 1552 -1571 0
-1571 1509 1511 0
-1571 -1509 -1511 0
1571 -1509 1511 0
1571 1509 -1511 0
-1572 1573 1575 0
-1572 1575 1617 0
-1572 1573 1617 0
1572 -1573 -1617 0
1572 -1575 -1617 0
1572 -1573 -1575 0
-1573 1538 1574 0
-1573 -1538 -1574 0
1573 -1538 1574 0
1573 1538 -1574 0
-1574 1512 1514 0
-1574 -1512 -1514 0
1574 -1512 1514 0
1574 1512 -1514 0
-1575 1576 1578 0
-1575 1578 1602 0
-1575 1576 1602 0
1575 -1576 -1602 0
1575 -1578 -1602 0
1575 -1576 -1578 0
-1576 1529 1577 0
-1576 -1529 -1577 0
1576 -1529 1577 0
1576 1529 -1577 0
-1577 1515 1517 0
-1577 -1515 -1517 0
1577 -1515 1517 0
1577 1515 -1517 0
-1578 1579 1581 0
-1578 1581 1593 0
-1578 1579 1593 0
1578 -1579 -1593 0
1578 -1581 -1593 0
1578 -1579 -1581 0
-1579 1524 1580 0
-1579 -1524 -1580 0
1579 -1524 1580 0
1579 1524 -1580 0
-1580 1518 1520 0
-1580 -1518 -1520 0
1580 -1518 1520 0
1580 1518 -1520 0
-1581 1582 1584 0
-1581 1584 1588 0
-1581 1582 1588 0
1581 -1582 -1588 0
1581 -1584 -1588 0
1581 -1582 -1584 0
-1582 1523 1583 0
-1582 -1523 -1583 0
1582 -1523 1583 0
1582 1523 -1583 0
-1583 -1521 -1522 0
-1583 1521 1522 0
1583 1521 -1522 0
1583 -1521 1522 0
-1584 1585 1587 0
-1584 1586 1587 0
-1584 1585 1586 0
1584 -1585 -1586 0
1584 -1586 -1587 0
1584 -1585 -1587 0
1585 -5441 -5482 0
-1585 5441 0
-1585 5482 0
1586 -5483 -5493 0
-1586 5483 0
-1586 5493 0
1587 -5443 -5495 0
-1587 5443 0
-1587 5495 0
-1588 -1589 -1592 0
-1588 1589 1592 0
1588 1589 -1592 0
1588 -1589 1592 0
-1589 -1590 -1591 0
-1589 1590 1591 0
1589 1590 -1591 0
1589 -1590 1591 0
1590 -5433 -5495 0
-1590 5433 0
-1590 5495 0
1591 -5484 -5496 0
-1591 5484 0
-1591 5496 0
1592 -5432 -5468 0
-1592 5432 0
-1592 5468 0
-1593 1594 1598 0
-1593 -1594 -1598 0
1593 -1594 1598 0
1593 1594 -1598 0
-1594 1595 1596 0
-1594 -1595 -1596 0
1594 -1595 1596 0
1594 1595 -1596 0
-1595 1590 1592 0
-1595 1591 1592 0
-1595 1590 1591 0
1595 -1590 -1591 0
1595 -1591 -1592 0
1595 -1590 -1592 0
-1596 1537 1597 0
-1596 -1537 -1597 0
1596 -1537 1597 0
1596 1537 -1597 0
-1597 -1535 -1536 0
-1597 1535 1536 0
1597 1535 -1536 0
1597 -1535 1536 0
-1598 1599 1601 0
-1598 1600 1601 0
-1598 1599 1600 0
1598 -1599 -1600 0
1598 -1600 -1601 0
1598 -1599 -1601 0
1599 -5449 -5476 0
-1599 5449 0
-1599 5476 0
1600 -5438 -5485 0
-1600 5438 0
-1600 5485 0
1601 -5486 -5497 0
-1601 5486 0
-1601 5497 0
-1602 1603 1607 0
-1602 -1603 -1607 0
1602 -1603 1607 0
1602 1603 -1607 0
-1603 1604 1605 0
-1603 -1604 -1605 0
1603 -1604 1605 0
1603 1604 -1605 0
-1604 1595 1596 0
-1604 1596 1598 0
-1604 1595 1598 0
1604 -1595 -1598 0
1604 -1596 -1598 0
1604 -1595 -1596 0
-1605 1550 1606 0
-1605 -1550 -1606 0
1605 -1550 1606 0
1605 1550 -1606 0
-1606 1544 1546 0
-1606 -1544 -1546 0
1606 -1544 1546 0
1606 1544 -1546 0
-1607 1608 1610 0
-1607 1610 1614 0
-1607 1608 1614 0
1607 -1608 -1614 0
1607 -1610 -1614 0
1607 -1608 -1610 0
-1608 1549 1609 0
-1608 -1549 -1609 0
1608 -1549 1609 0
1608 1549 -1609 0
-1609 -1547 -1548 0
-1609 1547 1548 0
1609 1547 -1548 0
1609 -1547 1548 0
-1610 1611 1613 0
-1610 1612 1613 0
-1610 1611 1612 0
1610 -1611 -1612 0
1610 -1612 -1613 0
1610 -1611 -1613 0
1611 -5447 -5479 0
-1611 5447 0
-1611 5479 0
1612 -5489 -5498 0
-1612 5489 0
-1612 5498 0
1613 -5491 -5499 0
-1613 5491 0
-1613 5499 0
-1614 -1615 -1616 0
-1614 1615 1616 0
1614 1615 -1616 0
1614 -1615 1616 0
1615 -5492 -5499 0
-1615 5492 0
-1615 5499 0
1616 -5500 -5510 0
-1616 5500 0
-1616 5510 0
-1617 1618 1619 0
-1617 -1618 -1619 0
1617 -1618 1619 0
1617 1618 -1619 0
-1618 1492 1493 0
-1618 -1492 -1493 0
1618 -1492 1493 0
1618 1492 -1493 0
-1619 1604 1605 0
-1619 1605 1607 0
-1619 1604 1607 0
1619 -1604 -1607 0
1619 -1605 -1607 0
1619 -1604 -1605 0
1620 -1618 -1619 0
-1620 1618 0
-1620 1619 0
1621 -1622 -1623 0
-1621 1622 0
-1621 1623 0
-1622 -1565 -1566 0
-1622 1565 1566 0
1622 1565 -1566 0
1622 -1565 1566 0
1623 -1624 -1625 0
-1623 1624 0
-1623 1625 0
-1624 1567 1569 0
-1624 -1567 -1569 0
1624 -1567 1569 0
1624 1567 -1569 0
1625 -1626 -1628 0
-1625 1626 0
-1625 1628 0
-1626 1620 1627 0
-1626 -1620 -1627 0
1626 -1620 1627 0
1626 1620 -1627 0
-1627 1570 1572 0
-1627 -1570 -1572 0
1627 -1570 1572 0
1627 1570 -1572 0
-1628 1629 1631 0
-1628 1631 1677 0
-1628 1629 1677 0
1628 -1631 -1677 0
1628 -1629 -1631 0
1628 -1629 -1677 0
-1629 1617 1630 0
-1629 -1617 -1630 0
1629 -1617 1630 0
1629 1617 -1630 0
-1630 1573 1575 0
-1630 -1573 -1575 0
1630 -1573 1575 0
1630 1573 -1575 0
-1631 1632 1634 0
-1631 1634 1674 0
-1631 1632 1674 0
1631 -1632 -1674 0
1631 -1634 -1674 0
1631 -1632 -1634 0
-1632 1602 1633 0
-1632 -1602 -1633 0
1632 -1602 1633 0
1632 1602 -1633 0
-1633 1576 1578 0
-1633 -1576 -1578 0
1633 -1576 1578 0
1633 1576 -1578 0
-1634 1635 1637 0
-1634 1637 1661 0
-1634 1635 1661 0
1634 -1635 -1661 0
1634 -1637 -1661 0
1634 -1635 -1637 0
-1635 1593 1636 0
-1635 -1593 -1636 0
1635 -1593 1636 0
1635 1593 -1636 0
-1636 1579 1581 0
-1636 -1579 -1581 0
1636 -1579 1581 0
1636 1579 -1581 0
-1637 1638 1640 0
-1637 1640 1652 0
-1637 1638 1652 0
1637 -1638 -1652 0
1637 -1640 -1652 0
1637 -1638 -1640 0
-1638 1588 1639 0
-1638 -1588 -1639 0
1638 -1588 1639 0
1638 1588 -1639 0
-1639 1582 1584 0
-1639 -1582 -1584 0
1639 -1582 1584 0
1639 1582 -1584 0
-1640 1641 1643 0
-1640 1643 1647 0
-1640 1641 1647 0
1640 -1641 -1647 0
1640 -1643 -1647 0
1640 -1641 -1643 0
-1641 1587 1642 0
-1641 -1587 -1642 0
1641 -1587 1642 0
1641 1587 -1642 0
-1642 -1585 -1586 0
-1642 1585 1586 0
1642 1585 -1586 0
1642 -1585 1586 0
-1643 1644 1646 0
-1643 1645 1646 0
-1643 1644 1645 0
1643 -1644 -1645 0
1643 -1645 -1646 0
1643 -1644 -1646 0
1644 -5482 -5493 0
-1644 5482 0
-1644 5493 0
1645 -5483 -5495 0
-1645 5483 0
-1645 5495 0
1646 -5443 -5496 0
-1646 5443 0
-1646 5496 0
-1647 -1648 -1651 0
-1647 1648 1651 0
1647 1648 -1651 0
1647 -1648 1651 0
-1648 -1649 -1650 0
-1648 1649 1650 0
1648 1649 -1650 0
1648 -1649 1650 0
1649 -5433 -5496 0
-1649 5433 0
-1649 5496 0
1650 -5432 -5484 0
-1650 5432 0
-1650 5484 0
1651 -5449 -5468 0
-1651 5449 0
-1651 5468 0
-1652 1653 1657 0
-1652 -1653 -1657 0
1652 -1653 1657 0
1652 1653 -1657 0
-1653 1654 1655 0
-1653 -1654 -1655 0
1653 -1654 1655 0
1653 1654 -1655 0
-1654 1649 1651 0
-1654 1650 1651 0
-1654 1649 1650 0
1654 -1649 -1650 0
1654 -1650 -1651 0
1654 -1649 -1651 0
-1655 1601 1656 0
-1655 -1601 -1656 0
1655 -1601 1656 0
1655 1601 -1656 0
-1656 -1599 -1600 0
-1656 1599 1600 0
1656 1599 -1600 0
1656 -1599 1600 0
-1657 1658 1660 0
-1657 1659 1660 0
-1657 1658 1659 0
1657 -1658 -1659 0
1657 -1659 -1660 0
1657 -1658 -1660 0
1658 -5438 -5476 0
-1658 5438 0
-1658 5476 0
1659 -5485 -5497 0
-1659 5485 0
-1659 5497 0
1660 -5447 -5486 0
-1660 5447 0
-1660 5486 0
-1661 1662 1666 0
-1661 -1662 -1666 0
1661 -1662 1666 0
1661 1662 -1666 0
-1662 1663 1664 0
-1662 -1663 -1664 0
1662 -1663 1664 0
1662 1663 -1664 0
-1663 1654 1655 0
-1663 1655 1657 0
-1663 1654 1657 0
1663 -1654 -1657 0
1663 -1655 -1657 0
1663 -1654 -1655 0
-1664 1614 1665 0
-1664 -1614 -1665 0
1664 -1614 1665 0
1664 1614 -1665 0
-1665 1608 1610 0
-1665 -1608 -1610 0
1665 -1608 1610 0
1665 1608 -1610 0
-1666 1667 1669 0
-1666 1669 1673 0
-1666 1667 1673 0
1666 -1669 -1673 0
1666 -1667 -1669 0
1666 -1667 -1673 0
-1667 1613 1668 0
-1667 -1613 -1668 0
1667 -1613 1668 0
1667 1613 -1668 0
-1668 -1611 -1612 0
-1668 1611 1612 0
1668 1611 -1612 0
1668 -1611 1612 0
-1669 1670 1672 0
-1669 1671 1672 0
-1669 1670 1671 0
1669 -1670 -1671 0
1669 -1671 -1672 0
1669 -1670 -1672 0
1670 -5479 -5498 0
-1670 5479 0
-1670 5498 0
1671 -5489 -5499 0
-1671 5489 0
-1671 5499 0
1672 -5491 -5500 0
-1672 5491 0
-1672 5500 0
1673 -5492 -5500 0
-1673 5492 0
-1673 5500 0
-1674 1675 1676 0
-1674 -1675 -1676 0
1674 -1675 1676 0
1674 1675 -1676 0
1675 -5492 -5499 -5500 -5510 0
-1675 5510 0
-1675 5492 0
-1675 5500 0
-1675 5499 0
-1676 1663 1664 0
-1676 1664 1666 0
-1676 1663 1666 0
1676 -1663 -1666 0
1676 -1664 -1666 0
1676 -1663 -1664 0
1677 -1675 -1676 0
-1677 1675 0
-1677 1676 0
1678 -1679 -1682 0
-1678 1679 0
-1678 1682 0
1679 -1680 -1681 0
-1679 1680 0
-1679 1681 0
-1680 -1563 -1564 0
-1680 1563 1564 0
1680 1563 -1564 0
1680 -1563 1564 0
-1681 -1622 -1623 0
-1681 1622 1623 0
1681 1622 -1623 0
1681 -1622 1623 0
-1682 1684 1732 0
-1682 1683 1684 0
-1682 1683 1732 0
1682 -1683 -1684 0
1682 -1684 -1732 0
1682 -1683 -1732 0
-1683 -1624 -1625 0
-1683 1624 1625 0
1683 1624 -1625 0
1683 -1624 1625 0
1684 -1685 -1686 0
-1684 1685 0
-1684 1686 0
-1685 1626 1628 0
-1685 -1626 -1628 0
1685 -1626 1628 0
1685 1626 -1628 0
1686 -1687 -1689 0
-1686 1687 0
-1686 1689 0
-1687 1677 1688 0
-1687 -1677 -1688 0
1687 -1677 1688 0
1687 1677 -1688 0
-1688 1629 1631 0
-1688 -1629 -1631 0
1688 -1629 1631 0
1688 1629 -1631 0
1689 -1690 -1692 0
-1689 1690 0
-1689 1692 0
-1690 1674 1691 0
-1690 -1674 -1691 0
1690 -1674 1691 0
1690 1674 -1691 0
-1691 1632 1634 0
-1691 -1632 -1634 0
1691 -1632 1634 0
1691 1632 -1634 0
-1692 1693 1695 0
-1692 1695 1731 0
-1692 1693 1731 0
1692 -1693 -1731 0
1692 -1695 -1731 0
1692 -1693 -1695 0
-1693 1661 1694 0
-1693 -1661 -1694 0
1693 -1661 1694 0
1693 1661 -1694 0
-1694 1635 1637 0
-1694 -1635 -1637 0
1694 -1635 1637 0
1694 1635 -1637 0
-1695 1696 1698 0
-1695 1698 1722 0
-1695 1696 1722 0
1695 -1696 -1722 0
1695 -1698 -1722 0
1695 -1696 -1698 0
-1696 1652 1697 0
-1696 -1652 -1697 0
1696 -1652 1697 0
1696 1652 -1697 0
-1697 1638 1640 0
-1697 -1638 -1640 0
1697 -1638 1640 0
1697 1638 -1640 0
-1698 1699 1701 0
-1698 1701 1713 0
-1698 1699 1713 0
1698 -1699 -1713 0
1698 -1701 -1713 0
1698 -1699 -1701 0
-1699 1647 1700 0
-1699 -1647 -1700 0
1699 -1647 1700 0
1699 1647 -1700 0
-1700 1641 1643 0
-1700 -1641 -1643 0
1700 -1641 1643 0
1700 1641 -1643 0
-1701 1702 1704 0
-1701 1704 1708 0
-1701 1702 1708 0
1701 -1702 -1708 0
1701 -1704 -1708 0
1701 -1702 -1704 0
-1702 1646 1703 0
-1702 -1646 -1703 0
1702 -1646 1703 0
1702 1646 -1703 0
-1703 -1644 -1645 0
-1703 1644 1645 0
1703 1644 -1645 0
1703 -1644 1645 0
-1704 1705 1707 0
-1704 1706 1707 0
-1704 1705 1706 0
1704 -1705 -1706 0
1704 -1706 -1707 0
1704 -1705 -1707 0
1705 -5482 -5495 0
-1705 5482 0
-1705 5495 0
1706 -5483 -5496 0
-1706 5483 0
-1706 5496 0
1707 -5432 -5443 0
-1707 5432 0
-1707 5443 0
-1708 -1709 -1712 0
-1708 1709 1712 0
1708 1709 -1712 0
1708 -1709 1712 0
-1709 -1710 -1711 0
-1709 1710 1711 0
1709 1710 -1711 0
1709 -1710 1711 0
1710 -5432 -5433 0
-1710 5432 0
-1710 5433 0
1711 -5449 -5484 0
-1711 5449 0
-1711 5484 0
1712 -5438 -5468 0
-1712 5438 0
-1712 5468 0
-1713 1714 1718 0
-1713 -1714 -1718 0
1713 -1714 1718 0
1713 1714 -1718 0
-1714 1715 1716 0
-1714 -1715 -1716 0
1714 -1715 1716 0
1714 1715 -1716 0
-1715 1710 1712 0
-1715 1711 1712 0
-1715 1710 1711 0
1715 -1710 -1711 0
1715 -1711 -1712 0
1715 -1710 -1712 0
-1716 1660 1717 0
-1716 -1660 -1717 0
1716 -1660 1717 0
1716 1660 -1717 0
-1717 -1658 -1659 0
-1717 1658 1659 0
1717 1658 -1659 0
1717 -1658 1659 0
-1718 1719 1721 0
-1718 1720 1721 0
-1718 1719 1720 0
1718 -1719 -1720 0
1718 -1720 -1721 0
1718 -1719 -1721 0
1719 -5476 -5497 0
-1719 5476 0
-1719 5497 0
1720 -5447 -5485 0
-1720 5447 0
-1720 5485 0
1721 -5486 -5498 0
-1721 5486 0
-1721 5498 0
-1722 -1723 -1727 0
-1722 1723 1727 0
1722 1723 -1727 0
1722 -1723 1727 0
-1723 1724 1725 0
-1723 -1724 -1725 0
1723 -1724 1725 0
1723 1724 -1725 0
-1724 1715 1716 0
-1724 1716 1718 0
-1724 1715 1718 0
1724 -1715 -1718 0
1724 -1716 -1718 0
1724 -1715 -1716 0
-1725 1673 1726 0
-1725 -1673 -1726 0
1725 -1673 1726 0
1725 1673 -1726 0
-1726 1667 1669 0
-1726 -1667 -1669 0
1726 -1667 1669 0
1726 1667 -1669 0
1727 -1728 -1730 0
-1727 1728 0
-1727 1730 0
-1728 1672 1729 0
-1728 -1672 -1729 0
1728 -1672 1729 0
1728 1672 -1729 0
-1729 -1670 -1671 0
-1729 1670 1671 0
1729 1670 -1671 0
1729 -1670 1671 0
1730 -5479 -5489 -5499 -5500 0
-1730 5500 0
-1730 5479 0
-1730 5499 0
-1730 5489 0
-1731 1724 1725 0
-1731 1725 1727 0
-1731 1724 1727 0
1731 -1725 -1727 0
1731 -1724 -1725 0
1731 -1724 -1727 0
1732 -1733 -1734 0
-1732 1733 0
-1732 1734 0
-1733 -1685 -1686 0
-1733 1685 1686 0
1733 1685 -1686 0
1733 -1685 1686 0
1734 -1735 -1736 0
-1734 1735 0
-1734 1736 0
-1735 -1687 -1689 0
-1735 1687 1689 0
1735 1687 -1689 0
1735 -1687 1689 0
1736 -1737 -1738 0
-1736 1737 0
-1736 1738 0
-1737 1690 1692 0
-1737 -1690 -1692 0
1737 -1690 1692 0
1737 1690 -1692 0
1738 -1739 -1741 0
-1738 1739 0
-1738 1741 0
-1739 1731 1740 0
-1739 -1731 -1740 0
1739 -1731 1740 0
1739 1731 -1740 0
-1740 1693 1695 0
-1740 -1693 -1695 0
1740 -1693 1695 0
1740 1693 -1695 0
-1741 1742 1744 0
-1741 1744 1774 0
-1741 1742 1774 0
1741 -1744 -1774 0
1741 -1742 -1744 0
1741 -1742 -1774 0
-1742 1722 1743 0
-1742 -1722 -1743 0
1742 -1722 1743 0
1742 1722 -1743 0
-1743 1696 1698 0
-1743 -1696 -1698 0
1743 -1696 1698 0
1743 1696 -1698 0
-1744 1745 1747 0
-1744 1747 1771 0
-1744 1745 1771 0
1744 -1745 -1771 0
1744 -1747 -1771 0
1744 -1745 -1747 0
-1745 1713 1746 0
-1745 -1713 -1746 0
1745 -1713 1746 0
1745 1713 -1746 0
-1746 1699 1701 0
-1746 -1699 -1701 0
1746 -1699 1701 0
1746 1699 -1701 0
-1747 1748 1750 0
-1747 1750 1762 0
-1747 1748 1762 0
1747 -1748 -1762 0
1747 -1750 -1762 0
1747 -1748 -1750 0
-1748 1708 1749 0
-1748 -1708 -1749 0
1748 -1708 1749 0
1748 1708 -1749 0
-1749 1702 1704 0
-1749 -1702 -1704 0
1749 -1702 1704 0
1749 1702 -1704 0
-1750 1751 1753 0
-1750 1753 1757 0
-1750 1751 1757 0
1750 -1751 -1757 0
1750 -1753 -1757 0
1750 -1751 -1753 0
-1751 1707 1752 0
-1751 -1707 -1752 0
1751 -1707 1752 0
1751 1707 -1752 0
-1752 -1705 -1706 0
-1752 1705 1706 0
1752 1705 -1706 0
1752 -1705 1706 0
-1753 1754 1756 0
-1753 1755 1756 0
-1753 1754 1755 0
1753 -1754 -1755 0
1753 -1755 -1756 0
1753 -1754 -1756 0
1754 -5482 -5496 0
-1754 5482 0
-1754 5496 0
1755 -5432 -5483 0
-1755 5432 0
-1755 5483 0
1756 -5443 -5449 0
-1756 5443 0
-1756 5449 0
-1757 -1758 -1761 0
-1757 1758 1761 0
1757 1758 -1761 0
1757 -1758 1761 0
-1758 -1759 -1760 0
-1758 1759 1760 0
1758 1759 -1760 0
1758 -1759 1760 0
1759 -5433 -5449 0
-1759 5433 0
-1759 5449 0
1760 -5438 -5484 0
-1760 5438 0
-1760 5484 0
1761 -5468 -5497 0
-1761 5468 0
-1761 5497 0
-1762 1763 1767 0
-1762 -1763 -1767 0
1762 -1763 1767 0
1762 1763 -1767 0
-1763 1764 1765 0
-1763 -1764 -1765 0
1763 -1764 1765 0
1763 1764 -1765 0
-1764 1759 1761 0
-1764 1760 1761 0
-1764 1759 1760 0
1764 -1759 -1760 0
1764 -1760 -1761 0
1764 -1759 -1761 0
-1765 1721 1766 0
-1765 -1721 -1766 0
1765 -1721 1766 0
1765 1721 -1766 0
-1766 -1719 -1720 0
-1766 1719 1720 0
1766 1719 -1720 0
1766 -1719 1720 0
-1767 1768 1770 0
-1767 1769 1770 0
-1767 1768 1769 0
1767 -1768 -1769 0
1767 -1769 -1770 0
1767 -1768 -1770 0
1768 -5447 -5476 0
-1768 5447 0
-1768 5476 0
1769 -5485 -5498 0
-1769 5485 0
-1769 5498 0
1770 -5486 -5499 0
-1770 5486 0
-1770 5499 0
-1771 1772 1773 0
-1771 -1772 -1773 0
1771 -1772 1773 0
1771 1772 -1773 0
-1772 -1728 -1730 0
-1772 1728 1730 0
1772 1728 -1730 0
1772 -1728 1730 0
-1773 1764 1765 0
-1773 1765 1767 0
-1773 1764 1767 0
1773 -1764 -1767 0
1773 -1765 -1767 0
1773 -1764 -1765 0
1774 -1772 -1773 0
-1774 1772 0
-1774 1773 0
1775 -1679 -1776 0
-1775 1679 0
-1775 1776 0
1776 -1777 -1778 0
-1776 1777 0
-1776 1778 0
-1777 -1683 -1684 0
-1777 1683 1684 0
1777 1683 -1684 0
1777 -1683 1684 0
-1778 -1733 -1734 0
-1778 1733 1734 0
1778 1733 -1734 0
1778 -1733 1734 0
-1779 1780 1866 0
-1779 1866 1935 0
-1779 1866 1940 0
1779 -1866 0
1779 -1780 -1935 -1940 0
1780 -1781 -1826 0
-1780 1781 0
-1780 1826 0
-1781 -1782 -1783 0
-1781 1782 1783 0
1781 1782 -1783 0
1781 -1782 1783 0
-1782 -1735 -1736 0
-1782 1735 1736 0
1782 1735 -1736 0
1782 -1735 1736 0
1783 -1784 -1785 0
-1783 1784 0
-1783 1785 0
-1784 -1737 -1738 0
-1784 1737 1738 0
1784 1737 -1738 0
1784 -1737 1738 0
1785 -1786 -1787 0
-1785 1786 0
-1785 1787 0
-1786 1739 1741 0
-1786 -1739 -1741 0
1786 -1739 1741 0
1786 1739 -1741 0
1787 -1788 -1790 0
-1787 1788 0
-1787 1790 0
-1788 1774 1789 0
-1788 -1774 -1789 0
1788 -1774 1789 0
1788 1774 -1789 0
-1789 1742 1744 0
-1789 -1742 -1744 0
1789 -1742 1744 0
1789 1742 -1744 0
-1790 1791 1793 0
-1790 1793 1825 0
-1790 1791 1825 0
1790 -1793 -1825 0
1790 -1791 -1793 0
1790 -1791 -1825 0
-1791 1771 1792 0
-1791 -1771 -1792 0
1791 -1771 1792 0
1791 1771 -1792 0
-1792 1745 1747 0
-1792 -1745 -1747 0
1792 -1745 1747 0
1792 1745 -1747 0
-1793 1794 1796 0
-1793 1796 1820 0
-1793 1794 1820 0
1793 -1794 -1820 0
1793 -1796 -1820 0
1793 -1794 -1796 0
-1794 1762 1795 0
-1794 -1762 -1795 0
1794 -1762 1795 0
1794 1762 -1795 0
-1795 1748 1750 0
-1795 -1748 -1750 0
1795 -1748 1750 0
1795 1748 -1750 0
-1796 1797 1799 0
-1796 1799 1811 0
-1796 1797 1811 0
1796 -1797 -1811 0
1796 -1799 -1811 0
1796 -1797 -1799 0
-1797 1757 1798 0
-1797 -1757 -1798 0
1797 -1757 1798 0
1797 1757 -1798 0
-1798 1751 1753 0
-1798 -1751 -1753 0
1798 -1751 1753 0
1798 1751 -1753 0
-1799 1800 1802 0
-1799 1802 1806 0
-1799 1800 1806 0
1799 -1800 -1806 0
1799 -1802 -1806 0
1799 -1800 -1802 0
-1800 1756 1801 0
-1800 -1756 -1801 0
1800 -1756 1801 0
1800 1756 -1801 0
-1801 -1754 -1755 0
-1801 1754 1755 0
1801 1754 -1755 0
1801 -1754 1755 0
-1802 1803 1805 0
-1802 1804 1805 0
-1802 1803 1804 0
1802 -1803 -1804 0
1802 -1804 -1805 0
1802 -1803 -1805 0
1803 -5432 -5482 0
-1803 5432 0
-1803 5482 0
1804 -5449 -5483 0
-1804 5449 0
-1804 5483 0
1805 -5438 -5443 0
-1805 5438 0
-1805 5443 0
-1806 -1807 -1810 0
-1806 1807 1810 0
1806 1807 -1810 0
1806 -1807 1810 0
-1807 -1808 -1809 0
-1807 1808 1809 0
1807 1808 -1809 0
1807 -1808 1809 0
1808 -5433 -5438 0
-1808 5433 0
-1808 5438 0
1809 -5484 -5497 0
-1809 5484 0
-1809 5497 0
1810 -5447 -5468 0
-1810 5447 0
-1810 5468 0
-1811 1812 1816 0
-1811 -1812 -1816 0
1811 -1812 1816 0
1811 1812 -1816 0
-1812 1813 1814 0
-1812 -1813 -1814 0
1812 -1813 1814 0
1812 1813 -1814 0
-1813 1808 1810 0
-1813 1809 1810 0
-1813 1808 1809 0
1813 -1808 -1809 0
1813 -1809 -1810 0
1813 -1808 -1810 0
-1814 1770 1815 0
-1814 -1770 -1815 0
1814 -1770 1815 0
1814 1770 -1815 0
-1815 -1768 -1769 0
-1815 1768 1769 0
1815 1768 -1769 0
1815 -1768 1769 0
-1816 1817 1819 0
-1816 1818 1819 0
-1816 1817 1818 0
1816 -1817 -1818 0
1816 -1818 -1819 0
1816 -1817 -1819 0
1817 -5476 -5498 0
-1817 5476 0
-1817 5498 0
1818 -5485 -5499 0
-1818 5485 0
-1818 5499 0
1819 -5486 -5500 0
-1819 5486 0
-1819 5500 0
-1820 1821 1824 0
-1820 -1821 -1824 0
1820 -1821 1824 0
1820 1821 -1824 0
-1821 -1822 -1823 0
-1821 1822 1823 0
1821 1822 -1823 0
1821 -1822 1823 0
1822 -5479 -5499 0
-1822 5479 0
-1822 5499 0
1823 -5489 -5500 0
-1823 5489 0
-1823 5500 0
-1824 1813 1814 0
-1824 1814 1816 0
-1824 1813 1816 0
1824 -1813 -1816 0
1824 -1814 -1816 0
1824 -1813 -1814 0
1825 -1821 -1824 0
-1825 1821 0
-1825 1824 0
-1826 -1827 -1828 0
-1826 1827 1828 0
1826 1827 -1828 0
1826 -1827 1828 0
-1827 -1784 -1785 0
-1827 1784 1785 0
1827 1784 -1785 0
1827 -1784 1785 0
1828 -1829 -1830 0
-1828 1829 0
-1828 1830 0
-1829 -1786 -1787 0
-1829 1786 1787 0
1829 1786 -1787 0
1829 -1786 1787 0
1830 -1831 -1832 0
-1830 1831 0
-1830 1832 0
-1831 1788 1790 0
-1831 -1788 -1790 0
1831 -1788 1790 0
1831 1788 -1790 0
1832 -1833 -1835 0
-1832 1833 0
-1832 1835 0
-1833 1825 1834 0
-1833 -1825 -1834 0
1833 -1825 1834 0
1833 1825 -1834 0
-1834 1791 1793 0
-1834 -1791 -1793 0
1834 -1791 1793 0
1834 1791 -1793 0
-1835 1836 1838 0
-1835 1838 1865 0
-1835 1836 1865 0
1835 -1838 -1865 0
1835 -1836 -1838 0
1835 -1836 -1865 0
-1836 1820 1837 0
-1836 -1820 -1837 0
1836 -1820 1837 0
1836 1820 -1837 0
-1837 1794 1796 0
-1837 -1794 -1796 0
1837 -1794 1796 0
1837 1794 -1796 0
-1838 1839 1841 0
-1838 1841 1862 0
-1838 1839 1862 0
1838 -1839 -1862 0
1838 -1841 -1862 0
1838 -1839 -1841 0
-1839 1811 1840 0
-1839 -1811 -1840 0
1839 -1811 1840 0
1839 1811 -1840 0
-1840 1797 1799 0
-1840 -1797 -1799 0
1840 -1797 1799 0
1840 1797 -1799 0
-1841 1842 1844 0
-1841 1844 1856 0
-1841 1842 1856 0
1841 -1842 -1856 0
1841 -1844 -1856 0
1841 -1842 -1844 0
-1842 1806 1843 0
-1842 -1806 -1843 0
1842 -1806 1843 0
1842 1806 -1843 0
-1843 1800 1802 0
-1843 -1800 -1802 0
1843 -1800 1802 0
1843 1800 -1802 0
-1844 1845 1847 0
-1844 1847 1851 0
-1844 1845 1851 0
1844 -1845 -1851 0
1844 -1847 -1851 0
1844 -1845 -1847 0
-1845 1805 1846 0
-1845 -1805 -1846 0
1845 -1805 1846 0
1845 1805 -1846 0
-1846 -1803 -1804 0
-1846 1803 1804 0
1846 1803 -1804 0
1846 -1803 1804 0
-1847 1848 1850 0
-1847 1849 1850 0
-1847 1848 1849 0
1847 -1848 -1849 0
1847 -1849 -1850 0
1847 -1848 -1850 0
1848 -5449 -5482 0
-1848 5449 0
-1848 5482 0
1849 -5438 -5483 0
-1849 5438 0
-1849 5483 0
1850 -5443 -5497 0
-1850 5443 0
-1850 5497 0
-1851 -1852 -1855 0
-1851 1852 1855 0
1851 1852 -1855 0
1851 -1852 1855 0
-1852 -1853 -1854 0
-1852 1853 1854 0
1852 1853 -1854 0
1852 -1853 1854 0
1853 -5433 -5497 0
-1853 5433 0
-1853 5497 0
1854 -5447 -5484 0
-1854 5447 0
-1854 5484 0
1855 -5468 -5498 0
-1855 5468 0
-1855 5498 0
-1856 -1857 -1861 0
-1856 1857 1861 0
1856 1857 -1861 0
1856 -1857 1861 0
-1857 1858 1859 0
-1857 -1858 -1859 0
1857 -1858 1859 0
1857 1858 -1859 0
-1858 1853 1855 0
-1858 1854 1855 0
-1858 1853 1854 0
1858 -1853 -1854 0
1858 -1854 -1855 0
1858 -1853 -1855 0
-1859 1819 1860 0
-1859 -1819 -1860 0
1859 -1819 1860 0
1859 1819 -1860 0
-1860 -1817 -1818 0
-1860 1817 1818 0
1860 1817 -1818 0
1860 -1817 1818 0
1861 -5476 -5485 -5499 -5500 0
-1861 5500 0
-1861 5476 0
-1861 5499 0
-1861 5485 0
-1862 1863 1864 0
-1862 -1863 -1864 0
1862 -1863 1864 0
1862 1863 -1864 0
1863 -5479 -5500 0
-1863 5479 0
-1863 5500 0
-1864 1858 1859 0
-1864 1859 1861 0
-1864 1858 1861 0
1864 -1859 -1861 0
1864 -1858 -1859 0
1864 -1858 -1861 0
1865 -5479 -5500 -1864 0
-1865 5479 0
-1865 5500 0
-1865 1864 0
-1866 1867 1869 0
-1866 1867 1780 0
1866 -1867 0
1866 -1780 -1869 0
-1867 1782 1868 0
-1867 1783 1781 0
-1867 1783 1868 0
-1867 1782 1781 0
1867 -1782 -1783 0
1867 -1781 -1868 0
1868 -1827 -1828 0
-1868 1827 0
-1868 1828 0
-1869 1871 1872 0
-1869 1872 1904 0
-1869 1870 0
-1869 1871 1904 0
1869 -1870 -1871 -1904 0
1869 -1870 -1872 -1904 0
1869 -1870 -1871 -1872 0
-1870 -1829 -1830 0
-1870 1829 1830 0
1870 1829 -1830 0
1870 -1829 1830 0
-1871 -1831 -1832 0
-1871 1831 1832 0
1871 1831 -1832 0
1871 -1831 1832 0
1872 -1873 -1874 0
-1872 1873 0
-1872 1874 0
-1873 1833 1835 0
-1873 -1833 -1835 0
1873 -1833 1835 0
1873 1833 -1835 0
1874 -1875 -1877 0
-1874 1875 0
-1874 1877 0
-1875 1865 1876 0
-1875 -1865 -1876 0
1875 -1865 1876 0
1875 1865 -1876 0
-1876 1836 1838 0
-1876 -1836 -1838 0
1876 -1836 1838 0
1876 1836 -1838 0
1877 -1878 -1880 0
-1877 1878 0
-1877 1880 0
-1878 1862 1879 0
-1878 -1862 -1879 0
1878 -1862 1879 0
1878 1862 -1879 0
-1879 1839 1841 0
-1879 -1839 -1841 0
1879 -1839 1841 0
1879 1839 -1841 0
-1880 1881 1883 0
-1880 1883 1903 0
-1880 1881 1903 0
1880 -1883 -1903 0
1880 -1881 -1883 0
1880 -1881 -1903 0
-1881 1856 1882 0
-1881 -1856 -1882 0
1881 -1856 1882 0
1881 1856 -1882 0
-1882 1842 1844 0
-1882 -1842 -1844 0
1882 -1842 1844 0
1882 1842 -1844 0
-1883 1884 1886 0
-1883 1886 1898 0
-1883 1884 1898 0
1883 -1884 -1898 0
1883 -1886 -1898 0
1883 -1884 -1886 0
-1884 1851 1885 0
-1884 -1851 -1885 0
1884 -1851 1885 0
1884 1851 -1885 0
-1885 1845 1847 0
-1885 -1845 -1847 0
1885 -1845 1847 0
1885 1845 -1847 0
-1886 1887 1889 0
-1886 1889 1893 0
-1886 1887 1893 0
1886 -1887 -1893 0
1886 -1889 -1893 0
1886 -1887 -1889 0
-1887 1850 1888 0
-1887 -1850 -1888 0
1887 -1850 1888 0
1887 1850 -1888 0
-1888 -1848 -1849 0
-1888 1848 1849 0
1888 1848 -1849 0
1888 -1848 1849 0
-1889 1890 1892 0
-1889 1891 1892 0
-1889 1890 1891 0
1889 -1890 -1891 0
1889 -1891 -1892 0
1889 -1890 -1892 0
1890 -5438 -5482 0
-1890 5438 0
-1890 5482 0
1891 -5483 -5497 0
-1891 5483 0
-1891 5497 0
1892 -5443 -5447 0
-1892 5443 0
-1892 5447 0
-1893 -1894 -1897 0
-1893 1894 1897 0
1893 1894 -1897 0
1893 -1894 1897 0
-1894 -1895 -1896 0
-1894 1895 1896 0
1894 1895 -1896 0
1894 -1895 1896 0
1895 -5433 -5447 0
-1895 5433 0
-1895 5447 0
1896 -5484 -5498 0
-1896 5484 0
-1896 5498 0
1897 -5468 -5499 0
-1897 5468 0
-1897 5499 0
-1898 1899 1902 0
-1898 -1899 -1902 0
1898 -1899 1902 0
1898 1899 -1902 0
-1899 -1900 -1901 0
-1899 1900 1901 0
1899 1900 -1901 0
1899 -1900 1901 0
1900 -5476 -5499 0
-1900 5476 0
-1900 5499 0
1901 -5485 -5500 0
-1901 5485 0
-1901 5500 0
-1902 1895 1897 0
-1902 1896 1897 0
-1902 1895 1896 0
1902 -1895 -1896 0
1902 -1896 -1897 0
1902 -1895 -1897 0
1903 -1899 -1902 0
-1903 1899 0
-1903 1902 0
1904 -1905 -1906 0
-1904 1905 0
-1904 1906 0
-1905 -1873 -1874 0
-1905 1873 1874 0
1905 1873 -1874 0
1905 -1873 1874 0
1906 -1907 -1908 0
-1906 1907 0
-1906 1908 0
-1907 -1875 -1877 0
-1907 1875 1877 0
1907 1875 -1877 0
1907 -1875 1877 0
1908 -1909 -1910 0
-1908 1909 0
-1908 1910 0
-1909 1878 1880 0
-1909 -1878 -1880 0
1909 -1878 1880 0
1909 1878 -1880 0
1910 -1911 -1913 0
-1910 1911 0
-1910 1913 0
-1911 1903 1912 0
-1911 -1903 -1912 0
1911 -1903 1912 0
1911 1903 -1912 0
-1912 1881 1883 0
-1912 -1881 -1883 0
1912 -1881 1883 0
1912 1881 -1883 0
-1913 1914 1916 0
-1913 1916 1934 0
-1913 1914 1934 0
1913 -1916 -1934 0
1913 -1914 -1916 0
1913 -1914 -1934 0
-1914 1898 1915 0
-1914 -1898 -1915 0
1914 -1898 1915 0
1914 1898 -1915 0
-1915 1884 1886 0
-1915 -1884 -1886 0
1915 -1884 1886 0
1915 1884 -1886 0
-1916 1917 1919 0
-1916 1919 1931 0
-1916 1917 1931 0
1916 -1917 -1931 0
1916 -1919 -1931 0
1916 -1917 -1919 0
-1917 1893 1918 0
-1917 -1893 -1918 0
1917 -1893 1918 0
1917 1893 -1918 0
-1918 1887 1889 0
-1918 -1887 -1889 0
1918 -1887 1889 0
1918 1887 -1889 0
-1919 1920 1922 0
-1919 1922 1926 0
-1919 1920 1926 0
1919 -1920 -1926 0
1919 -1922 -1926 0
1919 -1920 -1922 0
-1920 1892 1921 0
-1920 -1892 -1921 0
1920 -1892 1921 0
1920 1892 -1921 0
-1921 -1890 -1891 0
-1921 1890 1891 0
1921 1890 -1891 0
1921 -1890 1891 0
-1922 1923 1925 0
-1922 1924 1925 0
-1922 1923 1924 0
1922 -1923 -1924 0
1922 -1924 -1925 0
1922 -1923 -1925 0
1923 -5482 -5497 0
-1923 5482 0
-1923 5497 0
1924 -5447 -5483 0
-1924 5447 0
-1924 5483 0
1925 -5443 -5498 0
-1925 5443 0
-1925 5498 0
-1926 -1927 -1930 0
-1926 1927 1930 0
1926 1927 -1930 0
1926 -1927 1930 0
-1927 -1928 -1929 0
-1927 1928 1929 0
1927 1928 -1929 0
1927 -1928 1929 0
1928 -5433 -5498 0
-1928 5433 0
-1928 5498 0
1929 -5484 -5499 0
-1929 5484 0
-1929 5499 0
1930 -5468 -5500 0
-1930 5468 0
-1930 5500 0
-1931 1932 1933 0
-1931 -1932 -1933 0
1931 -1932 1933 0
1931 1932 -1933 0
1932 -5476 -5500 0
-1932 5476 0
-1932 5500 0
-1933 1928 1930 0
-1933 1929 1930 0
-1933 1928 1929 0
1933 -1928 -1929 0
1933 -1929 -1930 0
1933 -1928 -1930 0
1934 -5476 -5500 -1933 0
-1934 5476 0
-1934 5500 0
-1934 1933 0
1935 -1936 -1938 0
-1935 1936 0
-1935 1938 0
-1936 -1870 -1937 0
-1936 1870 1937 0
1936 1870 -1937 0
1936 -1870 1937 0
1937 -1871 -1872 0
-1937 1871 0
-1937 1872 0
-1938 -1939 -1904 0
-1938 1939 1904 0
1938 1939 -1904 0
1938 -1939 1904 0
-1939 -1871 -1872 0
-1939 1871 1872 0
1939 1871 -1872 0
1939 -1871 1872 0
-1940 1941 1969 0
-1940 1969 1994 0
-1940 1969 1995 0
1940 -1969 0
1940 -1941 -1994 -1995 0
-1941 -1942 -1943 0
-1941 1942 1943 0
1941 1942 -1943 0
1941 -1942 1943 0
-1942 -1905 -1906 0
-1942 1905 1906 0
1942 1905 -1906 0
1942 -1905 1906 0
1943 -1944 -1945 0
-1943 1944 0
-1943 1945 0
-1944 -1907 -1908 0
-1944 1907 1908 0
1944 1907 -1908 0
1944 -1907 1908 0
1945 -1946 -1947 0
-1945 1946 0
-1945 1947 0
-1946 -1909 -1910 0
-1946 1909 1910 0
1946 1909 -1910 0
1946 -1909 1910 0
1947 -1948 -1949 0
-1947 1948 0
-1947 1949 0
-1948 1911 1913 0
-1948 -1911 -1913 0
1948 -1911 1913 0
1948 1911 -1913 0
1949 -1950 -1952 0
-1949 1950 0
-1949 1952 0
-1950 1934 1951 0
-1950 -1934 -1951 0
1950 -1934 1951 0
1950 1934 -1951 0
-1951 1914 1916 0
-1951 -1914 -1916 0
1951 -1914 1916 0
1951 1914 -1916 0
1952 -1953 -1955 0
-1952 1953 0
-1952 1955 0
-1953 1931 1954 0
-1953 -1931 -1954 0
1953 -1931 1954 0
1953 1931 -1954 0
-1954 1917 1919 0
-1954 -1917 -1919 0
1954 -1917 1919 0
1954 1917 -1919 0
-1955 1956 1958 0
-1955 1958 1968 0
-1955 1956 1968 0
1955 -1958 -1968 0
1955 -1956 -1958 0
1955 -1956 -1968 0
-1956 1926 1957 0
-1956 -1926 -1957 0
1956 -1926 1957 0
1956 1926 -1957 0
-1957 1920 1922 0
-1957 -1920 -1922 0
1957 -1920 1922 0
1957 1920 -1922 0
-1958 1959 1961 0
-1958 1961 1965 0
-1958 1959 1965 0
1958 -1959 -1965 0
1958 -1961 -1965 0
1958 -1959 -1961 0
-1959 1925 1960 0
-1959 -1925 -1960 0
1959 -1925 1960 0
1959 1925 -1960 0
-1960 -1923 -1924 0
-1960 1923 1924 0
1960 1923 -1924 0
1960 -1923 1924 0
-1961 1962 1964 0
-1961 1963 1964 0
-1961 1962 1963 0
1961 -1962 -1963 0
1961 -1963 -1964 0
1961 -1962 -1964 0
1962 -5447 -5482 0
-1962 5447 0
-1962 5482 0
1963 -5483 -5498 0
-1963 5483 0
-1963 5498 0
1964 -5443 -5499 0
-1964 5443 0
-1964 5499 0
-1965 -1966 -1967 0
-1965 1966 1967 0
1965 1966 -1967 0
1965 -1966 1967 0
1966 -5433 -5499 0
-1966 5433 0
-1966 5499 0
1967 -5484 -5500 0
-1967 5484 0
-1967 5500 0
1968 -5433 -5484 -5499 -5500 0
-1968 5500 0
-1968 5433 0
-1968 5499 0
-1968 5484 0
-1969 1943 1970 0
-1969 1942 1943 0
-1969 1942 1970 0
1969 -1942 -1943 0
1969 -1943 -1970 0
1969 -1942 -1970 0
1970 -1971 -1972 0
-1970 1971 0
-1970 1972 0
-1971 -1944 -1945 0
-1971 1944 1945 0
1971 1944 -1945 0
1971 -1944 1945 0
1972 -1973 -1974 0
-1972 1973 0
-1972 1974 0
-1973 -1946 -1947 0
-1973 1946 1947 0
1973 1946 -1947 0
1973 -1946 1947 0
1974 -1975 -1976 0
-1974 1975 0
-1974 1976 0
-1975 -1948 -1949 0
-1975 1948 1949 0
1975 1948 -1949 0
1975 -1948 1949 0
1976 -1977 -1978 0
-1976 1977 0
-1976 1978 0
-1977 -1950 -1952 0
-1977 1950 1952 0
1977 1950 -1952 0
1977 -1950 1952 0
1978 -1979 -1980 0
-1978 1979 0
-1978 1980 0
-1979 1953 1955 0
-1979 -1953 -1955 0
1979 -1953 1955 0
1979 1953 -1955 0
1980 -1981 -1983 0
-1980 1981 0
-1980 1983 0
-1981 1968 1982 0
-1981 -1968 -1982 0
1981 -1968 1982 0
1981 1968 -1982 0
-1982 1956 1958 0
-1982 -1956 -1958 0
1982 -1956 1958 0
1982 1956 -1958 0
1983 -1984 -1986 0
-1983 1984 0
-1983 1986 0
-1984 1965 1985 0
-1984 -1965 -1985 0
1984 -1965 1985 0
1984 1965 -1985 0
-1985 1959 1961 0
-1985 -1959 -1961 0
1985 -1959 1961 0
1985 1959 -1961 0
-1986 1987 1989 0
-1986 1989 1993 0
-1986 1987 1993 0
1986 -1989 -1993 0
1986 -1987 -1989 0
1986 -1987 -1993 0
-1987 1964 1988 0
-1987 -1964 -1988 0
1987 -1964 1988 0
1987 1964 -1988 0
-1988 -1962 -1963 0
-1988 1962 1963 0
1988 1962 -1963 0
1988 -1962 1963 0
-1989 1990 1992 0
-1989 1991 1992 0
-1989 1990 1991 0
1989 -1990 -1991 0
1989 -1991 -1992 0
1989 -1990 -1992 0
1990 -5482 -5498 0
-1990 5482 0
-1990 5498 0
1991 -5483 -5499 0
-1991 5483 0
-1991 5499 0
1992 -5443 -5500 0
-1992 5443 0
-1992 5500 0
1993 -5433 -5500 0
-1993 5433 0
-1993 5500 0
-1994 -1971 -1972 0
-1994 1971 1972 0
1994 1971 -1972 0
1994 -1971 1972 0
1995 -1996 -1997 0
-1995 1996 0
-1995 1997 0
-1996 -1973 -1974 0
-1996 1973 1974 0
1996 1973 -1974 0
1996 -1973 1974 0
1997 -1998 -1999 0
-1997 1998 0
-1997 1999 0
-1998 -1975 -1976 0
-1998 1975 1976 0
1998 1975 -1976 0
1998 -1975 1976 0
1999 -2000 -2001 0
-1999 2000 0
-1999 2001 0
-2000 -1977 -1978 0
-2000 1977 1978 0
2000 1977 -1978 0
2000 -1977 1978 0
2001 -2002 -2003 0
-2001 2002 0
-2001 2003 0
-2002 -1979 -1980 0
-2002 1979 1980 0
2002 1979 -1980 0
2002 -1979 1980 0
2003 -2004 -2005 0
-2003 2004 0
-2003 2005 0
-2004 -1981 -1983 0
-2004 1981 1983 0
2004 1981 -1983 0
2004 -1981 1983 0
2005 -2006 -2007 0
-2005 2006 0
-2005 2007 0
-2006 1984 1986 0
-2006 -1984 -1986 0
2006 -1984 1986 0
2006 1984 -1986 0
2007 -2008 -2010 0
-2007 2008 0
-2007 2010 0
-2008 1993 2009 0
-2008 -1993 -2009 0
2008 -1993 2009 0
2008 1993 -2009 0
-2009 1987 1989 0
-2009 -1987 -1989 0
2009 -1987 1989 0
2009 1987 -1989 0
2010 -2011 -2013 0
-2010 2011 0
-2010 2013 0
-2011 1992 2012 0
-2011 -1992 -2012 0
2011 -1992 2012 0
2011 1992 -2012 0
-2012 -1990 -1991 0
-2012 1990 1991 0
2012 1990 -1991 0
2012 -1990 1991 0
2013 -5483 -5500 -2014 0
-2013 5483 0
-2013 5500 0
-2013 2014 0
2014 -5482 -5499 0
-2014 5482 0
-2014 5499 0
-2015 2016 2297 0
-2015 -2016 -2297 0
2015 -2016 2297 0
2015 2016 -2297 0
-2016 -2017 -2235 0
-2016 2017 2235 0
2016 2017 -2235 0
2016 -2017 2235 0
-2017 -2018 -2180 0
-2017 2018 2180 0
2017 2018 -2180 0
2017 -2018 2180 0
-2018 2019 2136 0
-2018 -2019 -2136 0
2018 -2019 2136 0
2018 2019 -2136 0
-2019 2020 2135 0
-2019 -2020 -2135 0
2019 -2020 2135 0
2019 2020 -2135 0
-2020 2021 2099 0
-2020 -2021 -2099 0
2020 -2021 2099 0
2020 2021 -2099 0
-2021 2022 2081 0
-2021 -2022 -2081 0
2021 -2022 2081 0
2021 2022 -2081 0
-2022 -2023 -2054 0
-2022 2023 2054 0
2022 2023 -2054 0
2022 -2023 2054 0
-2023 2024 2042 0
-2023 -2024 -2042 0
2023 -2024 2042 0
2023 2024 -2042 0
-2024 2025 2026 0
-2024 -2025 -2026 0
2024 -2025 2026 0
2024 2025 -2026 0
2025 -5436 -5501 -5504 -5516 0
-2025 5516 0
-2025 5436 0
-2025 5504 0
-2025 5501 0
-2026 2027 2037 0
-2026 -2027 -2037 0
2026 -2027 2037 0
2026 2027 -2037 0
-2027 2028 2033 0
-2027 -2028 -2033 0
2027 -2028 2033 0
2027 2028 -2033 0
-2028 -2029 -2032 0
-2028 2029 2032 0
2028 2029 -2032 0
2028 -2029 2032 0
-2029 -2030 -2031 0
-2029 2030 2031 0
2029 2030 -2031 0
2029 -2030 2031 0
2030 -5511 -5516 0
-2030 5511 0
-2030 5516 0
2031 -5478 -5504 0
-2031 5478 0
-2031 5504 0
2032 -5434 -5517 0
-2032 5434 0
-2032 5517 0
-2033 2034 2036 0
-2033 2035 2036 0
-2033 2034 2035 0
2033 -2034 -2035 0
2033 -2035 -2036 0
2033 -2034 -2036 0
2034 -5504 -5511 0
-2034 5504 0
-2034 5511 0
2035 -5434 -5478 0
-2035 5434 0
-2035 5478 0
2036 -5435 -5517 0
-2036 5435 0
-2036 5517 0
-2037 -2038 -2041 0
-2037 2038 2041 0
2037 2038 -2041 0
2037 -2038 2041 0
-2038 -2039 -2040 0
-2038 2039 2040 0
2038 2039 -2040 0
2038 -2039 2040 0
2039 -5435 -5518 0
-2039 5435 0
-2039 5518 0
2040 -5508 -5519 0
-2040 5508 0
-2040 5519 0
2041 -5520 -5521 0
-2041 5520 0
-2041 5521 0
-2042 2043 2045 0
-2042 2045 2049 0
-2042 2043 2049 0
2042 -2043 -2049 0
2042 -2045 -2049 0
2042 -2043 -2045 0
-2043 2036 2044 0
-2043 -2036 -2044 0
2043 -2036 2044 0
2043 2036 -2044 0
-2044 -2034 -2035 0
-2044 2034 2035 0
2044 2034 -2035 0
2044 -2034 2035 0
-2045 2046 2048 0
-2045 2047 2048 0
-2045 2046 2047 0
2045 -2046 -2047 0
2045 -2047 -2048 0
2045 -2046 -2048 0
2046 -5434 -5511 0
-2046 5434 0
-2046 5511 0
2047 -5435 -5478 0
-2047 5435 0
-2047 5478 0
2048 -5517 -5519 0
-2048 5517 0
-2048 5519 0
-2049 -2050 -2053 0
-2049 2050 2053 0
2049 2050 -2053 0
2049 -2050 2053 0
-2050 -2051 -2052 0
-2050 2051 2052 0
2050 2051 -2052 0
2050 -2051 2052 0
2051 -5518 -5519 0
-2051 5518 0
-2051 5519 0
2052 -5508 -5520 0
-2052 5508 0
-2052 5520 0
2053 -5521 -5522 0
-2053 5521 0
-2053 5522 0
2054 -2055 -2057 0
-2054 2055 0
-2054 2057 0
-2055 2056 0
2055 -2056 0
2056 -5436 5504 -5516 0
2056 -5436 5501 -5516 0
-2056 5516 0
-2056 5436 0
-2056 -5501 -5504 0
-2057 2058 2069 0
-2057 -2058 -2069 0
2057 -2058 2069 0
2057 2058 -2069 0
-2058 2059 2067 0
-2058 -2059 -2067 0
2058 -2059 2067 0
2058 2059 -2067 0
2059 -2060 -2063 0
-2059 2060 0
-2059 2063 0
-2060 -2061 -2062 0
-2060 2061 2062 0
2060 2061 -2062 0
2060 -2061 2062 0
2061 -5501 -5516 0
-2061 5501 0
-2061 5516 0
2062 -5436 -5504 0
-2062 5436 0
-2062 5504 0
-2063 2064 2066 0
-2063 2065 2066 0
-2063 2064 2065 0
2063 -2064 -2065 0
2063 -2065 -2066 0
2063 -2064 -2066 0
2064 -5515 -5516 0
-2064 5515 0
-2064 5516 0
2065 -5501 -5504 0
-2065 5501 0
-2065 5504 0
2066 -5434 -5436 0
-2066 5434 0
-2066 5436 0
-2067 2049 2068 0
-2067 -2049 -2068 0
2067 -2049 2068 0
2067 2049 -2068 0
-2068 2043 2045 0
-2068 -2043 -2045 0
2068 -2043 2045 0
2068 2043 -2045 0
-2069 2070 2072 0
-2069 2072 2076 0
-2069 2070 2076 0
2069 -2070 -2076 0
2069 -2072 -2076 0
2069 -2070 -2072 0
-2070 2048 2071 0
-2070 -2048 -2071 0
2070 -2048 2071 0
2070 2048 -2071 0
-2071 -2046 -2047 0
-2071 2046 2047 0
2071 2046 -2047 0
2071 -2046 2047 0
-2072 2073 2075 0
-2072 2074 2075 0
-2072 2073 2074 0
2072 -2073 -2074 0
2072 -2074 -2075 0
2072 -2073 -2075 0
2073 -5435 -5511 0
-2073 5435 0
-2073 5511 0
2074 -5478 -5519 0
-2074 5478 0
-2074 5519 0
2075 -5517 -5520 0
-2075 5517 0
-2075 5520 0
-2076 -2077 -2080 0
-2076 2077 2080 0
2076 2077 -2080 0
2076 -2077 2080 0
-2077 -2078 -2079 0
-2077 2078 2079 0
2077 2078 -2079 0
2077 -2078 2079 0
2078 -5518 -5520 0
-2078 5518 0
-2078 5520 0
2079 -5508 -5522 0
-2079 5508 0
-2079 5522 0
2080 -5521 -5523 0
-2080 5521 0
-2080 5523 0
-2081 -2082 -2091 0
-2081 2082 2091 0
2081 2082 -2091 0
2081 -2082 2091 0
-2082 2083 2084 0
-2082 -2083 -2084 0
2082 -2083 2084 0
2082 2083 -2084 0
-2083 2059 2067 0
-2083 2067 2069 0
-2083 2059 2069 0
2083 -2067 -2069 0
2083 -2059 -2067 0
2083 -2059 -2069 0
-2084 -2085 -2088 0
-2084 2085 2088 0
2084 2085 -2088 0
2084 -2085 2088 0
-2085 -2086 -2087 0
-2085 2086 2087 0
2085 2086 -2087 0
2085 -2086 2087 0
-2086 2051 2053 0
-2086 2052 2053 0
-2086 2051 2052 0
2086 -2051 -2052 0
2086 -2052 -2053 0
2086 -2051 -2053 0
2087 -5446 -5522 0
-2087 5446 0
-2087 5522 0
2088 -2089 -2090 0
-2088 2089 0
-2088 2090 0
2089 -5446 -5523 0
-2089 5446 0
-2089 5523 0
-2090 2078 2080 0
-2090 2079 2080 0
-2090 2078 2079 0
2090 -2078 -2079 0
2090 -2079 -2080 0
2090 -2078 -2080 0
2091 -2092 -2093 0
-2091 2092 0
-2091 2093 0
-2092 2089 2090 0
-2092 -2089 -2090 0
2092 -2089 2090 0
2092 2089 -2090 0
2093 -2094 -2095 0
-2093 2094 0
-2093 2095 0
2094 -5446 -5470 0
-2094 5446 0
-2094 5470 0
-2095 2096 2098 0
-2095 2097 2098 0
-2095 2096 2097 0
2095 -2096 -2097 0
2095 -2097 -2098 0
2095 -2096 -2098 0
2096 -5518 -5522 0
-2096 5518 0
-2096 5522 0
2097 -5508 -5523 0
-2097 5508 0
-2097 5523 0
2098 -5470 -5521 0
-2098 5470 0
-2098 5521 0
-2099 2100 2123 0
-2099 2100 2101 0
-2099 2101 2123 0
2099 -2101 -2123 0
2099 -2100 -2123 0
2099 -2100 -2101 0
-2100 2055 2057 0
-2100 -2055 -2057 0
2100 -2055 2057 0
2100 2055 -2057 0
2101 -2102 -2103 0
-2101 2102 0
-2101 2103 0
-2102 2060 2063 0
-2102 -2060 -2063 0
2102 -2060 2063 0
2102 2060 -2063 0
-2103 2104 2114 0
-2103 -2104 -2114 0
2103 -2104 2114 0
2103 2104 -2114 0
-2104 2105 2112 0
-2104 -2105 -2112 0
2104 -2105 2112 0
2104 2105 -2112 0
2105 -2106 -2108 0
-2105 2106 0
-2105 2108 0
-2106 2066 2107 0
-2106 -2066 -2107 0
2106 -2066 2107 0
2106 2066 -2107 0
-2107 -2064 -2065 0
-2107 2064 2065 0
2107 2064 -2065 0
2107 -2064 2065 0
-2108 2109 2111 0
-2108 2110 2111 0
-2108 2109 2110 0
2108 -2109 -2110 0
2108 -2110 -2111 0
2108 -2109 -2111 0
2109 -5504 -5515 0
-2109 5504 0
-2109 5515 0
2110 -5434 -5501 0
-2110 5434 0
-2110 5501 0
2111 -5435 -5436 0
-2111 5435 0
-2111 5436 0
-2112 2076 2113 0
-2112 -2076 -2113 0
2112 -2076 2113 0
2112 2076 -2113 0
-2113 2070 2072 0
-2113 -2070 -2072 0
2113 -2070 2072 0
2113 2070 -2072 0
-2114 2115 2117 0
-2114 2117 2121 0
-2114 2115 2121 0
2114 -2115 -2121 0
2114 -2117 -2121 0
2114 -2115 -2117 0
-2115 2075 2116 0
-2115 -2075 -2116 0
2115 -2075 2116 0
2115 2075 -2116 0
-2116 -2073 -2074 0
-2116 2073 2074 0
2116 2073 -2074 0
2116 -2073 2074 0
-2117 2118 2120 0
-2117 2119 2120 0
-2117 2118 2119 0
2117 -2118 -2119 0
2117 -2119 -2120 0
2117 -2118 -2120 0
2118 -5511 -5519 0
-2118 5511 0
-2118 5519 0
2119 -5478 -5520 0
-2119 5478 0
-2119 5520 0
2120 -5517 -5522 0
-2120 5517 0
-2120 5522 0
-2121 2098 2122 0
-2121 -2098 -2122 0
2121 -2098 2122 0
2121 2098 -2122 0
-2122 -2096 -2097 0
-2122 2096 2097 0
2122 2096 -2097 0
2122 -2096 2097 0
-2123 -2124 -2127 0
-2123 2124 2127 0
2123 2124 -2127 0
2123 -2124 2127 0
-2124 2125 2126 0
-2124 -2125 -2126 0
2124 -2125 2126 0
2124 2125 -2126 0
-2125 -2092 -2093 0
-2125 2092 2093 0
2125 2092 -2093 0
2125 -2092 2093 0
-2126 2105 2112 0
-2126 2112 2114 0
-2126 2105 2114 0
2126 -2112 -2114 0
2126 -2105 -2112 0
2126 -2105 -2114 0
2127 -2128 -2129 0
-2127 2128 0
-2127 2129 0
-2128 2094 2095 0
-2128 -2094 -2095 0
2128 -2094 2095 0
2128 2094 -2095 0
2129 -2130 -2131 0
-2129 2130 0
-2129 2131 0
2130 -5446 -5507 0
-2130 5446 0
-2130 5507 0
-2131 2132 2134 0
-2131 2133 2134 0
-2131 2132 2133 0
2131 -2132 -2133 0
2131 -2133 -2134 0
2131 -2132 -2134 0
2132 -5518 -5523 0
-2132 5518 0
-2132 5523 0
2133 -5470 -5508 0
-2133 5470 0
-2133 5508 0
2134 -5507 -5521 0
-2134 5507 0
-2134 5521 0
-2135 2125 2126 0
-2135 2126 2127 0
-2135 2125 2127 0
2135 -2126 -2127 0
2135 -2125 -2126 0
2135 -2125 -2127 0
-2136 2137 2139 0
-2136 2139 2179 0
-2136 2137 2179 0
2136 -2137 -2179 0
2136 -2139 -2179 0
2136 -2137 -2139 0
-2137 2123 2138 0
-2137 -2123 -2138 0
2137 -2123 2138 0
2137 2123 -2138 0
-2138 -2100 -2101 0
-2138 2100 2101 0
2138 2100 -2101 0
2138 -2100 2101 0
-2139 2140 2141 0
-2139 2141 2167 0
-2139 2140 2167 0
2139 -2140 -2167 0
2139 -2141 -2167 0
2139 -2140 -2141 0
-2140 2102 2103 0
-2140 -2102 -2103 0
2140 -2102 2103 0
2140 2102 -2103 0
-2141 2142 2153 0
-2141 2142 2143 0
-2141 2143 2153 0
2141 -2143 -2153 0
2141 -2142 -2153 0
2141 -2142 -2143 0
-2142 2106 2108 0
-2142 -2106 -2108 0
2142 -2106 2108 0
2142 2106 -2108 0
2143 -5514 -5516 -2144 0
-2143 5514 0
-2143 5516 0
-2143 2144 0
-2144 2145 2149 0
-2144 -2145 -2149 0
2144 -2145 2149 0
2144 2145 -2149 0
-2145 2146 2147 0
-2145 -2146 -2147 0
2145 -2146 2147 0
2145 2146 -2147 0
2146 -5439 -5504 -5514 -5516 0
-2146 5516 0
-2146 5439 0
-2146 5514 0
-2146 5504 0
-2147 2111 2148 0
-2147 -2111 -2148 0
2147 -2111 2148 0
2147 2111 -2148 0
-2148 -2109 -2110 0
-2148 2109 2110 0
2148 2109 -2110 0
2148 -2109 2110 0
-2149 2150 2152 0
-2149 2151 2152 0
-2149 2150 2151 0
2149 -2150 -2151 0
2149 -2151 -2152 0
2149 -2150 -2152 0
2150 -5434 -5515 0
-2150 5434 0
-2150 5515 0
2151 -5435 -5501 0
-2151 5435 0
-2151 5501 0
2152 -5436 -5519 0
-2152 5436 0
-2152 5519 0
-2153 2154 2158 0
-2153 -2154 -2158 0
2153 -2154 2158 0
2153 2154 -2158 0
-2154 2155 2156 0
-2154 -2155 -2156 0
2154 -2155 2156 0
2154 2155 -2156 0
-2155 2146 2147 0
-2155 2147 2149 0
-2155 2146 2149 0
2155 -2147 -2149 0
2155 -2146 -2147 0
2155 -2146 -2149 0
-2156 2121 2157 0
-2156 -2121 -2157 0
2156 -2121 2157 0
2156 2121 -2157 0
-2157 2115 2117 0
-2157 -2115 -2117 0
2157 -2115 2117 0
2157 2115 -2117 0
-2158 2159 2161 0
-2158 2161 2165 0
-2158 2159 2165 0
2158 -2159 -2165 0
2158 -2161 -2165 0
2158 -2159 -2161 0
-2159 2120 2160 0
-2159 -2120 -2160 0
2159 -2120 2160 0
2159 2120 -2160 0
-2160 -2118 -2119 0
-2160 2118 2119 0
2160 2118 -2119 0
2160 -2118 2119 0
-2161 2162 2164 0
-2161 2163 2164 0
-2161 2162 2163 0
2161 -2162 -2163 0
2161 -2163 -2164 0
2161 -2162 -2164 0
2162 -5511 -5520 0
-2162 5511 0
-2162 5520 0
2163 -5478 -5522 0
-2163 5478 0
-2163 5522 0
2164 -5517 -5523 0
-2164 5517 0
-2164 5523 0
-2165 2134 2166 0
-2165 -2134 -2166 0
2165 -2134 2166 0
2165 2134 -2166 0
-2166 -2132 -2133 0
-2166 2132 2133 0
2166 2132 -2133 0
2166 -2132 2133 0
-2167 -2168 -2171 0
-2167 2168 2171 0
2167 2168 -2171 0
2167 -2168 2171 0
-2168 2169 2170 0
-2168 -2169 -2170 0
2168 -2169 2170 0
2168 2169 -2170 0
-2169 -2128 -2129 0
-2169 2128 2129 0
2169 2128 -2129 0
2169 -2128 2129 0
-2170 2155 2156 0
-2170 2156 2158 0
-2170 2155 2158 0
2170 -2155 -2158 0
2170 -2156 -2158 0
2170 -2155 -2156 0
2171 -2172 -2173 0
-2171 2172 0
-2171 2173 0
-2172 2130 2131 0
-2172 -2130 -2131 0
2172 -2130 2131 0
2172 2130 -2131 0
2173 -2174 -2175 0
-2173 2174 0
-2173 2175 0
2174 -5446 -5524 0
-2174 5446 0
-2174 5524 0
-2175 2176 2178 0
-2175 2177 2178 0
-2175 2176 2177 0
2175 -2176 -2177 0
2175 -2177 -2178 0
2175 -2176 -2178 0
2176 -5470 -5518 0
-2176 5470 0
-2176 5518 0
2177 -5507 -5508 0
-2177 5507 0
-2177 5508 0
2178 -5521 -5524 0
-2178 5521 0
-2178 5524 0
-2179 2169 2170 0
-2179 2170 2171 0
-2179 2169 2171 0
2179 -2170 -2171 0
2179 -2169 -2170 0
2179 -2169 -2171 0
2180 -2181 -2183 0
-2180 2181 0
-2180 2183 0
-2181 2179 2182 0
-2181 -2179 -2182 0
2181 -2179 2182 0
2181 2179 -2182 0
-2182 2137 2139 0
-2182 -2137 -2139 0
2182 -2137 2139 0
2182 2137 -2139 0
-2183 2184 2186 0
-2183 2186 2234 0
-2183 2184 2234 0
2183 -2184 -2234 0
2183 -2186 -2234 0
2183 -2184 -2186 0
-2184 2167 2185 0
-2184 -2167 -2185 0
2184 -2167 2185 0
2184 2167 -2185 0
-2185 2140 2141 0
-2185 -2140 -2141 0
2185 -2140 2141 0
2185 2140 -2141 0
-2186 2187 2189 0
-2186 2189 2222 0
-2186 2187 2222 0
2186 -2187 -2222 0
2186 -2189 -2222 0
2186 -2187 -2189 0
-2187 2153 2188 0
-2187 -2153 -2188 0
2187 -2153 2188 0
2187 2153 -2188 0
-2188 -2142 -2143 0
-2188 2142 2143 0
2188 2142 -2143 0
2188 -2142 2143 0
-2189 2190 2208 0
-2189 2190 2192 0
-2189 2192 2208 0
2189 -2192 -2208 0
2189 -2190 -2208 0
2189 -2190 -2192 0
-2190 2191 2144 0
-2190 -2191 -2144 0
2190 -2191 2144 0
2190 2191 -2144 0
2191 -5514 -5516 0
-2191 5514 0
-2191 5516 0
2192 -2193 -2196 0
-2192 2193 0
-2192 2196 0
-2193 -2194 -2195 0
-2193 2194 2195 0
2193 2194 -2195 0
2193 -2194 2195 0
2194 -5439 -5516 0
-2194 5439 0
-2194 5516 0
2195 -5504 -5514 0
-2195 5504 0
-2195 5514 0
-2196 2197 2204 0
-2196 -2197 -2204 0
2196 -2197 2204 0
2196 2197 -2204 0
-2197 2198 2202 0
-2197 -2198 -2202 0
2197 -2198 2202 0
2197 2198 -2202 0
-2198 2199 2201 0
-2198 2200 2201 0
-2198 2199 2200 0
2198 -2199 -2200 0
2198 -2200 -2201 0
2198 -2199 -2201 0
2199 -5450 -5516 0
-2199 5450 0
-2199 5516 0
2200 -5439 -5504 0
-2200 5439 0
-2200 5504 0
2201 -5434 -5514 0
-2201 5434 0
-2201 5514 0
-2202 2152 2203 0
-2202 -2152 -2203 0
2202 -2152 2203 0
2202 2152 -2203 0
-2203 -2150 -2151 0
-2203 2150 2151 0
2203 2150 -2151 0
2203 -2150 2151 0
-2204 2205 2207 0
-2204 2206 2207 0
-2204 2205 2206 0
2204 -2205 -2206 0
2204 -2206 -2207 0
2204 -2205 -2207 0
2205 -5435 -5515 0
-2205 5435 0
-2205 5515 0
2206 -5501 -5519 0
-2206 5501 0
-2206 5519 0
2207 -5436 -5520 0
-2207 5436 0
-2207 5520 0
-2208 2209 2213 0
-2208 -2209 -2213 0
2208 -2209 2213 0
2208 2209 -2213 0
-2209 2210 2211 0
-2209 -2210 -2211 0
2209 -2210 2211 0
2209 2210 -2211 0
-2210 2198 2202 0
-2210 2202 2204 0
-2210 2198 2204 0
2210 -2198 -2204 0
2210 -2202 -2204 0
2210 -2198 -2202 0
-2211 2165 2212 0
-2211 -2165 -2212 0
2211 -2165 2212 0
2211 2165 -2212 0
-2212 2159 2161 0
-2212 -2159 -2161 0
2212 -2159 2161 0
2212 2159 -2161 0
-2213 2214 2216 0
-2213 2216 2220 0
-2213 2214 2220 0
2213 -2214 -2220 0
2213 -2216 -2220 0
2213 -2214 -2216 0
-2214 2164 2215 0
-2214 -2164 -2215 0
2214 -2164 2215 0
2214 2164 -2215 0
-2215 -2162 -2163 0
-2215 2162 2163 0
2215 2162 -2163 0
2215 -2162 2163 0
-2216 2217 2219 0
-2216 2218 2219 0
-2216 2217 2218 0
2216 -2217 -2218 0
2216 -2218 -2219 0
2216 -2217 -2219 0
2217 -5511 -5522 0
-2217 5511 0
-2217 5522 0
2218 -5478 -5523 0
-2218 5478 0
-2218 5523 0
2219 -5470 -5517 0
-2219 5470 0
-2219 5517 0
-2220 2178 2221 0
-2220 -2178 -2221 0
2220 -2178 2221 0
2220 2178 -2221 0
-2221 -2176 -2177 0
-2221 2176 2177 0
2221 2176 -2177 0
2221 -2176 2177 0
-2222 -2223 -2226 0
-2222 2223 2226 0
2222 2223 -2226 0
2222 -2223 2226 0
-2223 2224 2225 0
-2223 -2224 -2225 0
2223 -2224 2225 0
2223 2224 -2225 0
-2224 -2172 -2173 0
-2224 2172 2173 0
2224 2172 -2173 0
2224 -2172 2173 0
-2225 2210 2211 0
-2225 2211 2213 0
-2225 2210 2213 0
2225 -2210 -2213 0
2225 -2211 -2213 0
2225 -2210 -2211 0
2226 -2227 -2228 0
-2226 2227 0
-2226 2228 0
-2227 2174 2175 0
-2227 -2174 -2175 0
2227 -2174 2175 0
2227 2174 -2175 0
2228 -2229 -2230 0
-2228 2229 0
-2228 2230 0
2229 -5446 -5525 0
-2229 5446 0
-2229 5525 0
-2230 2231 2233 0
-2230 2232 2233 0
-2230 2231 2232 0
2230 -2231 -2232 0
2230 -2232 -2233 0
2230 -2231 -2233 0
2231 -5507 -5518 0
-2231 5507 0
-2231 5518 0
2232 -5508 -5524 0
-2232 5508 0
-2232 5524 0
2233 -5521 -5525 0
-2233 5521 0
-2233 5525 0
-2234 2224 2225 0
-2234 2225 2226 0
-2234 2224 2226 0
2234 -2225 -2226 0
2234 -2224 -2225 0
2234 -2224 -2226 0
2235 -2236 -2237 0
-2235 2236 0
-2235 2237 0
-2236 2181 2183 0
-2236 -2181 -2183 0
2236 -2181 2183 0
2236 2181 -2183 0
2237 -2238 -2240 0
-2237 2238 0
-2237 2240 0
-2238 2234 2239 0
-2238 -2234 -2239 0
2238 -2234 2239 0
2238 2234 -2239 0
-2239 2184 2186 0
-2239 -2184 -2186 0
2239 -2184 2186 0
2239 2184 -2186 0
-2240 2241 2243 0
-2240 2243 2296 0
-2240 2241 2296 0
2240 -2241 -2296 0
2240 -2243 -2296 0
2240 -2241 -2243 0
-2241 2222 2242 0
-2241 -2222 -2242 0
2241 -2222 2242 0
2241 2222 -2242 0
-2242 2187 2189 0
-2242 -2187 -2189 0
2242 -2187 2189 0
2242 2187 -2189 0
-2243 2244 2246 0
-2243 2246 2284 0
-2243 2244 2284 0
2243 -2244 -2284 0
2243 -2246 -2284 0
2243 -2244 -2246 0
-2244 2208 2245 0
-2244 -2208 -2245 0
2244 -2208 2245 0
2244 2208 -2245 0
-2245 -2190 -2192 0
-2245 2190 2192 0
2245 2190 -2192 0
2245 -2190 2192 0
-2246 2247 2248 0
-2246 2248 2270 0
-2246 2247 2270 0
2246 -2247 -2270 0
2246 -2248 -2270 0
2246 -2247 -2248 0
-2247 2193 2196 0
-2247 -2193 -2196 0
2247 -2193 2196 0
2247 2193 -2196 0
-2248 2249 2251 0
-2248 2251 2261 0
-2248 2249 2261 0
2248 -2249 -2261 0
2248 -2251 -2261 0
2248 -2249 -2251 0
-2249 -2250 -2201 0
-2249 2250 2201 0
2249 2250 -2201 0
2249 -2250 2201 0
-2250 -2199 -2200 0
-2250 2199 2200 0
2250 2199 -2200 0
2250 -2199 2200 0
-2251 2252 2259 0
-2251 2253 2254 0
-2251 2253 2259 0
-2251 2252 2254 0
2251 -2252 -2253 0
2251 -2254 -2259 0
2252 -5513 -5516 0
-2252 5513 0
-2252 5516 0
2253 -5442 -5504 -5513 -5516 0
-2253 5516 0
-2253 5442 0
-2253 5513 0
-2253 5504 0
-2254 -2255 -2258 0
-2254 2255 2258 0
2254 2255 -2258 0
2254 -2255 2258 0
-2255 -2256 -2257 0
-2255 2256 2257 0
2255 2256 -2257 0
2255 -2256 2257 0
2256 -5450 -5504 0
-2256 5450 0
-2256 5504 0
2257 -5434 -5439 0
-2257 5434 0
-2257 5439 0
2258 -5435 -5514 0
-2258 5435 0
-2258 5514 0
-2259 2260 0
2259 -2260 0
2260 5442 -5513 -5516 0
2260 5504 -5513 -5516 0
-2260 5516 0
-2260 5513 0
-2260 -5442 -5504 0
-2261 2262 2266 0
-2261 -2262 -2266 0
2261 -2262 2266 0
2261 2262 -2266 0
-2262 2263 2264 0
-2262 -2263 -2264 0
2262 -2263 2264 0
2262 2263 -2264 0
-2263 2256 2258 0
-2263 2257 2258 0
-2263 2256 2257 0
2263 -2256 -2257 0
2263 -2257 -2258 0
2263 -2256 -2258 0
-2264 2207 2265 0
-2264 -2207 -2265 0
2264 -2207 2265 0
2264 2207 -2265 0
-2265 -2205 -2206 0
-2265 2205 2206 0
2265 2205 -2206 0
2265 -2205 2206 0
-2266 2267 2269 0
-2266 2268 2269 0
-2266 2267 2268 0
2266 -2267 -2268 0
2266 -2268 -2269 0
2266 -2267 -2269 0
2267 -5515 -5519 0
-2267 5515 0
-2267 5519 0
2268 -5501 -5520 0
-2268 5501 0
-2268 5520 0
2269 -5436 -5522 0
-2269 5436 0
-2269 5522 0
-2270 2271 2275 0
-2270 -2271 -2275 0
2270 -2271 2275 0
2270 2271 -2275 0
-2271 2272 2273 0
-2271 -2272 -2273 0
2271 -2272 2273 0
2271 2272 -2273 0
-2272 2263 2264 0
-2272 2264 2266 0
-2272 2263 2266 0
2272 -2263 -2266 0
2272 -2264 -2266 0
2272 -2263 -2264 0
-2273 2220 2274 0
-2273 -2220 -2274 0
2273 -2220 2274 0
2273 2220 -2274 0
-2274 2214 2216 0
-2274 -2214 -2216 0
2274 -2214 2216 0
2274 2214 -2216 0
-2275 2276 2278 0
-2275 2278 2282 0
-2275 2276 2282 0
2275 -2276 -2282 0
2275 -2278 -2282 0
2275 -2276 -2278 0
-2276 2219 2277 0
-2276 -2219 -2277 0
2276 -2219 2277 0
2276 2219 -2277 0
-2277 -2217 -2218 0
-2277 2217 2218 0
2277 2217 -2218 0
2277 -2217 2218 0
-2278 2279 2281 0
-2278 2280 2281 0
-2278 2279 2280 0
2278 -2279 -2280 0
2278 -2280 -2281 0
2278 -2279 -2281 0
2279 -5511 -5523 0
-2279 5511 0
-2279 5523 0
2280 -5470 -5478 0
-2280 5470 0
-2280 5478 0
2281 -5507 -5517 0
-2281 5507 0
-2281 5517 0
-2282 2233 2283 0
-2282 -2233 -2283 0
2282 -2233 2283 0
2282 2233 -2283 0
-2283 -2231 -2232 0
-2283 2231 2232 0
2283 2231 -2232 0
2283 -2231 2232 0
-2284 -2285 -2288 0
-2284 2285 2288 0
2284 2285 -2288 0
2284 -2285 2288 0
-2285 2286 2287 0
-2285 -2286 -2287 0
2285 -2286 2287 0
2285 2286 -2287 0
-2286 -2227 -2228 0
-2286 2227 2228 0
2286 2227 -2228 0
2286 -2227 2228 0
-2287 2272 2273 0
-2287 2273 2275 0
-2287 2272 2275 0
2287 -2272 -2275 0
2287 -2273 -2275 0
2287 -2272 -2273 0
2288 -2289 -2290 0
-2288 2289 0
-2288 2290 0
-2289 2229 2230 0
-2289 -2229 -2230 0
2289 -2229 2230 0
2289 2229 -2230 0
2290 -2291 -2292 0
-2290 2291 0
-2290 2292 0
2291 -5446 -5526 0
-2291 5446 0
-2291 5526 0
-2292 2293 2295 0
-2292 2294 2295 0
-2292 2293 2294 0
2292 -2293 -2294 0
2292 -2294 -2295 0
2292 -2293 -2295 0
2293 -5518 -5524 0
-2293 5518 0
-2293 5524 0
2294 -5508 -5525 0
-2294 5508 0
-2294 5525 0
2295 -5521 -5526 0
-2295 5521 0
-2295 5526 0
-2296 2286 2287 0
-2296 2287 2288 0
-2296 2286 2288 0
2296 -2287 -2288 0
2296 -2286 -2287 0
2296 -2286 -2288 0
-2297 2298 2560 0
-2297 2560 2779 0
-2297 2560 2783 0
2297 -2560 0
2297 -2298 -2779 -2783 0
2298 -2299 -2434 0
-2298 2299 0
-2298 2434 0
2299 -2300 -2367 0
-2299 2300 0
-2299 2367 0
-2300 -2301 -2302 0
-2300 2301 2302 0
2300 2301 -2302 0
2300 -2301 2302 0
-2301 -2236 -2237 0
-2301 2236 2237 0
2301 2236 -2237 0
2301 -2236 2237 0
2302 -2303 -2304 0
-2302 2303 0
-2302 2304 0
-2303 2238 2240 0
-2303 -2238 -2240 0
2303 -2238 2240 0
2303 2238 -2240 0
2304 -2305 -2307 0
-2304 2305 0
-2304 2307 0
-2305 2296 2306 0
-2305 -2296 -2306 0
2305 -2296 2306 0
2305 2296 -2306 0
-2306 2241 2243 0
-2306 -2241 -2243 0
2306 -2241 2243 0
2306 2241 -2243 0
-2307 2308 2310 0
-2307 2310 2366 0
-2307 2308 2366 0
2307 -2308 -2366 0
2307 -2310 -2366 0
2307 -2308 -2310 0
-2308 2284 2309 0
-2308 -2284 -2309 0
2308 -2284 2309 0
2308 2284 -2309 0
-2309 2244 2246 0
-2309 -2244 -2246 0
2309 -2244 2246 0
2309 2244 -2246 0
-2310 2311 2313 0
-2310 2313 2354 0
-2310 2311 2354 0
2310 -2311 -2354 0
2310 -2313 -2354 0
2310 -2311 -2313 0
-2311 2270 2312 0
-2311 -2270 -2312 0
2311 -2270 2312 0
2311 2270 -2312 0
-2312 2247 2248 0
-2312 -2247 -2248 0
2312 -2247 2248 0
2312 2247 -2248 0
-2313 2314 2316 0
-2313 2316 2340 0
-2313 2314 2340 0
2313 -2314 -2340 0
2313 -2316 -2340 0
2313 -2314 -2316 0
-2314 2261 2315 0
-2314 -2261 -2315 0
2314 -2261 2315 0
2314 2261 -2315 0
-2315 2249 2251 0
-2315 -2249 -2251 0
2315 -2249 2251 0
2315 2249 -2251 0
-2316 2317 2318 0
-2316 2318 2331 0
-2316 2317 2331 0
2316 -2317 -2331 0
2316 -2318 -2331 0
2316 -2317 -2318 0
-2317 2254 2259 0
-2317 -2254 -2259 0
2317 -2254 2259 0
2317 2254 -2259 0
-2318 2319 2322 0
-2318 2322 2326 0
-2318 2319 2326 0
2318 -2319 -2326 0
2318 -2322 -2326 0
2318 -2319 -2322 0
-2319 -2320 -2321 0
-2319 2320 2321 0
2319 2320 -2321 0
2319 -2320 2321 0
2320 -5442 -5516 0
-2320 5442 0
-2320 5516 0
2321 -5504 -5513 0
-2321 5504 0
-2321 5513 0
-2322 2323 2325 0
-2322 2324 2325 0
-2322 2323 2324 0
2322 -2323 -2324 0
2322 -2324 -2325 0
2322 -2323 -2325 0
2323 -5505 -5516 0
-2323 5505 0
-2323 5516 0
2324 -5442 -5504 0
-2324 5442 0
-2324 5504 0
2325 -5434 -5513 0
-2325 5434 0
-2325 5513 0
-2326 -2327 -2330 0
-2326 2327 2330 0
2326 2327 -2330 0
2326 -2327 2330 0
-2327 -2328 -2329 0
-2327 2328 2329 0
2327 2328 -2329 0
2327 -2328 2329 0
2328 -5434 -5450 0
-2328 5434 0
-2328 5450 0
2329 -5435 -5439 0
-2329 5435 0
-2329 5439 0
2330 -5514 -5519 0
-2330 5514 0
-2330 5519 0
-2331 2332 2336 0
-2331 -2332 -2336 0
2331 -2332 2336 0
2331 2332 -2336 0
-2332 2333 2334 0
-2332 -2333 -2334 0
2332 -2333 2334 0
2332 2333 -2334 0
-2333 2328 2330 0
-2333 2329 2330 0
-2333 2328 2329 0
2333 -2328 -2329 0
2333 -2329 -2330 0
2333 -2328 -2330 0
-2334 2269 2335 0
-2334 -2269 -2335 0
2334 -2269 2335 0
2334 2269 -2335 0
-2335 -2267 -2268 0
-2335 2267 2268 0
2335 2267 -2268 0
2335 -2267 2268 0
-2336 2337 2339 0
-2336 2338 2339 0
-2336 2337 2338 0
2336 -2337 -2338 0
2336 -2338 -2339 0
2336 -2337 -2339 0
2337 -5515 -5520 0
-2337 5515 0
-2337 5520 0
2338 -5501 -5522 0
-2338 5501 0
-2338 5522 0
2339 -5436 -5523 0
-2339 5436 0
-2339 5523 0
-2340 2341 2345 0
-2340 -2341 -2345 0
2340 -2341 2345 0
2340 2341 -2345 0
-2341 2342 2343 0
-2341 -2342 -2343 0
2341 -2342 2343 0
2341 2342 -2343 0
-2342 2333 2334 0
-2342 2334 2336 0
-2342 2333 2336 0
2342 -2333 -2336 0
2342 -2334 -2336 0
2342 -2333 -2334 0
-2343 2282 2344 0
-2343 -2282 -2344 0
2343 -2282 2344 0
2343 2282 -2344 0
-2344 2276 2278 0
-2344 -2276 -2278 0
2344 -2276 2278 0
2344 2276 -2278 0
-2345 2346 2348 0
-2345 2348 2352 0
-2345 2346 2352 0
2345 -2346 -2352 0
2345 -2348 -2352 0
2345 -2346 -2348 0
-2346 2281 2347 0
-2346 -2281 -2347 0
2346 -2281 2347 0
2346 2281 -2347 0
-2347 -2279 -2280 0
-2347 2279 2280 0
2347 2279 -2280 0
2347 -2279 2280 0
-2348 2349 2351 0
-2348 2350 2351 0
-2348 2349 2350 0
2348 -2349 -2350 0
2348 -2350 -2351 0
2348 -2349 -2351 0
2349 -5470 -5511 0
-2349 5470 0
-2349 5511 0
2350 -5478 -5507 0
-2350 5478 0
-2350 5507 0
2351 -5517 -5524 0
-2351 5517 0
-2351 5524 0
-2352 2295 2353 0
-2352 -2295 -2353 0
2352 -2295 2353 0
2352 2295 -2353 0
-2353 -2293 -2294 0
-2353 2293 2294 0
2353 2293 -2294 0
2353 -2293 2294 0
-2354 -2355 -2358 0
-2354 2355 2358 0
2354 2355 -2358 0
2354 -2355 2358 0
-2355 2356 2357 0
-2355 -2356 -2357 0
2355 -2356 2357 0
2355 2356 -2357 0
-2356 -2289 -2290 0
-2356 2289 2290 0
2356 2289 -2290 0
2356 -2289 2290 0
-2357 2342 2343 0
-2357 2343 2345 0
-2357 2342 2345 0
2357 -2342 -2345 0
2357 -2343 -2345 0
2357 -2342 -2343 0
2358 -2359 -2360 0
-2358 2359 0
-2358 2360 0
-2359 2291 2292 0
-2359 -2291 -2292 0
2359 -2291 2292 0
2359 2291 -2292 0
2360 -2361 -2362 0
-2360 2361 0
-2360 2362 0
2361 -5446 -5512 0
-2361 5446 0
-2361 5512 0
-2362 2363 2365 0
-2362 2364 2365 0
-2362 2363 2364 0
2362 -2363 -2364 0
2362 -2364 -2365 0
2362 -2363 -2365 0
2363 -5518 -5525 0
-2363 5518 0
-2363 5525 0
2364 -5508 -5526 0
-2364 5508 0
-2364 5526 0
2365 -5512 -5521 0
-2365 5512 0
-2365 5521 0
-2366 2356 2357 0
-2366 2357 2358 0
-2366 2356 2358 0
2366 -2357 -2358 0
2366 -2356 -2357 0
2366 -2356 -2358 0
-2367 -2368 -2369 0
-2367 2368 2369 0
2367 2368 -2369 0
2367 -2368 2369 0
-2368 -2303 -2304 0
-2368 2303 2304 0
2368 2303 -2304 0
2368 -2303 2304 0
2369 -2370 -2371 0
-2369 2370 0
-2369 2371 0
-2370 2305 2307 0
-2370 -2305 -2307 0
2370 -2305 2307 0
2370 2305 -2307 0
2371 -2372 -2374 0
-2371 2372 0
-2371 2374 0
-2372 2366 2373 0
-2372 -2366 -2373 0
2372 -2366 2373 0
2372 2366 -2373 0
-2373 2308 2310 0
-2373 -2308 -2310 0
2373 -2308 2310 0
2373 2308 -2310 0
-2374 2375 2377 0
-2374 2377 2433 0
-2374 2375 2433 0
2374 -2375 -2433 0
2374 -2377 -2433 0
2374 -2375 -2377 0
-2375 2354 2376 0
-2375 -2354 -2376 0
2375 -2354 2376 0
2375 2354 -2376 0
-2376 2311 2313 0
-2376 -2311 -2313 0
2376 -2311 2313 0
2376 2311 -2313 0
-2377 2378 2380 0
-2377 2380 2421 0
-2377 2378 2421 0
2377 -2378 -2421 0
2377 -2380 -2421 0
2377 -2378 -2380 0
-2378 2340 2379 0
-2378 -2340 -2379 0
2378 -2340 2379 0
2378 2340 -2379 0
-2379 2314 2316 0
-2379 -2314 -2316 0
2379 -2314 2316 0
2379 2314 -2316 0
-2380 2381 2383 0
-2380 2383 2407 0
-2380 2381 2407 0
2380 -2381 -2407 0
2380 -2383 -2407 0
2380 -2381 -2383 0
-2381 2331 2382 0
-2381 -2331 -2382 0
2381 -2331 2382 0
2381 2331 -2382 0
-2382 2317 2318 0
-2382 -2317 -2318 0
2382 -2317 2318 0
2382 2317 -2318 0
-2383 2384 2386 0
-2383 2386 2398 0
-2383 2384 2398 0
2383 -2384 -2398 0
2383 -2386 -2398 0
2383 -2384 -2386 0
-2384 2326 2385 0
-2384 -2326 -2385 0
2384 -2326 2385 0
2384 2326 -2385 0
-2385 2319 2322 0
-2385 -2319 -2322 0
2385 -2319 2322 0
2385 2319 -2322 0
-2386 2387 2389 0
-2386 2389 2393 0
-2386 2387 2393 0
2386 -2387 -2393 0
2386 -2389 -2393 0
2386 -2387 -2389 0
-2387 2325 2388 0
-2387 -2325 -2388 0
2387 -2325 2388 0
2387 2325 -2388 0
-2388 -2323 -2324 0
-2388 2323 2324 0
2388 2323 -2324 0
2388 -2323 2324 0
-2389 2390 2392 0
-2389 2391 2392 0
-2389 2390 2391 0
2389 -2390 -2391 0
2389 -2391 -2392 0
2389 -2390 -2392 0
2390 -5504 -5505 0
-2390 5504 0
-2390 5505 0
2391 -5434 -5442 0
-2391 5434 0
-2391 5442 0
2392 -5435 -5513 0
-2392 5435 0
-2392 5513 0
-2393 -2394 -2397 0
-2393 2394 2397 0
2393 2394 -2397 0
2393 -2394 2397 0
-2394 -2395 -2396 0
-2394 2395 2396 0
2394 2395 -2396 0
2394 -2395 2396 0
2395 -5435 -5450 0
-2395 5435 0
-2395 5450 0
2396 -5439 -5519 0
-2396 5439 0
-2396 5519 0
2397 -5514 -5520 0
-2397 5514 0
-2397 5520 0
-2398 2399 2403 0
-2398 -2399 -2403 0
2398 -2399 2403 0
2398 2399 -2403 0
-2399 2400 2401 0
-2399 -2400 -2401 0
2399 -2400 2401 0
2399 2400 -2401 0
-2400 2395 2397 0
-2400 2396 2397 0
-2400 2395 2396 0
2400 -2395 -2396 0
2400 -2396 -2397 0
2400 -2395 -2397 0
-2401 2339 2402 0
-2401 -2339 -2402 0
2401 -2339 2402 0
2401 2339 -2402 0
-2402 -2337 -2338 0
-2402 2337 2338 0
2402 2337 -2338 0
2402 -2337 2338 0
-2403 2404 2406 0
-2403 2405 2406 0
-2403 2404 2405 0
2403 -2404 -2405 0
2403 -2405 -2406 0
2403 -2404 -2406 0
2404 -5515 -5522 0
-2404 5515 0
-2404 5522 0
2405 -5501 -5523 0
-2405 5501 0
-2405 5523 0
2406 -5436 -5470 0
-2406 5436 0
-2406 5470 0
-2407 2408 2412 0
-2407 -2408 -2412 0
2407 -2408 2412 0
2407 2408 -2412 0
-2408 2409 2410 0
-2408 -2409 -2410 0
2408 -2409 2410 0
2408 2409 -2410 0
-2409 2400 2401 0
-2409 2401 2403 0
-2409 2400 2403 0
2409 -2400 -2403 0
2409 -2401 -2403 0
2409 -2400 -2401 0
-2410 2352 2411 0
-2410 -2352 -2411 0
2410 -2352 2411 0
2410 2352 -2411 0
-2411 2346 2348 0
-2411 -2346 -2348 0
2411 -2346 2348 0
2411 2346 -2348 0
-2412 2413 2415 0
-2412 2415 2419 0
-2412 2413 2419 0
2412 -2413 -2419 0
2412 -2415 -2419 0
2412 -2413 -2415 0
-2413 2351 2414 0
-2413 -2351 -2414 0
2413 -2351 2414 0
2413 2351 -2414 0
-2414 -2349 -2350 0
-2414 2349 2350 0
2414 2349 -2350 0
2414 -2349 2350 0
-2415 2416 2418 0
-2415 2417 2418 0
-2415 2416 2417 0
2415 -2416 -2417 0
2415 -2417 -2418 0
2415 -2416 -2418 0
2416 -5507 -5511 0
-2416 5507 0
-2416 5511 0
2417 -5478 -5524 0
-2417 5478 0
-2417 5524 0
2418 -5517 -5525 0
-2418 5517 0
-2418 5525 0
-2419 2365 2420 0
-2419 -2365 -2420 0
2419 -2365 2420 0
2419 2365 -2420 0
-2420 -2363 -2364 0
-2420 2363 2364 0
2420 2363 -2364 0
2420 -2363 2364 0
-2421 -2422 -2425 0
-2421 2422 2425 0
2421 2422 -2425 0
2421 -2422 2425 0
-2422 2423 2424 0
-2422 -2423 -2424 0
2422 -2423 2424 0
2422 2423 -2424 0
-2423 -2359 -2360 0
-2423 2359 2360 0
2423 2359 -2360 0
2423 -2359 2360 0
-2424 2409 2410 0
-2424 2410 2412 0
-2424 2409 2412 0
2424 -2409 -2412 0
2424 -2410 -2412 0
2424 -2409 -2410 0
2425 -2426 -2427 0
-2425 2426 0
-2425 2427 0
-2426 2361 2362 0
-2426 -2361 -2362 0
2426 -2361 2362 0
2426 2361 -2362 0
2427 -2428 -2429 0
-2427 2428 0
-2427 2429 0
2428 -5437 -5446 0
-2428 5437 0
-2428 5446 0
-2429 2430 2432 0
-2429 2431 2432 0
-2429 2430 2431 0
2429 -2430 -2431 0
2429 -2431 -2432 0
2429 -2430 -2432 0
2430 -5518 -5526 0
-2430 5518 0
-2430 5526 0
2431 -5508 -5512 0
-2431 5508 0
-2431 5512 0
2432 -5437 -5521 0
-2432 5437 0
-2432 5521 0
-2433 2423 2424 0
-2433 2424 2425 0
-2433 2423 2425 0
2433 -2424 -2425 0
2433 -2423 -2424 0
2433 -2423 -2425 0
2434 -2435 -2502 0
-2434 2435 0
-2434 2502 0
-2435 -2436 -2437 0
-2435 2436 2437 0
2435 2436 -2437 0
2435 -2436 2437 0
-2436 -2370 -2371 0
-2436 2370 2371 0
2436 2370 -2371 0
2436 -2370 2371 0
2437 -2438 -2439 0
-2437 2438 0
-2437 2439 0
-2438 2372 2374 0
-2438 -2372 -2374 0
2438 -2372 2374 0
2438 2372 -2374 0
2439 -2440 -2442 0
-2439 2440 0
-2439 2442 0
-2440 2433 2441 0
-2440 -2433 -2441 0
2440 -2433 2441 0
2440 2433 -2441 0
-2441 2375 2377 0
-2441 -2375 -2377 0
2441 -2375 2377 0
2441 2375 -2377 0
-2442 2443 2445 0
-2442 2445 2501 0
-2442 2443 2501 0
2442 -2443 -2501 0
2442 -2445 -2501 0
2442 -2443 -2445 0
-2443 2421 2444 0
-2443 -2421 -2444 0
2443 -2421 2444 0
2443 2421 -2444 0
-2444 2378 2380 0
-2444 -2378 -2380 0
2444 -2378 2380 0
2444 2378 -2380 0
-2445 2446 2448 0
-2445 2448 2489 0
-2445 2446 2489 0
2445 -2446 -2489 0
2445 -2448 -2489 0
2445 -2446 -2448 0
-2446 2407 2447 0
-2446 -2407 -2447 0
2446 -2407 2447 0
2446 2407 -2447 0
-2447 2381 2383 0
-2447 -2381 -2383 0
2447 -2381 2383 0
2447 2381 -2383 0
-2448 2449 2451 0
-2448 2451 2475 0
-2448 2449 2475 0
2448 -2449 -2475 0
2448 -2451 -2475 0
2448 -2449 -2451 0
-2449 2398 2450 0
-2449 -2398 -2450 0
2449 -2398 2450 0
2449 2398 -2450 0
-2450 2384 2386 0
-2450 -2384 -2386 0
2450 -2384 2386 0
2450 2384 -2386 0
-2451 2452 2454 0
-2451 2454 2466 0
-2451 2452 2466 0
2451 -2452 -2466 0
2451 -2454 -2466 0
2451 -2452 -2454 0
-2452 2393 2453 0
-2452 -2393 -2453 0
2452 -2393 2453 0
2452 2393 -2453 0
-2453 2387 2389 0
-2453 -2387 -2389 0
2453 -2387 2389 0
2453 2387 -2389 0
-2454 2455 2457 0
-2454 2457 2461 0
-2454 2455 2461 0
2454 -2455 -2461 0
2454 -2457 -2461 0
2454 -2455 -2457 0
-2455 2392 2456 0
-2455 -2392 -2456 0
2455 -2392 2456 0
2455 2392 -2456 0
-2456 -2390 -2391 0
-2456 2390 2391 0
2456 2390 -2391 0
2456 -2390 2391 0
-2457 2458 2460 0
-2457 2459 2460 0
-2457 2458 2459 0
2457 -2458 -2459 0
2457 -2459 -2460 0
2457 -2458 -2460 0
2458 -5434 -5505 0
-2458 5434 0
-2458 5505 0
2459 -5435 -5442 0
-2459 5435 0
-2459 5442 0
2460 -5513 -5519 0
-2460 5513 0
-2460 5519 0
-2461 -2462 -2465 0
-2461 2462 2465 0
2461 2462 -2465 0
2461 -2462 2465 0
-2462 -2463 -2464 0
-2462 2463 2464 0
2462 2463 -2464 0
2462 -2463 2464 0
2463 -5450 -5519 0
-2463 5450 0
-2463 5519 0
2464 -5439 -5520 0
-2464 5439 0
-2464 5520 0
2465 -5514 -5522 0
-2465 5514 0
-2465 5522 0
-2466 2467 2471 0
-2466 -2467 -2471 0
2466 -2467 2471 0
2466 2467 -2471 0
-2467 2468 2469 0
-2467 -2468 -2469 0
2467 -2468 2469 0
2467 2468 -2469 0
-2468 2463 2465 0
-2468 2464 2465 0
-2468 2463 2464 0
2468 -2463 -2464 0
2468 -2464 -2465 0
2468 -2463 -2465 0
-2469 2406 2470 0
-2469 -2406 -2470 0
2469 -2406 2470 0
2469 2406 -2470 0
-2470 -2404 -2405 0
-2470 2404 2405 0
2470 2404 -2405 0
2470 -2404 2405 0
-2471 2472 2474 0
-2471 2473 2474 0
-2471 2472 2473 0
2471 -2472 -2473 0
2471 -2473 -2474 0
2471 -2472 -2474 0
2472 -5515 -5523 0
-2472 5515 0
-2472 5523 0
2473 -5470 -5501 0
-2473 5470 0
-2473 5501 0
2474 -5436 -5507 0
-2474 5436 0
-2474 5507 0
-2475 2476 2480 0
-2475 -2476 -2480 0
2475 -2476 2480 0
2475 2476 -2480 0
-2476 2477 2478 0
-2476 -2477 -2478 0
2476 -2477 2478 0
2476 2477 -2478 0
-2477 2468 2469 0
-2477 2469 2471 0
-2477 2468 2471 0
2477 -2468 -2471 0
2477 -2469 -2471 0
2477 -2468 -2469 0
-2478 2419 2479 0
-2478 -2419 -2479 0
2478 -2419 2479 0
2478 2419 -2479 0
-2479 2413 2415 0
-2479 -2413 -2415 0
2479 -2413 2415 0
2479 2413 -2415 0
-2480 2481 2483 0
-2480 2483 2487 0
-2480 2481 2487 0
2480 -2481 -2487 0
2480 -2483 -2487 0
2480 -2481 -2483 0
-2481 2418 2482 0
-2481 -2418 -2482 0
2481 -2418 2482 0
2481 2418 -2482 0
-2482 -2416 -2417 0
-2482 2416 2417 0
2482 2416 -2417 0
2482 -2416 2417 0
-2483 2484 2486 0
-2483 2485 2486 0
-2483 2484 2485 0
2483 -2484 -2485 0
2483 -2485 -2486 0
2483 -2484 -2486 0
2484 -5511 -5524 0
-2484 5511 0
-2484 5524 0
2485 -5478 -5525 0
-2485 5478 0
-2485 5525 0
2486 -5517 -5526 0
-2486 5517 0
-2486 5526 0
-2487 2432 2488 0
-2487 -2432 -2488 0
2487 -2432 2488 0
2487 2432 -2488 0
-2488 -2430 -2431 0
-2488 2430 2431 0
2488 2430 -2431 0
2488 -2430 2431 0
-2489 -2490 -2493 0
-2489 2490 2493 0
2489 2490 -2493 0
2489 -2490 2493 0
-2490 2491 2492 0
-2490 -2491 -2492 0
2490 -2491 2492 0
2490 2491 -2492 0
-2491 -2426 -2427 0
-2491 2426 2427 0
2491 2426 -2427 0
2491 -2426 2427 0
-2492 2477 2478 0
-2492 2478 2480 0
-2492 2477 2480 0
2492 -2477 -2480 0
2492 -2478 -2480 0
2492 -2477 -2478 0
2493 -2494 -2495 0
-2493 2494 0
-2493 2495 0
-2494 2428 2429 0
-2494 -2428 -2429 0
2494 -2428 2429 0
2494 2428 -2429 0
2495 -2496 -2497 0
-2495 2496 0
-2495 2497 0
2496 -5431 -5446 0
-2496 5431 0
-2496 5446 0
-2497 2498 2500 0
-2497 2499 2500 0
-2497 2498 2499 0
2497 -2498 -2499 0
2497 -2499 -2500 0
2497 -2498 -2500 0
2498 -5512 -5518 0
-2498 5512 0
-2498 5518 0
2499 -5437 -5508 0
-2499 5437 0
-2499 5508 0
2500 -5431 -5521 0
-2500 5431 0
-2500 5521 0
-2501 2491 2492 0
-2501 2492 2493 0
-2501 2491 2493 0
2501 -2492 -2493 0
2501 -2491 -2492 0
2501 -2491 -2493 0
-2502 -2503 -2504 0
-2502 2503 2504 0
2502 2503 -2504 0
2502 -2503 2504 0
-2503 -2438 -2439 0
-2503 2438 2439 0
2503 2438 -2439 0
2503 -2438 2439 0
2504 -2505 -2506 0
-2504 2505 0
-2504 2506 0
-2505 2440 2442 0
-2505 -2440 -2442 0
2505 -2440 2442 0
2505 2440 -2442 0
2506 -2507 -2509 0
-2506 2507 0
-2506 2509 0
-2507 2501 2508 0
-2507 -2501 -2508 0
2507 -2501 2508 0
2507 2501 -2508 0
-2508 2443 2445 0
-2508 -2443 -2445 0
2508 -2443 2445 0
2508 2443 -2445 0
-2509 2510 2512 0
-2509 2512 2559 0
-2509 2510 2559 0
2509 -2512 -2559 0
2509 -2510 -2512 0
2509 -2510 -2559 0
-2510 2489 2511 0
-2510 -2489 -2511 0
2510 -2489 2511 0
2510 2489 -2511 0
-2511 2446 2448 0
-2511 -2446 -2448 0
2511 -2446 2448 0
2511 2446 -2448 0
-2512 2513 2515 0
-2512 2515 2556 0
-2512 2513 2556 0
2512 -2513 -2556 0
2512 -2515 -2556 0
2512 -2513 -2515 0
-2513 2475 2514 0
-2513 -2475 -2514 0
2513 -2475 2514 0
2513 2475 -2514 0
-2514 2449 2451 0
-2514 -2449 -2451 0
2514 -2449 2451 0
2514 2449 -2451 0
-2515 2516 2518 0
-2515 2518 2542 0
-2515 2516 2542 0
2515 -2516 -2542 0
2515 -2518 -2542 0
2515 -2516 -2518 0
-2516 2466 2517 0
-2516 -2466 -2517 0
2516 -2466 2517 0
2516 2466 -2517 0
-2517 2452 2454 0
-2517 -2452 -2454 0
2517 -2452 2454 0
2517 2452 -2454 0
-2518 2519 2521 0
-2518 2521 2533 0
-2518 2519 2533 0
2518 -2519 -2533 0
2518 -2521 -2533 0
2518 -2519 -2521 0
-2519 2461 2520 0
-2519 -2461 -2520 0
2519 -2461 2520 0
2519 2461 -2520 0
-2520 2455 2457 0
-2520 -2455 -2457 0
2520 -2455 2457 0
2520 2455 -2457 0
-2521 2522 2524 0
-2521 2524 2528 0
-2521 2522 2528 0
2521 -2522 -2528 0
2521 -2524 -2528 0
2521 -2522 -2524 0
-2522 2460 2523 0
-2522 -2460 -2523 0
2522 -2460 2523 0
2522 2460 -2523 0
-2523 -2458 -2459 0
-2523 2458 2459 0
2523 2458 -2459 0
2523 -2458 2459 0
-2524 2525 2527 0
-2524 2526 2527 0
-2524 2525 2526 0
2524 -2525 -2526 0
2524 -2526 -2527 0
2524 -2525 -2527 0
2525 -5435 -5505 0
-2525 5435 0
-2525 5505 0
2526 -5442 -5519 0
-2526 5442 0
-2526 5519 0
2527 -5513 -5520 0
-2527 5513 0
-2527 5520 0
-2528 -2529 -2532 0
-2528 2529 2532 0
2528 2529 -2532 0
2528 -2529 2532 0
-2529 -2530 -2531 0
-2529 2530 2531 0
2529 2530 -2531 0
2529 -2530 2531 0
2530 -5450 -5520 0
-2530 5450 0
-2530 5520 0
2531 -5439 -5522 0
-2531 5439 0
-2531 5522 0
2532 -5514 -5523 0
-2532 5514 0
-2532 5523 0
-2533 2534 2538 0
-2533 -2534 -2538 0
2533 -2534 2538 0
2533 2534 -2538 0
-2534 2535 2536 0
-2534 -2535 -2536 0
2534 -2535 2536 0
2534 2535 -2536 0
-2535 2530 2532 0
-2535 2531 2532 0
-2535 2530 2531 0
2535 -2530 -2531 0
2535 -2531 -2532 0
2535 -2530 -2532 0
-2536 2474 2537 0
-2536 -2474 -2537 0
2536 -2474 2537 0
2536 2474 -2537 0
-2537 -2472 -2473 0
-2537 2472 2473 0
2537 2472 -2473 0
2537 -2472 2473 0
-2538 2539 2541 0
-2538 2540 2541 0
-2538 2539 2540 0
2538 -2539 -2540 0
2538 -2540 -2541 0
2538 -2539 -2541 0
2539 -5470 -5515 0
-2539 5470 0
-2539 5515 0
2540 -5501 -5507 0
-2540 5501 0
-2540 5507 0
2541 -5436 -5524 0
-2541 5436 0
-2541 5524 0
-2542 2543 2547 0
-2542 -2543 -2547 0
2542 -2543 2547 0
2542 2543 -2547 0
-2543 2544 2545 0
-2543 -2544 -2545 0
2543 -2544 2545 0
2543 2544 -2545 0
-2544 2535 2536 0
-2544 2536 2538 0
-2544 2535 2538 0
2544 -2535 -2538 0
2544 -2536 -2538 0
2544 -2535 -2536 0
-2545 2487 2546 0
-2545 -2487 -2546 0
2545 -2487 2546 0
2545 2487 -2546 0
-2546 2481 2483 0
-2546 -2481 -2483 0
2546 -2481 2483 0
2546 2481 -2483 0
-2547 2548 2550 0
-2547 2550 2554 0
-2547 2548 2554 0
2547 -2548 -2554 0
2547 -2550 -2554 0
2547 -2548 -2550 0
-2548 2486 2549 0
-2548 -2486 -2549 0
2548 -2486 2549 0
2548 2486 -2549 0
-2549 -2484 -2485 0
-2549 2484 2485 0
2549 2484 -2485 0
2549 -2484 2485 0
-2550 2551 2553 0
-2550 2552 2553 0
-2550 2551 2552 0
2550 -2551 -2552 0
2550 -2552 -2553 0
2550 -2551 -2553 0
2551 -5511 -5525 0
-2551 5511 0
-2551 5525 0
2552 -5478 -5526 0
-2552 5478 0
-2552 5526 0
2553 -5512 -5517 0
-2553 5512 0
-2553 5517 0
-2554 2500 2555 0
-2554 -2500 -2555 0
2554 -2500 2555 0
2554 2500 -2555 0
-2555 -2498 -2499 0
-2555 2498 2499 0
2555 2498 -2499 0
2555 -2498 2499 0
-2556 2557 2558 0
-2556 -2557 -2558 0
2556 -2557 2558 0
2556 2557 -2558 0
-2557 -2494 -2495 0
-2557 2494 2495 0
2557 2494 -2495 0
2557 -2494 2495 0
-2558 2544 2545 0
-2558 2545 2547 0
-2558 2544 2547 0
2558 -2544 -2547 0
2558 -2545 -2547 0
2558 -2544 -2545 0
2559 -2557 -2558 0
-2559 2557 0
-2559 2558 0
-2560 2561 2563 2298 0
-2560 2561 2563 2566 0
2560 -2561 0
2560 -2563 0
2560 -2298 -2566 0
-2561 2302 2562 0
-2561 2301 2302 0
-2561 2301 2562 0
2561 -2301 -2302 0
2561 -2302 -2562 0
2561 -2301 -2562 0
2562 -2368 -2369 0
-2562 2368 0
-2562 2369 0
2563 -2299 -2564 0
-2563 2299 0
-2563 2564 0
-2564 2437 2565 0
-2564 2436 2437 0
-2564 2436 2565 0
2564 -2436 -2437 0
2564 -2437 -2565 0
2564 -2436 -2565 0
2565 -2503 -2504 0
-2565 2503 0
-2565 2504 0
-2566 2567 2568 2682 0
-2566 2567 2625 2682 0
-2566 2568 2625 2682 0
2566 -2567 -2568 0
2566 -2568 -2625 0
2566 -2682 0
2566 -2567 -2625 0
-2567 -2505 -2506 0
-2567 2505 2506 0
2567 2505 -2506 0
2567 -2505 2506 0
2568 -2569 -2570 0
-2568 2569 0
-2568 2570 0
-2569 2507 2509 0
-2569 -2507 -2509 0
2569 -2507 2509 0
2569 2507 -2509 0
2570 -2571 -2573 0
-2570 2571 0
-2570 2573 0
-2571 2559 2572 0
-2571 -2559 -2572 0
2571 -2559 2572 0
2571 2559 -2572 0
-2572 2510 2512 0
-2572 -2510 -2512 0
2572 -2510 2512 0
2572 2510 -2512 0
-2573 2574 2576 0
-2573 2576 2624 0
-2573 2574 2624 0
2573 -2576 -2624 0
2573 -2574 -2576 0
2573 -2574 -2624 0
-2574 2556 2575 0
-2574 -2556 -2575 0
2574 -2556 2575 0
2574 2556 -2575 0
-2575 2513 2515 0
-2575 -2513 -2515 0
2575 -2513 2515 0
2575 2513 -2515 0
-2576 2577 2579 0
-2576 2579 2621 0
-2576 2577 2621 0
2576 -2577 -2621 0
2576 -2579 -2621 0
2576 -2577 -2579 0
-2577 2542 2578 0
-2577 -2542 -2578 0
2577 -2542 2578 0
2577 2542 -2578 0
-2578 2516 2518 0
-2578 -2516 -2518 0
2578 -2516 2518 0
2578 2516 -2518 0
-2579 2580 2582 0
-2579 2582 2606 0
-2579 2580 2606 0
2579 -2580 -2606 0
2579 -2582 -2606 0
2579 -2580 -2582 0
-2580 2533 2581 0
-2580 -2533 -2581 0
2580 -2533 2581 0
2580 2533 -2581 0
-2581 2519 2521 0
-2581 -2519 -2521 0
2581 -2519 2521 0
2581 2519 -2521 0
-2582 2583 2585 0
-2582 2585 2597 0
-2582 2583 2597 0
2582 -2583 -2597 0
2582 -2585 -2597 0
2582 -2583 -2585 0
-2583 2528 2584 0
-2583 -2528 -2584 0
2583 -2528 2584 0
2583 2528 -2584 0
-2584 2522 2524 0
-2584 -2522 -2524 0
2584 -2522 2524 0
2584 2522 -2524 0
-2585 2586 2588 0
-2585 2588 2592 0
-2585 2586 2592 0
2585 -2586 -2592 0
2585 -2588 -2592 0
2585 -2586 -2588 0
-2586 2527 2587 0
-2586 -2527 -2587 0
2586 -2527 2587 0
2586 2527 -2587 0
-2587 -2525 -2526 0
-2587 2525 2526 0
2587 2525 -2526 0
2587 -2525 2526 0
-2588 2589 2591 0
-2588 2590 2591 0
-2588 2589 2590 0
2588 -2589 -2590 0
2588 -2590 -2591 0
2588 -2589 -2591 0
2589 -5505 -5519 0
-2589 5505 0
-2589 5519 0
2590 -5442 -5520 0
-2590 5442 0
-2590 5520 0
2591 -5513 -5522 0
-2591 5513 0
-2591 5522 0
-2592 -2593 -2596 0
-2592 2593 2596 0
2592 2593 -2596 0
2592 -2593 2596 0
-2593 -2594 -2595 0
-2593 2594 2595 0
2593 2594 -2595 0
2593 -2594 2595 0
2594 -5450 -5522 0
-2594 5450 0
-2594 5522 0
2595 -5439 -5523 0
-2595 5439 0
-2595 5523 0
2596 -5470 -5514 0
-2596 5470 0
-2596 5514 0
-2597 2598 2602 0
-2597 -2598 -2602 0
2597 -2598 2602 0
2597 2598 -2602 0
-2598 2599 2600 0
-2598 -2599 -2600 0
2598 -2599 2600 0
2598 2599 -2600 0
-2599 2594 2596 0
-2599 2595 2596 0
-2599 2594 2595 0
2599 -2594 -2595 0
2599 -2595 -2596 0
2599 -2594 -2596 0
-2600 2541 2601 0
-2600 -2541 -2601 0
2600 -2541 2601 0
2600 2541 -2601 0
-2601 -2539 -2540 0
-2601 2539 2540 0
2601 2539 -2540 0
2601 -2539 2540 0
-2602 2603 2605 0
-2602 2604 2605 0
-2602 2603 2604 0
2602 -2603 -2604 0
2602 -2604 -2605 0
2602 -2603 -2605 0
2603 -5507 -5515 0
-2603 5507 0
-2603 5515 0
2604 -5501 -5524 0
-2604 5501 0
-2604 5524 0
2605 -5436 -5525 0
-2605 5436 0
-2605 5525 0
-2606 2607 2611 0
-2606 -2607 -2611 0
2606 -2607 2611 0
2606 2607 -2611 0
-2607 2608 2609 0
-2607 -2608 -2609 0
2607 -2608 2609 0
2607 2608 -2609 0
-2608 2599 2600 0
-2608 2600 2602 0
-2608 2599 2602 0
2608 -2599 -2602 0
2608 -2600 -2602 0
2608 -2599 -2600 0
-2609 2554 2610 0
-2609 -2554 -2610 0
2609 -2554 2610 0
2609 2554 -2610 0
-2610 2548 2550 0
-2610 -2548 -2550 0
2610 -2548 2550 0
2610 2548 -2550 0
-2611 2612 2614 0
-2611 2614 2618 0
-2611 2612 2618 0
2611 -2612 -2618 0
2611 -2614 -2618 0
2611 -2612 -2614 0
-2612 2553 2613 0
-2612 -2553 -2613 0
2612 -2553 2613 0
2612 2553 -2613 0
-2613 -2551 -2552 0
-2613 2551 2552 0
2613 2551 -2552 0
2613 -2551 2552 0
-2614 2615 2617 0
-2614 2616 2617 0
-2614 2615 2616 0
2614 -2615 -2616 0
2614 -2616 -2617 0
2614 -2615 -2617 0
2615 -5511 -5526 0
-2615 5511 0
-2615 5526 0
2616 -5478 -5512 0
-2616 5478 0
-2616 5512 0
2617 -5437 -5517 0
-2617 5437 0
-2617 5517 0
-2618 -2619 -2620 0
-2618 2619 2620 0
2618 2619 -2620 0
2618 -2619 2620 0
2619 -5437 -5518 0
-2619 5437 0
-2619 5518 0
2620 -5431 -5508 0
-2620 5431 0
-2620 5508 0
-2621 2622 2623 0
-2621 -2622 -2623 0
2621 -2622 2623 0
2621 2622 -2623 0
-2622 2496 2497 0
-2622 -2496 -2497 0
2622 -2496 2497 0
2622 2496 -2497 0
-2623 2608 2609 0
-2623 2609 2611 0
-2623 2608 2611 0
2623 -2608 -2611 0
2623 -2609 -2611 0
2623 -2608 -2609 0
2624 -2622 -2623 0
-2624 2622 0
-2624 2623 0
2625 -2626 -2627 0
-2625 2626 0
-2625 2627 0
-2626 -2569 -2570 0
-2626 2569 2570 0
2626 2569 -2570 0
2626 -2569 2570 0
2627 -2628 -2629 0
-2627 2628 0
-2627 2629 0
-2628 2571 2573 0
-2628 -2571 -2573 0
2628 -2571 2573 0
2628 2571 -2573 0
2629 -2630 -2632 0
-2629 2630 0
-2629 2632 0
-2630 2624 2631 0
-2630 -2624 -2631 0
2630 -2624 2631 0
2630 2624 -2631 0
-2631 2574 2576 0
-2631 -2574 -2576 0
2631 -2574 2576 0
2631 2574 -2576 0
-2632 2633 2635 0
-2632 2635 2681 0
-2632 2633 2681 0
2632 -2635 -2681 0
2632 -2633 -2635 0
2632 -2633 -2681 0
-2633 2621 2634 0
-2633 -2621 -2634 0
2633 -2621 2634 0
2633 2621 -2634 0
-2634 2577 2579 0
-2634 -2577 -2579 0
2634 -2577 2579 0
2634 2577 -2579 0
-2635 2636 2638 0
-2635 2638 2678 0
-2635 2636 2678 0
2635 -2636 -2678 0
2635 -2638 -2678 0
2635 -2636 -2638 0
-2636 2606 2637 0
-2636 -2606 -2637 0
2636 -2606 2637 0
2636 2606 -2637 0
-2637 2580 2582 0
-2637 -2580 -2582 0
2637 -2580 2582 0
2637 2580 -2582 0
-2638 2639 2641 0
-2638 2641 2665 0
-2638 2639 2665 0
2638 -2639 -2665 0
2638 -2641 -2665 0
2638 -2639 -2641 0
-2639 2597 2640 0
-2639 -2597 -2640 0
2639 -2597 2640 0
2639 2597 -2640 0
-2640 2583 2585 0
-2640 -2583 -2585 0
2640 -2583 2585 0
2640 2583 -2585 0
-2641 2642 2644 0
-2641 2644 2656 0
-2641 2642 2656 0
2641 -2642 -2656 0
2641 -2644 -2656 0
2641 -2642 -2644 0
-2642 2592 2643 0
-2642 -2592 -2643 0
2642 -2592 2643 0
2642 2592 -2643 0
-2643 2586 2588 0
-2643 -2586 -2588 0
2643 -2586 2588 0
2643 2586 -2588 0
-2644 2645 2647 0
-2644 2647 2651 0
-2644 2645 2651 0
2644 -2645 -2651 0
2644 -2647 -2651 0
2644 -2645 -2647 0
-2645 2591 2646 0
-2645 -2591 -2646 0
2645 -2591 2646 0
2645 2591 -2646 0
-2646 -2589 -2590 0
-2646 2589 2590 0
2646 2589 -2590 0
2646 -2589 2590 0
-2647 2648 2650 0
-2647 2649 2650 0
-2647 2648 2649 0
2647 -2648 -2649 0
2647 -2649 -2650 0
2647 -2648 -2650 0
2648 -5505 -5520 0
-2648 5505 0
-2648 5520 0
2649 -5442 -5522 0
-2649 5442 0
-2649 5522 0
2650 -5513 -5523 0
-2650 5513 0
-2650 5523 0
-2651 -2652 -2655 0
-2651 2652 2655 0
2651 2652 -2655 0
2651 -2652 2655 0
-2652 -2653 -2654 0
-2652 2653 2654 0
2652 2653 -2654 0
2652 -2653 2654 0
2653 -5450 -5523 0
-2653 5450 0
-2653 5523 0
2654 -5439 -5470 0
-2654 5439 0
-2654 5470 0
2655 -5507 -5514 0
-2655 5507 0
-2655 5514 0
-2656 2657 2661 0
-2656 -2657 -2661 0
2656 -2657 2661 0
2656 2657 -2661 0
-2657 2658 2659 0
-2657 -2658 -2659 0
2657 -2658 2659 0
2657 2658 -2659 0
-2658 2653 2655 0
-2658 2654 2655 0
-2658 2653 2654 0
2658 -2653 -2654 0
2658 -2654 -2655 0
2658 -2653 -2655 0
-2659 2605 2660 0
-2659 -2605 -2660 0
2659 -2605 2660 0
2659 2605 -2660 0
-2660 -2603 -2604 0
-2660 2603 2604 0
2660 2603 -2604 0
2660 -2603 2604 0
-2661 2662 2664 0
-2661 2663 2664 0
-2661 2662 2663 0
2661 -2662 -2663 0
2661 -2663 -2664 0
2661 -2662 -2664 0
2662 -5515 -5524 0
-2662 5515 0
-2662 5524 0
2663 -5501 -5525 0
-2663 5501 0
-2663 5525 0
2664 -5436 -5526 0
-2664 5436 0
-2664 5526 0
-2665 2666 2670 0
-2665 -2666 -2670 0
2665 -2666 2670 0
2665 2666 -2670 0
-2666 2667 2668 0
-2666 -2667 -2668 0
2666 -2667 2668 0
2666 2667 -2668 0
-2667 2658 2659 0
-2667 2659 2661 0
-2667 2658 2661 0
2667 -2658 -2661 0
2667 -2659 -2661 0
2667 -2658 -2659 0
-2668 2618 2669 0
-2668 -2618 -2669 0
2668 -2618 2669 0
2668 2618 -2669 0
-2669 2612 2614 0
-2669 -2612 -2614 0
2669 -2612 2614 0
2669 2612 -2614 0
-2670 2671 2673 0
-2670 2673 2677 0
-2670 2671 2677 0
2670 -2673 -2677 0
2670 -2671 -2673 0
2670 -2671 -2677 0
-2671 2617 2672 0
-2671 -2617 -2672 0
2671 -2617 2672 0
2671 2617 -2672 0
-2672 -2615 -2616 0
-2672 2615 2616 0
2672 2615 -2616 0
2672 -2615 2616 0
-2673 2674 2676 0
-2673 2675 2676 0
-2673 2674 2675 0
2673 -2674 -2675 0
2673 -2675 -2676 0
2673 -2674 -2676 0
2674 -5511 -5512 0
-2674 5511 0
-2674 5512 0
2675 -5437 -5478 0
-2675 5437 0
-2675 5478 0
2676 -5431 -5517 0
-2676 5431 0
-2676 5517 0
2677 -5431 -5518 0
-2677 5431 0
-2677 5518 0
-2678 2679 2680 0
-2678 -2679 -2680 0
2678 -2679 2680 0
2678 2679 -2680 0
2679 -5431 -5437 -5508 -5518 0
-2679 5518 0
-2679 5431 0
-2679 5508 0
-2679 5437 0
-2680 2667 2668 0
-2680 2668 2670 0
-2680 2667 2670 0
2680 -2667 -2670 0
2680 -2668 -2670 0
2680 -2667 -2668 0
2681 -2679 -2680 0
-2681 2679 0
-2681 2680 0
2682 -2683 -2686 0
-2682 2683 0
-2682 2686 0
2683 -2684 -2685 0
-2683 2684 0
-2683 2685 0
-2684 -2567 -2568 0
-2684 2567 2568 0
2684 2567 -2568 0
2684 -2567 2568 0
-2685 -2626 -2627 0
-2685 2626 2627 0
2685 2626 -2627 0
2685 -2626 2627 0
-2686 2688 2736 0
-2686 2687 2688 0
-2686 2687 2736 0
2686 -2687 -2688 0
2686 -2688 -2736 0
2686 -2687 -2736 0
-2687 -2628 -2629 0
-2687 2628 2629 0
2687 2628 -2629 0
2687 -2628 2629 0
2688 -2689 -2690 0
-2688 2689 0
-2688 2690 0
-2689 2630 2632 0
-2689 -2630 -2632 0
2689 -2630 2632 0
2689 2630 -2632 0
2690 -2691 -2693 0
-2690 2691 0
-2690 2693 0
-2691 2681 2692 0
-2691 -2681 -2692 0
2691 -2681 2692 0
2691 2681 -2692 0
-2692 2633 2635 0
-2692 -2633 -2635 0
2692 -2633 2635 0
2692 2633 -2635 0
2693 -2694 -2696 0
-2693 2694 0
-2693 2696 0
-2694 2678 2695 0
-2694 -2678 -2695 0
2694 -2678 2695 0
2694 2678 -2695 0
-2695 2636 2638 0
-2695 -2636 -2638 0
2695 -2636 2638 0
2695 2636 -2638 0
-2696 2697 2699 0
-2696 2699 2735 0
-2696 2697 2735 0
2696 -2697 -2735 0
2696 -2699 -2735 0
2696 -2697 -2699 0
-2697 2665 2698 0
-2697 -2665 -2698 0
2697 -2665 2698 0
2697 2665 -2698 0
-2698 2639 2641 0
-2698 -2639 -2641 0
2698 -2639 2641 0
2698 2639 -2641 0
-2699 2700 2702 0
-2699 2702 2726 0
-2699 2700 2726 0
2699 -2700 -2726 0
2699 -2702 -2726 0
2699 -2700 -2702 0
-2700 2656 2701 0
-2700 -2656 -2701 0
2700 -2656 2701 0
2700 2656 -2701 0
-2701 2642 2644 0
-2701 -2642 -2644 0
2701 -2642 2644 0
2701 2642 -2644 0
-2702 2703 2705 0
-2702 2705 2717 0
-2702 2703 2717 0
2702 -2703 -2717 0
2702 -2705 -2717 0
2702 -2703 -2705 0
-2703 2651 2704 0
-2703 -2651 -2704 0
2703 -2651 2704 0
2703 2651 -2704 0
-2704 2645 2647 0
-2704 -2645 -2647 0
2704 -2645 2647 0
2704 2645 -2647 0
-2705 2706 2708 0
-2705 2708 2712 0
-2705 2706 2712 0
2705 -2706 -2712 0
2705 -2708 -2712 0
2705 -2706 -2708 0
-2706 2650 2707 0
-2706 -2650 -2707 0
2706 -2650 2707 0
2706 2650 -2707 0
-2707 -2648 -2649 0
-2707 2648 2649 0
2707 2648 -2649 0
2707 -2648 2649 0
-2708 2709 2711 0
-2708 2710 2711 0
-2708 2709 2710 0
2708 -2709 -2710 0
2708 -2710 -2711 0
2708 -2709 -2711 0
2709 -5505 -5522 0
-2709 5505 0
-2709 5522 0
2710 -5442 -5523 0
-2710 5442 0
-2710 5523 0
2711 -5470 -5513 0
-2711 5470 0
-2711 5513 0
-2712 -2713 -2716 0
-2712 2713 2716 0
2712 2713 -2716 0
2712 -2713 2716 0
-2713 -2714 -2715 0
-2713 2714 2715 0
2713 2714 -2715 0
2713 -2714 2715 0
2714 -5450 -5470 0
-2714 5450 0
-2714 5470 0
2715 -5439 -5507 0
-2715 5439 0
-2715 5507 0
2716 -5514 -5524 0
-2716 5514 0
-2716 5524 0
-2717 2718 2722 0
-2717 -2718 -2722 0
2717 -2718 2722 0
2717 2718 -2722 0
-2718 2719 2720 0
-2718 -2719 -2720 0
2718 -2719 2720 0
2718 2719 -2720 0
-2719 2714 2716 0
-2719 2715 2716 0
-2719 2714 2715 0
2719 -2714 -2715 0
2719 -2715 -2716 0
2719 -2714 -2716 0
-2720 2664 2721 0
-2720 -2664 -2721 0
2720 -2664 2721 0
2720 2664 -2721 0
-2721 -2662 -2663 0
-2721 2662 2663 0
2721 2662 -2663 0
2721 -2662 2663 0
-2722 2723 2725 0
-2722 2724 2725 0
-2722 2723 2724 0
2722 -2723 -2724 0
2722 -2724 -2725 0
2722 -2723 -2725 0
2723 -5515 -5525 0
-2723 5515 0
-2723 5525 0
2724 -5501 -5526 0
-2724 5501 0
-2724 5526 0
2725 -5436 -5512 0
-2725 5436 0
-2725 5512 0
-2726 -2727 -2731 0
-2726 2727 2731 0
2726 2727 -2731 0
2726 -2727 2731 0
-2727 2728 2729 0
-2727 -2728 -2729 0
2727 -2728 2729 0
2727 2728 -2729 0
-2728 2719 2720 0
-2728 2720 2722 0
-2728 2719 2722 0
2728 -2719 -2722 0
2728 -2720 -2722 0
2728 -2719 -2720 0
-2729 2677 2730 0
-2729 -2677 -2730 0
2729 -2677 2730 0
2729 2677 -2730 0
-2730 2671 2673 0
-2730 -2671 -2673 0
2730 -2671 2673 0
2730 2671 -2673 0
2731 -2732 -2734 0
-2731 2732 0
-2731 2734 0
-2732 2676 2733 0
-2732 -2676 -2733 0
2732 -2676 2733 0
2732 2676 -2733 0
-2733 -2674 -2675 0
-2733 2674 2675 0
2733 2674 -2675 0
2733 -2674 2675 0
2734 -5431 -5437 -5478 -5511 0
-2734 5511 0
-2734 5431 0
-2734 5478 0
-2734 5437 0
-2735 2728 2729 0
-2735 2729 2731 0
-2735 2728 2731 0
2735 -2729 -2731 0
2735 -2728 -2729 0
2735 -2728 -2731 0
2736 -2737 -2738 0
-2736 2737 0
-2736 2738 0
-2737 -2689 -2690 0
-2737 2689 2690 0
2737 2689 -2690 0
2737 -2689 2690 0
2738 -2739 -2740 0
-2738 2739 0
-2738 2740 0
-2739 -2691 -2693 0
-2739 2691 2693 0
2739 2691 -2693 0
2739 -2691 2693 0
2740 -2741 -2742 0
-2740 2741 0
-2740 2742 0
-2741 2694 2696 0
-2741 -2694 -2696 0
2741 -2694 2696 0
2741 2694 -2696 0
2742 -2743 -2745 0
-2742 2743 0
-2742 2745 0
-2743 2735 2744 0
-2743 -2735 -2744 0
2743 -2735 2744 0
2743 2735 -2744 0
-2744 2697 2699 0
-2744 -2697 -2699 0
2744 -2697 2699 0
2744 2697 -2699 0
-2745 2746 2748 0
-2745 2748 2778 0
-2745 2746 2778 0
2745 -2748 -2778 0
2745 -2746 -2748 0
2745 -2746 -2778 0
-2746 2726 2747 0
-2746 -2726 -2747 0
2746 -2726 2747 0
2746 2726 -2747 0
-2747 2700 2702 0
-2747 -2700 -2702 0
2747 -2700 2702 0
2747 2700 -2702 0
-2748 2749 2751 0
-2748 2751 2775 0
-2748 2749 2775 0
2748 -2749 -2775 0
2748 -2751 -2775 0
2748 -2749 -2751 0
-2749 2717 2750 0
-2749 -2717 -2750 0
2749 -2717 2750 0
2749 2717 -2750 0
-2750 2703 2705 0
-2750 -2703 -2705 0
2750 -2703 2705 0
2750 2703 -2705 0
-2751 2752 2754 0
-2751 2754 2766 0
-2751 2752 2766 0
2751 -2752 -2766 0
2751 -2754 -2766 0
2751 -2752 -2754 0
-2752 2712 2753 0
-2752 -2712 -2753 0
2752 -2712 2753 0
2752 2712 -2753 0
-2753 2706 2708 0
-2753 -2706 -2708 0
2753 -2706 2708 0
2753 2706 -2708 0
-2754 2755 2757 0
-2754 2757 2761 0
-2754 2755 2761 0
2754 -2755 -2761 0
2754 -2757 -2761 0
2754 -2755 -2757 0
-2755 2711 2756 0
-2755 -2711 -2756 0
2755 -2711 2756 0
2755 2711 -2756 0
-2756 -2709 -2710 0
-2756 2709 2710 0
2756 2709 -2710 0
2756 -2709 2710 0
-2757 2758 2760 0
-2757 2759 2760 0
-2757 2758 2759 0
2757 -2758 -2759 0
2757 -2759 -2760 0
2757 -2758 -2760 0
2758 -5505 -5523 0
-2758 5505 0
-2758 5523 0
2759 -5442 -5470 0
-2759 5442 0
-2759 5470 0
2760 -5507 -5513 0
-2760 5507 0
-2760 5513 0
-2761 -2762 -2765 0
-2761 2762 2765 0
2761 2762 -2765 0
2761 -2762 2765 0
-2762 -2763 -2764 0
-2762 2763 2764 0
2762 2763 -2764 0
2762 -2763 2764 0
2763 -5450 -5507 0
-2763 5450 0
-2763 5507 0
2764 -5439 -5524 0
-2764 5439 0
-2764 5524 0
2765 -5514 -5525 0
-2765 5514 0
-2765 5525 0
-2766 2767 2771 0
-2766 -2767 -2771 0
2766 -2767 2771 0
2766 2767 -2771 0
-2767 2768 2769 0
-2767 -2768 -2769 0
2767 -2768 2769 0
2767 2768 -2769 0
-2768 2763 2765 0
-2768 2764 2765 0
-2768 2763 2764 0
2768 -2763 -2764 0
2768 -2764 -2765 0
2768 -2763 -2765 0
-2769 2725 2770 0
-2769 -2725 -2770 0
2769 -2725 2770 0
2769 2725 -2770 0
-2770 -2723 -2724 0
-2770 2723 2724 0
2770 2723 -2724 0
2770 -2723 2724 0
-2771 2772 2774 0
-2771 2773 2774 0
-2771 2772 2773 0
2771 -2772 -2773 0
2771 -2773 -2774 0
2771 -2772 -2774 0
2772 -5515 -5526 0
-2772 5515 0
-2772 5526 0
2773 -5501 -5512 0
-2773 5501 0
-2773 5512 0
2774 -5436 -5437 0
-2774 5436 0
-2774 5437 0
-2775 2776 2777 0
-2775 -2776 -2777 0
2775 -2776 2777 0
2775 2776 -2777 0
-2776 -2732 -2734 0
-2776 2732 2734 0
2776 2732 -2734 0
2776 -2732 2734 0
-2777 2768 2769 0
-2777 2769 2771 0
-2777 2768 2771 0
2777 -2768 -2771 0
2777 -2769 -2771 0
2777 -2768 -2769 0
2778 -2776 -2777 0
-2778 2776 0
-2778 2777 0
2779 -2683 -2780 0
-2779 2683 0
-2779 2780 0
2780 -2781 -2782 0
-2780 2781 0
-2780 2782 0
-2781 -2687 -2688 0
-2781 2687 2688 0
2781 2687 -2688 0
2781 -2687 2688 0
-2782 -2737 -2738 0
-2782 2737 2738 0
2782 2737 -2738 0
2782 -2737 2738 0
-2783 2784 2870 0
-2783 2870 2939 0
-2783 2870 2944 0
2783 -2870 0
2783 -2784 -2939 -2944 0
2784 -2785 -2830 0
-2784 2785 0
-2784 2830 0
-2785 -2786 -2787 0
-2785 2786 2787 0
2785 2786 -2787 0
2785 -2786 2787 0
-2786 -2739 -2740 0
-2786 2739 2740 0
2786 2739 -2740 0
2786 -2739 2740 0
2787 -2788 -2789 0
-2787 2788 0
-2787 2789 0
-2788 -2741 -2742 0
-2788 2741 2742 0
2788 2741 -2742 0
2788 -2741 2742 0
2789 -2790 -2791 0
-2789 2790 0
-2789 2791 0
-2790 2743 2745 0
-2790 -2743 -2745 0
2790 -2743 2745 0
2790 2743 -2745 0
2791 -2792 -2794 0
-2791 2792 0
-2791 2794 0
-2792 2778 2793 0
-2792 -2778 -2793 0
2792 -2778 2793 0
2792 2778 -2793 0
-2793 2746 2748 0
-2793 -2746 -2748 0
2793 -2746 2748 0
2793 2746 -2748 0
-2794 2795 2797 0
-2794 2797 2829 0
-2794 2795 2829 0
2794 -2797 -2829 0
2794 -2795 -2797 0
2794 -2795 -2829 0
-2795 2775 2796 0
-2795 -2775 -2796 0
2795 -2775 2796 0
2795 2775 -2796 0
-2796 2749 2751 0
-2796 -2749 -2751 0
2796 -2749 2751 0
2796 2749 -2751 0
-2797 2798 2800 0
-2797 2800 2824 0
-2797 2798 2824 0
2797 -2798 -2824 0
2797 -2800 -2824 0
2797 -2798 -2800 0
-2798 2766 2799 0
-2798 -2766 -2799 0
2798 -2766 2799 0
2798 2766 -2799 0
-2799 2752 2754 0
-2799 -2752 -2754 0
2799 -2752 2754 0
2799 2752 -2754 0
-2800 2801 2803 0
-2800 2803 2815 0
-2800 2801 2815 0
2800 -2801 -2815 0
2800 -2803 -2815 0
2800 -2801 -2803 0
-2801 2761 2802 0
-2801 -2761 -2802 0
2801 -2761 2802 0
2801 2761 -2802 0
-2802 2755 2757 0
-2802 -2755 -2757 0
2802 -2755 2757 0
2802 2755 -2757 0
-2803 2804 2806 0
-2803 2806 2810 0
-2803 2804 2810 0
2803 -2804 -2810 0
2803 -2806 -2810 0
2803 -2804 -2806 0
-2804 2760 2805 0
-2804 -2760 -2805 0
2804 -2760 2805 0
2804 2760 -2805 0
-2805 -2758 -2759 0
-2805 2758 2759 0
2805 2758 -2759 0
2805 -2758 2759 0
-2806 2807 2809 0
-2806 2808 2809 0
-2806 2807 2808 0
2806 -2807 -2808 0
2806 -2808 -2809 0
2806 -2807 -2809 0
2807 -5470 -5505 0
-2807 5470 0
-2807 5505 0
2808 -5442 -5507 0
-2808 5442 0
-2808 5507 0
2809 -5513 -5524 0
-2809 5513 0
-2809 5524 0
-2810 -2811 -2814 0
-2810 2811 2814 0
2810 2811 -2814 0
2810 -2811 2814 0
-2811 -2812 -2813 0
-2811 2812 2813 0
2811 2812 -2813 0
2811 -2812 2813 0
2812 -5450 -5524 0
-2812 5450 0
-2812 5524 0
2813 -5439 -5525 0
-2813 5439 0
-2813 5525 0
2814 -5514 -5526 0
-2814 5514 0
-2814 5526 0
-2815 2816 2820 0
-2815 -2816 -2820 0
2815 -2816 2820 0
2815 2816 -2820 0
-2816 2817 2818 0
-2816 -2817 -2818 0
2816 -2817 2818 0
2816 2817 -2818 0
-2817 2812 2814 0
-2817 2813 2814 0
-2817 2812 2813 0
2817 -2812 -2813 0
2817 -2813 -2814 0
2817 -2812 -2814 0
-2818 2774 2819 0
-2818 -2774 -2819 0
2818 -2774 2819 0
2818 2774 -2819 0
-2819 -2772 -2773 0
-2819 2772 2773 0
2819 2772 -2773 0
2819 -2772 2773 0
-2820 2821 2823 0
-2820 2822 2823 0
-2820 2821 2822 0
2820 -2821 -2822 0
2820 -2822 -2823 0
2820 -2821 -2823 0
2821 -5512 -5515 0
-2821 5512 0
-2821 5515 0
2822 -5437 -5501 0
-2822 5437 0
-2822 5501 0
2823 -5431 -5436 0
-2823 5431 0
-2823 5436 0
-2824 2825 2828 0
-2824 -2825 -2828 0
2824 -2825 2828 0
2824 2825 -2828 0
-2825 -2826 -2827 0
-2825 2826 2827 0
2825 2826 -2827 0
2825 -2826 2827 0
2826 -5437 -5511 0
-2826 5437 0
-2826 5511 0
2827 -5431 -5478 0
-2827 5431 0
-2827 5478 0
-2828 2817 2818 0
-2828 2818 2820 0
-2828 2817 2820 0
2828 -2817 -2820 0
2828 -2818 -2820 0
2828 -2817 -2818 0
2829 -2825 -2828 0
-2829 2825 0
-2829 2828 0
-2830 -2831 -2832 0
-2830 2831 2832 0
2830 2831 -2832 0
2830 -2831 2832 0
-2831 -2788 -2789 0
-2831 2788 2789 0
2831 2788 -2789 0
2831 -2788 2789 0
2832 -2833 -2834 0
-2832 2833 0
-2832 2834 0
-2833 -2790 -2791 0
-2833 2790 2791 0
2833 2790 -2791 0
2833 -2790 2791 0
2834 -2835 -2836 0
-2834 2835 0
-2834 2836 0
-2835 2792 2794 0
-2835 -2792 -2794 0
2835 -2792 2794 0
2835 2792 -2794 0
2836 -2837 -2839 0
-2836 2837 0
-2836 2839 0
-2837 2829 2838 0
-2837 -2829 -2838 0
2837 -2829 2838 0
2837 2829 -2838 0
-2838 2795 2797 0
-2838 -2795 -2797 0
2838 -2795 2797 0
2838 2795 -2797 0
-2839 2840 2842 0
-2839 2842 2869 0
-2839 2840 2869 0
2839 -2842 -2869 0
2839 -2840 -2842 0
2839 -2840 -2869 0
-2840 2824 2841 0
-2840 -2824 -2841 0
2840 -2824 2841 0
2840 2824 -2841 0
-2841 2798 2800 0
-2841 -2798 -2800 0
2841 -2798 2800 0
2841 2798 -2800 0
-2842 2843 2845 0
-2842 2845 2866 0
-2842 2843 2866 0
2842 -2843 -2866 0
2842 -2845 -2866 0
2842 -2843 -2845 0
-2843 2815 2844 0
-2843 -2815 -2844 0
2843 -2815 2844 0
2843 2815 -2844 0
-2844 2801 2803 0
-2844 -2801 -2803 0
2844 -2801 2803 0
2844 2801 -2803 0
-2845 2846 2848 0
-2845 2848 2860 0
-2845 2846 2860 0
2845 -2846 -2860 0
2845 -2848 -2860 0
2845 -2846 -2848 0
-2846 2810 2847 0
-2846 -2810 -2847 0
2846 -2810 2847 0
2846 2810 -2847 0
-2847 2804 2806 0
-2847 -2804 -2806 0
2847 -2804 2806 0
2847 2804 -2806 0
-2848 2849 2851 0
-2848 2851 2855 0
-2848 2849 2855 0
2848 -2849 -2855 0
2848 -2851 -2855 0
2848 -2849 -2851 0
-2849 2809 2850 0
-2849 -2809 -2850 0
2849 -2809 2850 0
2849 2809 -2850 0
-2850 -2807 -2808 0
-2850 2807 2808 0
2850 2807 -2808 0
2850 -2807 2808 0
-2851 2852 2854 0
-2851 2853 2854 0
-2851 2852 2853 0
2851 -2852 -2853 0
2851 -2853 -2854 0
2851 -2852 -2854 0
2852 -5505 -5507 0
-2852 5505 0
-2852 5507 0
2853 -5442 -5524 0
-2853 5442 0
-2853 5524 0
2854 -5513 -5525 0
-2854 5513 0
-2854 5525 0
-2855 -2856 -2859 0
-2855 2856 2859 0
2855 2856 -2859 0
2855 -2856 2859 0
-2856 -2857 -2858 0
-2856 2857 2858 0
2856 2857 -2858 0
2856 -2857 2858 0
2857 -5450 -5525 0
-2857 5450 0
-2857 5525 0
2858 -5439 -5526 0
-2858 5439 0
-2858 5526 0
2859 -5512 -5514 0
-2859 5512 0
-2859 5514 0
-2860 -2861 -2865 0
-2860 2861 2865 0
2860 2861 -2865 0
2860 -2861 2865 0
-2861 2862 2863 0
-2861 -2862 -2863 0
2861 -2862 2863 0
2861 2862 -2863 0
-2862 2857 2859 0
-2862 2858 2859 0
-2862 2857 2858 0
2862 -2857 -2858 0
2862 -2858 -2859 0
2862 -2857 -2859 0
-2863 2823 2864 0
-2863 -2823 -2864 0
2863 -2823 2864 0
2863 2823 -2864 0
-2864 -2821 -2822 0
-2864 2821 2822 0
2864 2821 -2822 0
2864 -2821 2822 0
2865 -5431 -5437 -5501 -5515 0
-2865 5515 0
-2865 5431 0
-2865 5501 0
-2865 5437 0
-2866 2867 2868 0
-2866 -2867 -2868 0
2866 -2867 2868 0
2866 2867 -2868 0
2867 -5431 -5511 0
-2867 5431 0
-2867 5511 0
-2868 2862 2863 0
-2868 2863 2865 0
-2868 2862 2865 0
2868 -2863 -2865 0
2868 -2862 -2863 0
2868 -2862 -2865 0
2869 -5431 -5511 -2868 0
-2869 5431 0
-2869 5511 0
-2869 2868 0
-2870 2871 2873 0
-2870 2871 2784 0
2870 -2871 0
2870 -2784 -2873 0
-2871 2786 2872 0
-2871 2787 2785 0
-2871 2787 2872 0
-2871 2786 2785 0
2871 -2786 -2787 0
2871 -2785 -2872 0
2872 -2831 -2832 0
-2872 2831 0
-2872 2832 0
-2873 2875 2876 0
-2873 2876 2908 0
-2873 2874 0
-2873 2875 2908 0
2873 -2874 -2875 -2908 0
2873 -2874 -2876 -2908 0
2873 -2874 -2875 -2876 0
-2874 -2833 -2834 0
-2874 2833 2834 0
2874 2833 -2834 0
2874 -2833 2834 0
-2875 -2835 -2836 0
-2875 2835 2836 0
2875 2835 -2836 0
2875 -2835 2836 0
2876 -2877 -2878 0
-2876 2877 0
-2876 2878 0
-2877 2837 2839 0
-2877 -2837 -2839 0
2877 -2837 2839 0
2877 2837 -2839 0
2878 -2879 -2881 0
-2878 2879 0
-2878 2881 0
-2879 2869 2880 0
-2879 -2869 -2880 0
2879 -2869 2880 0
2879 2869 -2880 0
-2880 2840 2842 0
-2880 -2840 -2842 0
2880 -2840 2842 0
2880 2840 -2842 0
2881 -2882 -2884 0
-2881 2882 0
-2881 2884 0
-2882 2866 2883 0
-2882 -2866 -2883 0
2882 -2866 2883 0
2882 2866 -2883 0
-2883 2843 2845 0
-2883 -2843 -2845 0
2883 -2843 2845 0
2883 2843 -2845 0
-2884 2885 2887 0
-2884 2887 2907 0
-2884 2885 2907 0
2884 -2887 -2907 0
2884 -2885 -2887 0
2884 -2885 -2907 0
-2885 2860 2886 0
-2885 -2860 -2886 0
2885 -2860 2886 0
2885 2860 -2886 0
-2886 2846 2848 0
-2886 -2846 -2848 0
2886 -2846 2848 0
2886 2846 -2848 0
-2887 2888 2890 0
-2887 2890 2902 0
-2887 2888 2902 0
2887 -2888 -2902 0
2887 -2890 -2902 0
2887 -2888 -2890 0
-2888 2855 2889 0
-2888 -2855 -2889 0
2888 -2855 2889 0
2888 2855 -2889 0
-2889 2849 2851 0
-2889 -2849 -2851 0
2889 -2849 2851 0
2889 2849 -2851 0
-2890 2891 2893 0
-2890 2893 2897 0
-2890 2891 2897 0
2890 -2891 -2897 0
2890 -2893 -2897 0
2890 -2891 -2893 0
-2891 2854 2892 0
-2891 -2854 -2892 0
2891 -2854 2892 0
2891 2854 -2892 0
-2892 -2852 -2853 0
-2892 2852 2853 0
2892 2852 -2853 0
2892 -2852 2853 0
-2893 2894 2896 0
-2893 2895 2896 0
-2893 2894 2895 0
2893 -2894 -2895 0
2893 -2895 -2896 0
2893 -2894 -2896 0
2894 -5505 -5524 0
-2894 5505 0
-2894 5524 0
2895 -5442 -5525 0
-2895 5442 0
-2895 5525 0
2896 -5513 -5526 0
-2896 5513 0
-2896 5526 0
-2897 -2898 -2901 0
-2897 2898 2901 0
2897 2898 -2901 0
2897 -2898 2901 0
-2898 -2899 -2900 0
-2898 2899 2900 0
2898 2899 -2900 0
2898 -2899 2900 0
2899 -5450 -5526 0
-2899 5450 0
-2899 5526 0
2900 -5439 -5512 0
-2900 5439 0
-2900 5512 0
2901 -5437 -5514 0
-2901 5437 0
-2901 5514 0
-2902 2903 2906 0
-2902 -2903 -2906 0
2902 -2903 2906 0
2902 2903 -2906 0
-2903 -2904 -2905 0
-2903 2904 2905 0
2903 2904 -2905 0
2903 -2904 2905 0
2904 -5437 -5515 0
-2904 5437 0
-2904 5515 0
2905 -5431 -5501 0
-2905 5431 0
-2905 5501 0
-2906 2899 2901 0
-2906 2900 2901 0
-2906 2899 2900 0
2906 -2899 -2900 0
2906 -2900 -2901 0
2906 -2899 -2901 0
2907 -2903 -2906 0
-2907 2903 0
-2907 2906 0
2908 -2909 -2910 0
-2908 2909 0
-2908 2910 0
-2909 -2877 -2878 0
-2909 2877 2878 0
2909 2877 -2878 0
2909 -2877 2878 0
2910 -2911 -2912 0
-2910 2911 0
-2910 2912 0
-2911 -2879 -2881 0
-2911 2879 2881 0
2911 2879 -2881 0
2911 -2879 2881 0
2912 -2913 -2914 0
-2912 2913 0
-2912 2914 0
-2913 2882 2884 0
-2913 -2882 -2884 0
2913 -2882 2884 0
2913 2882 -2884 0
2914 -2915 -2917 0
-2914 2915 0
-2914 2917 0
-2915 2907 2916 0
-2915 -2907 -2916 0
2915 -2907 2916 0
2915 2907 -2916 0
-2916 2885 2887 0
-2916 -2885 -2887 0
2916 -2885 2887 0
2916 2885 -2887 0
-2917 2918 2920 0
-2917 2920 2938 0
-2917 2918 2938 0
2917 -2920 -2938 0
2917 -2918 -2920 0
2917 -2918 -2938 0
-2918 2902 2919 0
-2918 -2902 -2919 0
2918 -2902 2919 0
2918 2902 -2919 0
-2919 2888 2890 0
-2919 -2888 -2890 0
2919 -2888 2890 0
2919 2888 -2890 0
-2920 2921 2923 0
-2920 2923 2935 0
-2920 2921 2935 0
2920 -2921 -2935 0
2920 -2923 -2935 0
2920 -2921 -2923 0
-2921 2897 2922 0
-2921 -2897 -2922 0
2921 -2897 2922 0
2921 2897 -2922 0
-2922 2891 2893 0
-2922 -2891 -2893 0
2922 -2891 2893 0
2922 2891 -2893 0
-2923 2924 2926 0
-2923 2926 2930 0
-2923 2924 2930 0
2923 -2924 -2930 0
2923 -2926 -2930 0
2923 -2924 -2926 0
-2924 2896 2925 0
-2924 -2896 -2925 0
2924 -2896 2925 0
2924 2896 -2925 0
-2925 -2894 -2895 0
-2925 2894 2895 0
2925 2894 -2895 0
2925 -2894 2895 0
-2926 2927 2929 0
-2926 2928 2929 0
-2926 2927 2928 0
2926 -2927 -2928 0
2926 -2928 -2929 0
2926 -2927 -2929 0
2927 -5505 -5525 0
-2927 5505 0
-2927 5525 0
2928 -5442 -5526 0
-2928 5442 0
-2928 5526 0
2929 -5512 -5513 0
-2929 5512 0
-2929 5513 0
-2930 -2931 -2934 0
-2930 2931 2934 0
2930 2931 -2934 0
2930 -2931 2934 0
-2931 -2932 -2933 0
-2931 2932 2933 0
2931 2932 -2933 0
2931 -2932 2933 0
2932 -5450 -5512 0
-2932 5450 0
-2932 5512 0
2933 -5437 -5439 0
-2933 5437 0
-2933 5439 0
2934 -5431 -5514 0
-2934 5431 0
-2934 5514 0
-2935 2936 2937 0
-2935 -2936 -2937 0
2935 -2936 2937 0
2935 2936 -2937 0
2936 -5431 -5515 0
-2936 5431 0
-2936 5515 0
-2937 2932 2934 0
-2937 2933 2934 0
-2937 2932 2933 0
2937 -2932 -2933 0
2937 -2933 -2934 0
2937 -2932 -2934 0
2938 -5431 -5515 -2937 0
-2938 5431 0
-2938 5515 0
-2938 2937 0
2939 -2940 -2942 0
-2939 2940 0
-2939 2942 0
-2940 -2874 -2941 0
-2940 2874 2941 0
2940 2874 -2941 0
2940 -2874 2941 0
2941 -2875 -2876 0
-2941 2875 0
-2941 2876 0
-2942 -2943 -2908 0
-2942 2943 2908 0
2942 2943 -2908 0
2942 -2943 2908 0
-2943 -2875 -2876 0
-2943 2875 2876 0
2943 2875 -2876 0
2943 -2875 2876 0
-2944 2945 2973 0
-2944 2973 2998 0
-2944 2973 2999 0
2944 -2973 0
2944 -2945 -2998 -2999 0
-2945 -2946 -2947 0
-2945 2946 2947 0
2945 2946 -2947 0
2945 -2946 2947 0
-2946 -2909 -2910 0
-2946 2909 2910 0
2946 2909 -2910 0
2946 -2909 2910 0
2947 -2948 -2949 0
-2947 2948 0
-2947 2949 0
-2948 -2911 -2912 0
-2948 2911 2912 0
2948 2911 -2912 0
2948 -2911 2912 0
2949 -2950 -2951 0
-2949 2950 0
-2949 2951 0
-2950 -2913 -2914 0
-2950 2913 2914 0
2950 2913 -2914 0
2950 -2913 2914 0
2951 -2952 -2953 0
-2951 2952 0
-2951 2953 0
-2952 2915 2917 0
-2952 -2915 -2917 0
2952 -2915 2917 0
2952 2915 -2917 0
2953 -2954 -2956 0
-2953 2954 0
-2953 2956 0
-2954 2938 2955 0
-2954 -2938 -2955 0
2954 -2938 2955 0
2954 2938 -2955 0
-2955 2918 2920 0
-2955 -2918 -2920 0
2955 -2918 2920 0
2955 2918 -2920 0
2956 -2957 -2959 0
-2956 2957 0
-2956 2959 0
-2957 2935 2958 0
-2957 -2935 -2958 0
2957 -2935 2958 0
2957 2935 -2958 0
-2958 2921 2923 0
-2958 -2921 -2923 0
2958 -2921 2923 0
2958 2921 -2923 0
-2959 2960 2962 0
-2959 2962 2972 0
-2959 2960 2972 0
2959 -2962 -2972 0
2959 -2960 -2962 0
2959 -2960 -2972 0
-2960 2930 2961 0
-2960 -2930 -2961 0
2960 -2930 2961 0
2960 2930 -2961 0
-2961 2924 2926 0
-2961 -2924 -2926 0
2961 -2924 2926 0
2961 2924 -2926 0
-2962 2963 2965 0
-2962 2965 2969 0
-2962 2963 2969 0
2962 -2963 -2969 0
2962 -2965 -2969 0
2962 -2963 -2965 0
-2963 2929 2964 0
-2963 -2929 -2964 0
2963 -2929 2964 0
2963 2929 -2964 0
-2964 -2927 -2928 0
-2964 2927 2928 0
2964 2927 -2928 0
2964 -2927 2928 0
-2965 2966 2968 0
-2965 2967 2968 0
-2965 2966 2967 0
2965 -2966 -2967 0
2965 -2967 -2968 0
2965 -2966 -2968 0
2966 -5505 -5526 0
-2966 5505 0
-2966 5526 0
2967 -5442 -5512 0
-2967 5442 0
-2967 5512 0
2968 -5437 -5513 0
-2968 5437 0
-2968 5513 0
-2969 -2970 -2971 0
-2969 2970 2971 0
2969 2970 -2971 0
2969 -2970 2971 0
2970 -5437 -5450 0
-2970 5437 0
-2970 5450 0
2971 -5431 -5439 0
-2971 5431 0
-2971 5439 0
2972 -5431 -5437 -5439 -5450 0
-2972 5450 0
-2972 5431 0
-2972 5439 0
-2972 5437 0
-2973 2947 2974 0
-2973 2946 2947 0
-2973 2946 2974 0
2973 -2946 -2947 0
2973 -2947 -2974 0
2973 -2946 -2974 0
2974 -2975 -2976 0
-2974 2975 0
-2974 2976 0
-2975 -2948 -2949 0
-2975 2948 2949 0
2975 2948 -2949 0
2975 -2948 2949 0
2976 -2977 -2978 0
-2976 2977 0
-2976 2978 0
-2977 -2950 -2951 0
-2977 2950 2951 0
2977 2950 -2951 0
2977 -2950 2951 0
2978 -2979 -2980 0
-2978 2979 0
-2978 2980 0
-2979 -2952 -2953 0
-2979 2952 2953 0
2979 2952 -2953 0
2979 -2952 2953 0
2980 -2981 -2982 0
-2980 2981 0
-2980 2982 0
-2981 -2954 -2956 0
-2981 2954 2956 0
2981 2954 -2956 0
2981 -2954 2956 0
2982 -2983 -2984 0
-2982 2983 0
-2982 2984 0
-2983 2957 2959 0
-2983 -2957 -2959 0
2983 -2957 2959 0
2983 2957 -2959 0
2984 -2985 -2987 0
-2984 2985 0
-2984 2987 0
-2985 2972 2986 0
-2985 -2972 -2986 0
2985 -2972 2986 0
2985 2972 -2986 0
-2986 2960 2962 0
-2986 -2960 -2962 0
2986 -2960 2962 0
2986 2960 -2962 0
2987 -2988 -2990 0
-2987 2988 0
-2987 2990 0
-2988 2969 2989 0
-2988 -2969 -2989 0
2988 -2969 2989 0
2988 2969 -2989 0
-2989 2963 2965 0
-2989 -2963 -2965 0
2989 -2963 2965 0
2989 2963 -2965 0
-2990 2991 2993 0
-2990 2993 2997 0
-2990 2991 2997 0
2990 -2993 -2997 0
2990 -2991 -2993 0
2990 -2991 -2997 0
-2991 2968 2992 0
-2991 -2968 -2992 0
2991 -2968 2992 0
2991 2968 -2992 0
-2992 -2966 -2967 0
-2992 2966 2967 0
2992 2966 -2967 0
2992 -2966 2967 0
-2993 2994 2996 0
-2993 2995 2996 0
-2993 2994 2995 0
2993 -2994 -2995 0
2993 -2995 -2996 0
2993 -2994 -2996 0
2994 -5505 -5512 0
-2994 5505 0
-2994 5512 0
2995 -5437 -5442 0
-2995 5437 0
-2995 5442 0
2996 -5431 -5513 0
-2996 5431 0
-2996 5513 0
2997 -5431 -5450 0
-2997 5431 0
-2997 5450 0
-2998 -2975 -2976 0
-2998 2975 2976 0
2998 2975 -2976 0
2998 -2975 2976 0
2999 -3000 -3001 0
-2999 3000 0
-2999 3001 0
-3000 -2977 -2978 0
-3000 2977 2978 0
3000 2977 -2978 0
3000 -2977 2978 0
3001 -3002 -3003 0
-3001 3002 0
-3001 3003 0
-3002 -2979 -2980 0
-3002 2979 2980 0
3002 2979 -2980 0
3002 -2979 2980 0
3003 -3004 -3005 0
-3003 3004 0
-3003 3005 0
-3004 -2981 -2982 0
-3004 2981 2982 0
3004 2981 -2982 0
3004 -2981 2982 0
3005 -3006 -3007 0
-3005 3006 0
-3005 3007 0
-3006 -2983 -2984 0
-3006 2983 2984 0
3006 2983 -2984 0
3006 -2983 2984 0
3007 -3008 -3009 0
-3007 3008 0
-3007 3009 0
-3008 -2985 -2987 0
-3008 2985 2987 0
3008 2985 -2987 0
3008 -2985 2987 0
3009 -3010 -3011 0
-3009 3010 0
-3009 3011 0
-3010 2988 2990 0
-3010 -2988 -2990 0
3010 -2988 2990 0
3010 2988 -2990 0
3011 -3012 -3014 0
-3011 3012 0
-3011 3014 0
-3012 2997 3013 0
-3012 -2997 -3013 0
3012 -2997 3013 0
3012 2997 -3013 0
-3013 2991 2993 0
-3013 -2991 -2993 0
3013 -2991 2993 0
3013 2991 -2993 0
3014 -3015 -3017 0
-3014 3015 0
-3014 3017 0
-3015 2996 3016 0
-3015 -2996 -3016 0
3015 -2996 3016 0
3015 2996 -3016 0
-3016 -2994 -2995 0
-3016 2994 2995 0
3016 2994 -2995 0
3016 -2994 2995 0
3017 -5431 -5442 -3018 0
-3017 5431 0
-3017 5442 0
-3017 3018 0
3018 -5437 -5505 0
-3018 5437 0
-3018 5505 0
-3019 3020 3043 0
-3019 3043 3071 0
-3019 3043 3075 0
3019 -3043 0
3019 -3020 -3071 -3075 0
3020 -3021 -3034 0
-3020 3021 0
-3020 3034 0
3021 -3022 -3031 0
-3021 3022 0
-3021 3031 0
-3022 3023 3027 0
-3022 -3023 -3027 0
3022 -3023 3027 0
3022 3023 -3027 0
-3023 1296 3024 0
-3023 -1296 -3024 0
3023 -1296 3024 0
3023 1296 -3024 0
-3024 1558 1363 0
-3024 1558 3025 0
3024 -1558 0
3024 -1363 -3025 0
-3025 1560 3026 0
-3025 1560 1430 0
3025 -1560 0
3025 -1430 -3026 0
-3026 1562 1779 0
-3026 1562 1775 0
3026 -1562 0
3026 -1775 -1779 0
-3027 2300 3028 0
-3027 -2300 -3028 0
3027 -2300 3028 0
3027 2300 -3028 0
-3028 2562 2367 0
-3028 2562 3029 0
3028 -2562 0
3028 -2367 -3029 0
-3029 2564 3030 0
-3029 2564 2434 0
3029 -2564 0
3029 -2434 -3030 0
-3030 2566 2783 0
-3030 2566 2779 0
3030 -2566 0
3030 -2779 -2783 0
-3031 3032 3033 0
-3031 -3032 -3033 0
3031 -3032 3033 0
3031 3032 -3033 0
-3032 1363 3025 0
-3032 -1363 -3025 0
3032 -1363 3025 0
3032 1363 -3025 0
-3033 2367 3029 0
-3033 -2367 -3029 0
3033 -2367 3029 0
3033 2367 -3029 0
3034 -3035 -3040 0
-3034 3035 0
-3034 3040 0
-3035 3036 3038 0
-3035 -3036 -3038 0
3035 -3036 3038 0
3035 3036 -3038 0
-3036 1431 3037 0
-3036 -1431 -3037 0
3036 -1431 3037 0
3036 1431 -3037 0
-3037 1561 1498 0
-3037 1561 3026 0
3037 -1561 0
3037 -1498 -3026 0
-3038 2435 3039 0
-3038 -2435 -3039 0
3038 -2435 3039 0
3038 2435 -3039 0
-3039 2565 2502 0
-3039 2565 3030 0
3039 -2565 0
3039 -2502 -3030 0
-3040 3041 3042 0
-3040 -3041 -3042 0
3040 -3041 3042 0
3040 3041 -3042 0
-3041 1498 3026 0
-3041 -1498 -3026 0
3041 -1498 3026 0
3041 1498 -3026 0
-3042 2502 3030 0
-3042 -2502 -3030 0
3042 -2502 3030 0
3042 2502 -3030 0
-3043 3044 3046 3020 0
-3043 3044 3046 3049 0
3043 -3044 0
3043 -3046 0
3043 -3020 -3049 0
-3044 3023 3027 0
-3044 3027 3045 0
-3044 3023 3045 0
3044 -3027 -3045 0
3044 -3023 -3027 0
3044 -3023 -3045 0
3045 -3032 -3033 0
-3045 3032 0
-3045 3033 0
3046 -3021 -3047 0
-3046 3021 0
-3046 3047 0
-3047 3036 3038 0
-3047 3038 3048 0
-3047 3036 3048 0
3047 -3038 -3048 0
3047 -3036 -3038 0
3047 -3036 -3048 0
3048 -3041 -3042 0
-3048 3041 0
-3048 3042 0
-3049 3050 3053 3059 0
-3049 3050 3056 3059 0
-3049 3053 3056 3059 0
3049 -3053 -3056 0
3049 -3050 -3053 0
3049 -3059 0
3049 -3050 -3056 0
-3050 1680 3051 0
-3050 -1680 -3051 0
3050 -1680 3051 0
3050 1680 -3051 0
-3051 1621 1681 0
-3051 1621 3052 0
3051 -1621 0
3051 -1681 -3052 0
-3052 1682 1779 0
-3052 1682 1776 0
3052 -1682 0
3052 -1776 -1779 0
-3053 2684 3054 0
-3053 -2684 -3054 0
3053 -2684 3054 0
3053 2684 -3054 0
-3054 2625 2685 0
-3054 2625 3055 0
3054 -2625 0
3054 -2685 -3055 0
-3055 2686 2783 0
-3055 2686 2780 0
3055 -2686 0
3055 -2780 -2783 0
3056 -3057 -3058 0
-3056 3057 0
-3056 3058 0
-3057 1681 3052 0
-3057 -1681 -3052 0
3057 -1681 3052 0
3057 1681 -3052 0
-3058 2685 3055 0
-3058 -2685 -3055 0
3058 -2685 3055 0
3058 2685 -3055 0
3059 -3060 -3063 0
-3059 3060 0
-3059 3063 0
3060 -3061 -3062 0
-3060 3061 0
-3060 3062 0
-3061 3050 3053 0
-3061 -3050 -3053 0
3061 -3050 3053 0
3061 3050 -3053 0
-3062 3057 3058 0
-3062 -3057 -3058 0
3062 -3057 3058 0
3062 3057 -3058 0
-3063 3064 3066 0
-3063 3066 3068 0
-3063 3064 3068 0
3063 -3066 -3068 0
3063 -3064 -3066 0
3063 -3064 -3068 0
-3064 1777 3065 0
-3064 -1777 -3065 0
3064 -1777 3065 0
3064 1777 -3065 0
-3065 1732 1778 0
-3065 1732 1779 0
3065 -1732 0
3065 -1778 -1779 0
-3066 2781 3067 0
-3066 -2781 -3067 0
3066 -2781 3067 0
3066 2781 -3067 0
-3067 2736 2782 0
-3067 2736 2783 0
3067 -2736 0
3067 -2782 -2783 0
3068 -3069 -3070 0
-3068 3069 0
-3068 3070 0
-3069 1778 1779 0
-3069 -1778 -1779 0
3069 -1778 1779 0
3069 1778 -1779 0
-3070 2782 2783 0
-3070 -2782 -2783 0
3070 -2782 2783 0
3070 2782 -2783 0
3071 -3060 -3072 0
-3071 3060 0
-3071 3072 0
3072 -3073 -3074 0
-3072 3073 0
-3072 3074 0
-3073 3064 3066 0
-3073 -3064 -3066 0
3073 -3064 3066 0
3073 3064 -3066 0
-3074 3069 3070 0
-3074 -3069 -3070 0
3074 -3069 3070 0
3074 3069 -3070 0
-3075 3076 3099 0
-3075 3099 3123 0
-3075 3099 3127 0
3075 -3099 0
3075 -3076 -3123 -3127 0
3076 -3077 -3088 0
-3076 3077 0
-3076 3088 0
3077 -3078 -3085 0
-3077 3078 0
-3077 3085 0
-3078 3079 3082 0
-3078 -3079 -3082 0
3078 -3079 3082 0
3078 3079 -3082 0
-3079 1781 3080 0
-3079 -1781 -3080 0
3079 -1781 3080 0
3079 1781 -3080 0
-3080 1827 3081 0
-3080 1827 1828 0
-3080 1828 3081 0
3080 -1828 -3081 0
3080 -1827 -3081 0
3080 -1827 -1828 0
-3081 1869 1940 0
-3081 1869 1935 0
3081 -1869 0
3081 -1935 -1940 0
-3082 2785 3083 0
-3082 -2785 -3083 0
3082 -2785 3083 0
3082 2785 -3083 0
-3083 2872 2830 0
-3083 2872 3084 0
3083 -2872 0
3083 -2830 -3084 0
-3084 2873 2944 0
-3084 2873 2939 0
3084 -2873 0
3084 -2939 -2944 0
-3085 3086 3087 0
-3085 -3086 -3087 0
3085 -3086 3087 0
3085 3086 -3087 0
-3086 1826 3081 0
-3086 -1826 -3081 0
3086 -1826 3081 0
3086 1826 -3081 0
-3087 2830 3084 0
-3087 -2830 -3084 0
3087 -2830 3084 0
3087 2830 -3084 0
3088 -3089 -3096 0
-3088 3089 0
-3088 3096 0
-3089 3090 3093 0
-3089 -3090 -3093 0
3089 -3090 3093 0
3089 3090 -3093 0
-3090 1936 3091 0
-3090 -1936 -3091 0
3090 -1936 3091 0
3090 1936 -3091 0
-3091 3092 1938 0
-3091 3092 1940 0
3091 -3092 0
3091 -1938 -1940 0
3092 -1939 -1904 0
-3092 1939 0
-3092 1904 0
-3093 2940 3094 0
-3093 -2940 -3094 0
3093 -2940 3094 0
3093 2940 -3094 0
-3094 3095 2942 0
-3094 3095 2944 0
3094 -3095 0
3094 -2942 -2944 0
3095 -2943 -2908 0
-3095 2943 0
-3095 2908 0
-3096 3097 3098 0
-3096 -3097 -3098 0
3096 -3097 3098 0
3096 3097 -3098 0
-3097 1938 1940 0
-3097 -1938 -1940 0
3097 -1938 1940 0
3097 1938 -1940 0
-3098 2942 2944 0
-3098 -2942 -2944 0
3098 -2942 2944 0
3098 2942 -2944 0
-3099 3100 3102 3076 0
-3099 3100 3102 3105 0
3099 -3100 0
3099 -3102 0
3099 -3076 -3105 0
-3100 3079 3082 0
-3100 3082 3101 0
-3100 3079 3101 0
3100 -3082 -3101 0
3100 -3079 -3082 0
3100 -3079 -3101 0
3101 -3086 -3087 0
-3101 3086 0
-3101 3087 0
3102 -3077 -3103 0
-3102 3077 0
-3102 3103 0
-3103 3090 3093 0
-3103 3093 3104 0
-3103 3090 3104 0
3103 -3093 -3104 0
3103 -3090 -3093 0
3103 -3090 -3104 0
3104 -3097 -3098 0
-3104 3097 0
-3104 3098 0
-3105 3106 3108 3113 0
-3105 3106 3110 3113 0
-3105 3108 3110 3113 0
3105 -3108 -3110 0
3105 -3106 -3108 0
3105 -3113 0
3105 -3106 -3110 0
-3106 1941 3107 0
-3106 -1941 -3107 0
3106 -1941 3107 0
3106 1941 -3107 0
-3107 1970 1994 0
-3107 1970 1995 0
3107 -1970 0
3107 -1994 -1995 0
-3108 2945 3109 0
-3108 -2945 -3109 0
3108 -2945 3109 0
3108 2945 -3109 0
-3109 2974 2998 0
-3109 2974 2999 0
3109 -2974 0
3109 -2998 -2999 0
3110 -3111 -3112 0
-3110 3111 0
-3110 3112 0
-3111 -1994 -1995 0
-3111 1994 1995 0
3111 1994 -1995 0
3111 -1994 1995 0
-3112 -2998 -2999 0
-3112 2998 2999 0
3112 2998 -2999 0
3112 -2998 2999 0
3113 -3114 -3117 0
-3113 3114 0
-3113 3117 0
3114 -3115 -3116 0
-3114 3115 0
-3114 3116 0
-3115 3106 3108 0
-3115 -3106 -3108 0
3115 -3106 3108 0
3115 3106 -3108 0
-3116 3111 3112 0
-3116 -3111 -3112 0
3116 -3111 3112 0
3116 3111 -3112 0
-3117 3118 3119 0
-3117 3119 3120 0
-3117 3118 3120 0
3117 -3119 -3120 0
3117 -3118 -3119 0
3117 -3118 -3120 0
-3118 -1996 -1997 0
-3118 1996 1997 0
3118 1996 -1997 0
3118 -1996 1997 0
-3119 -3000 -3001 0
-3119 3000 3001 0
3119 3000 -3001 0
3119 -3000 3001 0
3120 -3121 -3122 0
-3120 3121 0
-3120 3122 0
-3121 -1998 -1999 0
-3121 1998 1999 0
3121 1998 -1999 0
3121 -1998 1999 0
-3122 -3002 -3003 0
-3122 3002 3003 0
3122 3002 -3003 0
3122 -3002 3003 0
3123 -3114 -3124 0
-3123 3114 0
-3123 3124 0
3124 -3125 -3126 0
-3124 3125 0
-3124 3126 0
-3125 3118 3119 0
-3125 -3118 -3119 0
3125 -3118 3119 0
3125 3118 -3119 0
-3126 3121 3122 0
-3126 -3121 -3122 0
3126 -3121 3122 0
3126 3121 -3122 0
-3127 3128 3135 0
-3127 3135 3144 0
-3127 3135 3147 0
3127 -3135 0
3127 -3128 -3144 -3147 0
3128 -3129 -3132 0
-3128 3129 0
-3128 3132 0
-3129 3130 3131 0
-3129 -3130 -3131 0
3129 -3130 3131 0
3129 3130 -3131 0
-3130 -2000 -2001 0
-3130 2000 2001 0
3130 2000 -2001 0
3130 -2000 2001 0
-3131 -3004 -3005 0
-3131 3004 3005 0
3131 3004 -3005 0
3131 -3004 3005 0
-3132 3133 3134 0
-3132 -3133 -3134 0
3132 -3133 3134 0
3132 3133 -3134 0
-3133 -2002 -2003 0
-3133 2002 2003 0
3133 2002 -2003 0
3133 -2002 2003 0
-3134 -3006 -3007 0
-3134 3006 3007 0
3134 3006 -3007 0
3134 -3006 3007 0
-3135 3130 3131 3137 0
-3135 3130 3136 3137 0
-3135 3131 3136 3137 0
3135 -3131 -3136 0
3135 -3130 -3131 0
3135 -3137 0
3135 -3130 -3136 0
3136 -3133 -3134 0
-3136 3133 0
-3136 3134 0
3137 -3128 -3138 0
-3137 3128 0
-3137 3138 0
-3138 3139 3140 0
-3138 3140 3141 0
-3138 3139 3141 0
3138 -3140 -3141 0
3138 -3139 -3140 0
3138 -3139 -3141 0
-3139 -2004 -2005 0
-3139 2004 2005 0
3139 2004 -2005 0
3139 -2004 2005 0
-3140 -3008 -3009 0
-3140 3008 3009 0
3140 3008 -3009 0
3140 -3008 3009 0
3141 -3142 -3143 0
-3141 3142 0
-3141 3143 0
-3142 -2006 -2007 0
-3142 2006 2007 0
3142 2006 -2007 0
3142 -2006 2007 0
-3143 -3010 -3011 0
-3143 3010 3011 0
3143 3010 -3011 0
3143 -3010 3011 0
3144 -3145 -3146 0
-3144 3145 0
-3144 3146 0
-3145 3139 3140 0
-3145 -3139 -3140 0
3145 -3139 3140 0
3145 3139 -3140 0
-3146 3142 3143 0
-3146 -3142 -3143 0
3146 -3142 3143 0
3146 3142 -3143 0
-3147 3148 3151 0
-3147 3151 3155 0
-3147 3151 3156 0
3147 -3151 0
3147 -3148 -3155 -3156 0
-3148 3149 3150 0
-3148 -3149 -3150 0
3148 -3149 3150 0
3148 3149 -3150 0
-3149 -2008 -2010 0
-3149 2008 2010 0
3149 2008 -2010 0
3149 -2008 2010 0
-3150 -3012 -3014 0
-3150 3012 3014 0
3150 3012 -3014 0
3150 -3012 3014 0
-3151 3149 3150 0
-3151 3150 3152 0
-3151 3149 3152 0
3151 -3150 -3152 0
3151 -3149 -3150 0
3151 -3149 -3152 0
3152 -3153 -3154 0
-3152 3153 0
-3152 3154 0
-3153 -2011 -2013 0
-3153 2011 2013 0
3153 2011 -2013 0
3153 -2011 2013 0
-3154 -3015 -3017 0
-3154 3015 3017 0
3154 3015 -3017 0
3154 -3015 3017 0
-3155 3153 3154 0
-3155 -3153 -3154 0
3155 -3153 3154 0
3155 3153 -3154 0
-3156 3157 3159 0
-3156 3159 3161 0
-3156 3157 3161 0
-3156 3157 3162 0
-3156 3159 3162 0
3156 -3157 -3159 0
3156 -3157 -3161 -3162 0
3156 -3159 -3161 -3162 0
-3157 -2014 -3158 0
-3157 2014 3158 0
3157 2014 -3158 0
3157 -2014 3158 0
3158 -5483 -5500 0
-3158 5483 0
-3158 5500 0
-3159 -3018 -3160 0
-3159 3018 3160 0
3159 3018 -3160 0
3159 -3018 3160 0
3160 -5431 -5442 0
-3160 5431 0
-3160 5442 0
3161 -5482 -5500 0
-3161 5482 0
-3161 5500 0
3162 -5431 -5505 0
-3162 5431 0
-3162 5505 0
-3163 3164 3186 0
-3163 3186 3210 0
-3163 3186 3212 0
3163 -3186 0
3163 -3164 -3210 -3212 0
3164 -3165 -3179 -3184 3185 0
3164 -3165 -3179 3184 -3185 0
-3164 3179 0
-3164 -3184 -3185 0
-3164 3165 0
-3164 3184 3185 0
3165 -3166 -3176 0
-3165 3166 0
-3165 3176 0
-3166 3167 3171 0
-3166 -3167 -3171 0
3166 -3167 3171 0
3166 3167 -3171 0
-3167 290 3168 0
-3167 -290 -3168 0
3167 -290 3168 0
3167 290 -3168 0
-3168 552 357 0
-3168 552 3169 0
3168 -552 0
3168 -357 -3169 0
-3169 554 3170 0
-3169 554 424 0
3169 -554 0
3169 -424 -3170 0
-3170 556 773 0
-3170 556 769 0
3170 -556 0
3170 -769 -773 0
-3171 3022 3172 0
-3171 -3022 -3172 0
3171 -3022 3172 0
3171 3022 -3172 0
-3172 3045 3173 0
3172 -3045 0
3172 -3173 0
3173 -3031 -3174 0
-3173 3031 0
-3173 3174 0
-3174 3047 3175 0
-3174 3047 3034 0
3174 -3047 0
3174 -3034 -3175 0
-3175 3049 3075 0
-3175 3049 3071 0
3175 -3049 0
3175 -3071 -3075 0
-3176 3177 3178 0
-3176 -3177 -3178 0
3176 -3177 3178 0
3176 3177 -3178 0
-3177 357 3169 0
-3177 -357 -3169 0
3177 -357 3169 0
3177 357 -3169 0
-3178 3031 3174 0
-3178 -3031 -3174 0
3178 -3031 3174 0
3178 3031 -3174 0
-3179 3180 3182 0
-3179 -3180 -3182 0
3179 -3180 3182 0
3179 3180 -3182 0
-3180 425 3181 0
-3180 -425 -3181 0
3180 -425 3181 0
3180 425 -3181 0
-3181 555 492 0
-3181 555 3170 0
3181 -555 0
3181 -492 -3170 0
-3182 3035 3183 0
-3182 -3035 -3183 0
3182 -3035 3183 0
3182 3035 -3183 0
-3183 3048 3040 0
-3183 3048 3175 0
3183 -3048 0
3183 -3040 -3175 0
-3184 492 3170 0
-3184 -492 -3170 0
3184 -492 3170 0
3184 492 -3170 0
-3185 3040 3175 0
-3185 -3040 -3175 0
3185 -3040 3175 0
3185 3040 -3175 0
-3186 3187 3165 3189 0
-3186 3187 3188 3189 0
3186 -3187 0
3186 -3189 0
3186 -3165 -3188 0
-3187 3167 3171 0
-3187 3171 3178 0
-3187 3167 3178 0
-3187 3171 3177 0
-3187 3167 3177 0
3187 -3167 -3171 0
3187 -3167 -3177 -3178 0
3187 -3171 -3177 -3178 0
-3188 3180 3182 0
-3188 3182 3185 0
-3188 3180 3185 0
-3188 3182 3184 0
-3188 3180 3184 0
3188 -3180 -3182 0
3188 -3180 -3184 -3185 0
3188 -3182 -3184 -3185 0
3189 -3164 -3190 0
3189 -3164 -3200 -3203 0
-3189 3164 0
-3189 3190 3200 0
-3189 3190 3203 0
-3190 3191 3194 0
-3190 3194 3199 0
-3190 3191 3199 0
-3190 3194 3198 0
-3190 3191 3198 0
3190 -3191 -3194 0
3190 -3191 -3198 -3199 0
3190 -3194 -3198 -3199 0
-3191 674 3192 0
-3191 -674 -3192 0
3191 -674 3192 0
3191 674 -3192 0
-3192 615 675 0
-3192 615 3193 0
3192 -615 0
3192 -675 -3193 0
-3193 676 773 0
-3193 676 770 0
3193 -676 0
3193 -770 -773 0
-3194 3061 3195 0
-3194 -3061 -3195 0
3194 -3061 3195 0
3194 3061 -3195 0
-3195 3056 3196 0
3195 -3056 0
3195 -3196 0
3196 -3062 -3197 0
-3196 3062 0
-3196 3197 0
-3197 3063 3075 0
-3197 3063 3072 0
3197 -3063 0
3197 -3072 -3075 0
-3198 675 3193 0
-3198 -675 -3193 0
3198 -675 3193 0
3198 675 -3193 0
-3199 3062 3197 0
-3199 -3062 -3197 0
3199 -3062 3197 0
3199 3062 -3197 0
3200 -3201 -3202 0
-3200 3201 0
-3200 3202 0
-3201 3191 3194 0
-3201 -3191 -3194 0
3201 -3191 3194 0
3201 3191 -3194 0
-3202 3198 3199 0
-3202 -3198 -3199 0
3202 -3198 3199 0
3202 3198 -3199 0
-3203 3204 3206 0
-3203 3206 3209 0
-3203 3204 3209 0
-3203 3206 3208 0
-3203 3204 3208 0
3203 -3204 -3206 0
3203 -3204 -3208 -3209 0
3203 -3206 -3208 -3209 0
-3204 771 3205 0
-3204 -771 -3205 0
3204 -771 3205 0
3204 771 -3205 0
-3205 726 772 0
-3205 726 773 0
3205 -726 0
3205 -772 -773 0
-3206 3073 3207 0
-3206 -3073 -3207 0
3206 -3073 3207 0
3206 3073 -3207 0
-3207 3068 3074 0
-3207 3068 3075 0
3207 -3068 0
3207 -3074 -3075 0
-3208 772 773 0
-3208 -772 -773 0
3208 -772 773 0
3208 772 -773 0
-3209 3074 3075 0
-3209 -3074 -3075 0
3209 -3074 3075 0
3209 3074 -3075 0
3210 -3200 -3211 -3208 3209 0
3210 -3200 -3211 3208 -3209 0
-3210 3211 0
-3210 -3208 -3209 0
-3210 3200 0
-3210 3208 3209 0
-3211 3204 3206 0
-3211 -3204 -3206 0
3211 -3204 3206 0
3211 3204 -3206 0
-3212 3213 3236 0
-3212 3236 3256 0
-3212 3236 3259 0
3212 -3236 0
3212 -3213 -3256 -3259 0
3213 -3214 -3227 -3233 0
-3213 3214 0
-3213 3233 0
-3213 3227 0
3214 -3215 -3224 0
-3214 3215 0
-3214 3224 0
-3215 3216 3219 0
-3215 -3216 -3219 0
3215 -3216 3219 0
3215 3216 -3219 0
-3216 775 3217 0
-3216 -775 -3217 0
3216 -775 3217 0
3216 775 -3217 0
-3217 862 820 0
-3217 862 3218 0
3217 -862 0
3217 -820 -3218 0
-3218 863 934 0
-3218 863 929 0
3218 -863 0
3218 -929 -934 0
-3219 3078 3220 0
-3219 -3078 -3220 0
3219 -3078 3220 0
3219 3078 -3220 0
-3220 3101 3221 0
3220 -3101 0
3220 -3221 0
3221 -3085 -3222 0
-3221 3085 0
-3221 3222 0
-3222 3103 3223 0
-3222 3103 3088 0
3222 -3103 0
3222 -3088 -3223 0
-3223 3105 3127 0
-3223 3105 3123 0
3223 -3105 0
3223 -3123 -3127 0
-3224 3225 3226 0
-3224 -3225 -3226 0
3224 -3225 3226 0
3224 3225 -3226 0
-3225 820 3218 0
-3225 -820 -3218 0
3225 -820 3218 0
3225 820 -3218 0
-3226 3085 3222 0
-3226 -3085 -3222 0
3226 -3085 3222 0
3226 3085 -3222 0
-3227 3228 3231 0
-3227 -3228 -3231 0
3227 -3228 3231 0
3227 3228 -3231 0
-3228 930 3229 0
-3228 -930 -3229 0
3228 -930 3229 0
3228 930 -3229 0
-3229 3230 932 0
-3229 3230 934 0
3229 -3230 0
3229 -932 -934 0
3230 -933 -898 0
-3230 933 0
-3230 898 0
-3231 3089 3232 0
-3231 -3089 -3232 0
3231 -3089 3232 0
3231 3089 -3232 0
-3232 3104 3096 0
-3232 3104 3223 0
3232 -3104 0
3232 -3096 -3223 0
-3233 3234 3235 0
-3233 -3234 -3235 0
3233 -3234 3235 0
3233 3234 -3235 0
-3234 932 934 0
-3234 -932 -934 0
3234 -932 934 0
3234 932 -934 0
-3235 3096 3223 0
-3235 -3096 -3223 0
3235 -3096 3223 0
3235 3096 -3223 0
-3236 3237 3214 3239 0
-3236 3237 3238 3239 0
3236 -3237 0
3236 -3239 0
3236 -3214 -3238 0
-3237 3216 3219 0
-3237 3219 3226 0
-3237 3216 3226 0
-3237 3219 3225 0
-3237 3216 3225 0
3237 -3216 -3219 0
3237 -3216 -3225 -3226 0
3237 -3219 -3225 -3226 0
-3238 3228 3231 0
-3238 3231 3235 0
-3238 3228 3235 0
-3238 3231 3234 0
-3238 3228 3234 0
3238 -3228 -3231 0
3238 -3228 -3234 -3235 0
3238 -3231 -3234 -3235 0
3239 -3213 -3240 0
3239 -3213 -3248 -3250 0
-3239 3213 0
-3239 3240 3248 0
-3239 3240 3250 0
-3240 3241 3243 0
-3240 3243 3247 0
-3240 3241 3247 0
-3240 3243 3246 0
-3240 3241 3246 0
3240 -3241 -3243 0
3240 -3241 -3246 -3247 0
3240 -3243 -3246 -3247 0
-3241 935 3242 0
-3241 -935 -3242 0
3241 -935 3242 0
3241 935 -3242 0
-3242 964 988 0
-3242 964 989 0
3242 -964 0
3242 -988 -989 0
-3243 3115 3244 0
-3243 -3115 -3244 0
3243 -3115 3244 0
3243 3115 -3244 0
-3244 3110 3116 0
-3244 3110 3245 0
3244 -3110 0
3244 -3116 -3245 0
-3245 3117 3127 0
-3245 3117 3124 0
3245 -3117 0
3245 -3124 -3127 0
-3246 -988 -989 0
-3246 988 989 0
3246 988 -989 0
3246 -988 989 0
-3247 3116 3245 0
-3247 -3116 -3245 0
3247 -3116 3245 0
3247 3116 -3245 0
3248 -3249 3246 -3247 0
3248 -3249 -3246 3247 0
-3248 3249 0
-3248 3246 3247 0
-3248 -3246 -3247 0
-3249 3241 3243 0
-3249 -3241 -3243 0
3249 -3241 3243 0
3249 3241 -3243 0
-3250 3251 3252 0
-3250 3252 3255 0
-3250 3251 3255 0
-3250 3252 3254 0
-3250 3251 3254 0
3250 -3251 -3252 0
3250 -3251 -3254 -3255 0
3250 -3252 -3254 -3255 0
-3251 -990 -991 0
-3251 990 991 0
3251 990 -991 0
3251 -990 991 0
-3252 3125 3253 0
-3252 -3125 -3253 0
3252 -3125 3253 0
3252 3125 -3253 0
-3253 3120 3126 0
-3253 3120 3127 0
3253 -3120 0
3253 -3126 -3127 0
-3254 -992 -993 0
-3254 992 993 0
3254 992 -993 0
3254 -992 993 0
-3255 3126 3127 0
-3255 -3126 -3127 0
3255 -3126 3127 0
3255 3126 -3127 0
3256 -3248 -3257 -3258 0
-3256 3248 0
-3256 3258 0
-3256 3257 0
-3257 3251 3252 0
-3257 -3251 -3252 0
3257 -3251 3252 0
3257 3251 -3252 0
-3258 3254 3255 0
-3258 -3254 -3255 0
3258 -3254 3255 0
3258 3254 -3255 0
-3259 3260 3267 3276 0
-3259 3260 3267 3278 0
3259 -3260 0
3259 -3267 0
3259 -3276 -3278 0
-3260 3261 3262 0
-3260 3262 3266 0
-3260 3261 3266 0
-3260 3262 3265 0
-3260 3261 3265 0
3260 -3261 -3262 0
3260 -3261 -3265 -3266 0
3260 -3262 -3265 -3266 0
-3261 -994 -995 0
-3261 994 995 0
3261 994 -995 0
3261 -994 995 0
-3262 3129 3263 0
-3262 -3129 -3263 0
3262 -3129 3263 0
3262 3129 -3263 0
-3263 3136 3132 0
-3263 3136 3264 0
3263 -3136 0
3263 -3132 -3264 0
-3264 3138 3147 0
-3264 3138 3144 0
3264 -3138 0
3264 -3144 -3147 0
-3265 -996 -997 0
-3265 996 997 0
3265 996 -997 0
3265 -996 997 0
-3266 3132 3264 0
-3266 -3132 -3264 0
3266 -3132 3264 0
3266 3132 -3264 0
3267 -3268 -3271 -3273 0
3267 -3268 -3270 -3271 0
3267 -3268 -3270 -3273 0
-3267 3270 3271 0
-3267 3270 3273 0
-3267 3268 0
-3267 3271 3273 0
3268 -3269 3265 -3266 0
3268 -3269 -3265 3266 0
-3268 3269 0
-3268 3265 3266 0
-3268 -3265 -3266 0
-3269 3261 3262 0
-3269 -3261 -3262 0
3269 -3261 3262 0
3269 3261 -3262 0
-3270 -998 -999 0
-3270 998 999 0
3270 998 -999 0
3270 -998 999 0
-3271 3145 3272 0
-3271 -3145 -3272 0
3271 -3145 3272 0
3271 3145 -3272 0
-3272 3141 3146 0
-3272 3141 3147 0
3272 -3141 0
3272 -3146 -3147 0
3273 -3274 -3275 0
-3273 3274 0
-3273 3275 0
-3274 -1000 -1001 0
-3274 1000 1001 0
3274 1000 -1001 0
3274 -1000 1001 0
-3275 3146 3147 0
-3275 -3146 -3147 0
3275 -3146 3147 0
3275 3146 -3147 0
3276 -3268 -3277 -3274 3275 0
3276 -3268 -3277 3274 -3275 0
-3276 3277 0
-3276 -3274 -3275 0
-3276 3268 0
-3276 3274 3275 0
-3277 3270 3271 0
-3277 -3270 -3271 0
3277 -3270 3271 0
3277 3270 -3271 0
-3278 3279 3283 0
-3278 3283 3286 0
-3278 3283 3287 0
3278 -3283 0
3278 -3279 -3286 -3287 0
-3279 3280 3281 0
-3279 -3280 -3281 0
3279 -3280 3281 0
3279 3280 -3281 0
-3280 -1002 -1004 0
-3280 1002 1004 0
3280 1002 -1004 0
3280 -1002 1004 0
-3281 3148 3282 0
-3281 -3148 -3282 0
3281 -3148 3282 0
3281 3148 -3282 0
-3282 3152 3155 0
-3282 3152 3156 0
3282 -3152 0
3282 -3155 -3156 0
-3283 3280 3281 0
-3283 3281 3285 0
-3283 3280 3285 0
-3283 3281 3284 0
-3283 3280 3284 0
3283 -3280 -3281 0
3283 -3280 -3284 -3285 0
3283 -3281 -3284 -3285 0
-3284 -1005 -1007 0
-3284 1005 1007 0
3284 1005 -1007 0
3284 -1005 1007 0
-3285 3155 3156 0
-3285 -3155 -3156 0
3285 -3155 3156 0
3285 3155 -3156 0
-3286 3284 3285 0
-3286 -3284 -3285 0
3286 -3284 3285 0
3286 3284 -3285 0
-3287 3288 3290 0
-3287 3290 3293 0
-3287 3288 3293 0
3287 -3290 -3293 0
3287 -3288 -3290 0
3287 -3288 -3293 0
-3288 -1008 -3289 0
-3288 1008 3289 0
3288 1008 -3289 0
3288 -1008 3289 0
3289 -5445 -5454 0
-3289 5445 0
-3289 5454 0
-3290 -3291 -3292 0
-3290 3291 3292 0
3290 3291 -3292 0
3290 -3291 3292 0
-3291 3157 3159 0
-3291 -3157 -3159 0
3291 -3157 3159 0
3291 3157 -3159 0
3292 -3161 -3162 0
-3292 3161 0
-3292 3162 0
3293 3161 -3162 -3294 0
3293 -3161 3162 -3294 0
-3293 3294 0
-3293 3161 3162 0
-3293 -3161 -3162 0
3294 -5445 -5509 0
-3294 5445 0
-3294 5509 0
-3295 3296 5201 0
-3295 -3296 -5201 0
3295 -3296 5201 0
3295 3296 -5201 0
-3296 3297 5112 0
-3296 -3297 -5112 0
3296 -3297 5112 0
3296 3297 -5112 0
-3297 3298 3904 0
-3297 3904 4508 0
-3297 3298 4508 0
3297 -3298 -4508 0
3297 -3904 -4508 0
3297 -3298 -3904 0
-3298 -3299 -3412 0
-3298 3299 3412 0
3298 3299 -3412 0
3298 -3299 3412 0
3299 3300 -3389 0
3299 -3300 3389 0
-3299 -3300 -3389 0
-3299 3300 3389 0
-3300 3301 3325 0
-3300 3325 -3366 0
-3300 3301 -3366 0
3300 -3301 3366 0
3300 -3325 3366 0
3300 -3301 -3325 0
-3301 3302 3315 0
-3301 -3302 -3315 0
3301 -3302 3315 0
3301 3302 -3315 0
-3302 3303 3311 0
-3302 -3303 -3311 0
3302 -3303 3311 0
3302 3303 -3311 0
-3303 3304 3307 0
-3303 -3304 -3307 0
3303 -3304 3307 0
3303 3304 -3307 0
-3304 -5501 -3305 0
-3304 5501 3305 0
3304 5501 -3305 0
3304 -5501 3305 0
3305 -5516 -3306 0
-3305 5516 0
-3305 3306 0
-3306 -5514 5515 0
-3306 -5501 -5515 0
-3306 5501 5514 0
3306 5501 -5514 -5515 0
3306 -5501 5514 5515 0
-3307 5511 3308 0
-3307 -5511 -3308 0
3307 -5511 3308 0
3307 5511 -3308 0
-3308 3309 3310 0
-3308 5434 5504 0
-3308 5504 3310 0
-3308 5434 3309 0
3308 -5504 -3309 0
3308 -5434 -3310 0
3309 5436 -5501 0
3309 -5436 5501 0
-3309 -5436 -5501 0
-3309 5436 5501 0
-3310 -5436 -5511 0
-3310 5501 5511 0
-3310 5436 -5501 0
3310 -5436 -5501 5511 0
3310 5436 5501 -5511 0
-3311 5517 3312 0
-3311 -5517 -3312 0
3311 -5517 3312 0
3311 5517 -3312 0
-3312 3313 3314 0
-3312 5435 5519 0
-3312 5435 3314 0
-3312 5519 3313 0
3312 -5435 -3313 0
3312 -5519 -3314 0
3313 5478 -5511 0
3313 -5478 5511 0
-3313 -5478 -5511 0
-3313 5478 5511 0
-3314 -5478 -5517 0
-3314 5511 5517 0
-3314 5478 -5511 0
3314 -5478 -5511 5517 0
3314 5478 5511 -5517 0
-3315 2130 3316 0
-3315 -2130 -3316 0
3315 -2130 3316 0
3315 2130 -3316 0
-3316 3317 3321 0
-3316 -3317 -3321 0
3316 -3317 3321 0
3316 3317 -3321 0
-3317 5508 3318 0
-3317 -5508 -3318 0
3317 -5508 3318 0
3317 5508 -3318 0
-3318 3319 3320 0
-3318 5520 5522 0
-3318 5520 3320 0
-3318 5522 3319 0
3318 -5520 -3319 0
3318 -5522 -3320 0
3319 5517 -5518 0
3319 -5517 5518 0
-3319 -5517 -5518 0
-3319 5517 5518 0
-3320 -5517 5518 0
-3320 -5508 -5518 0
-3320 5508 5517 0
3320 5508 -5517 -5518 0
3320 -5508 5517 5518 0
-3321 5446 3322 0
-3321 -5446 -3322 0
3321 -5446 3322 0
3321 5446 -3322 0
-3322 3323 3324 0
-3322 5470 5523 0
-3322 5523 3324 0
-3322 5470 3323 0
3322 -5523 -3323 0
3322 -5470 -3324 0
3323 5508 -5521 0
3323 -5508 5521 0
-3323 -5508 -5521 0
-3323 5508 5521 0
-3324 -5508 5521 0
-3324 -5446 -5521 0
-3324 5446 5508 0
3324 5446 -5508 -5521 0
3324 -5446 5508 5521 0
-3325 3326 3345 0
-3325 3345 3362 0
-3325 3326 3362 0
3325 -3326 -3362 0
3325 -3345 -3362 0
3325 -3326 -3345 0
-3326 -3327 3332 0
-3326 3332 3340 0
-3326 -3327 3340 0
3326 3327 -3340 0
3326 -3332 -3340 0
3326 3327 -3332 0
3327 -5442 -5450 0
3327 -5450 3328 0
3327 -5442 3328 0
-3327 5442 -3328 0
-3327 5450 -3328 0
-3327 5442 5450 0
-3328 5514 3329 0
-3328 -5514 -3329 0
3328 -5514 3329 0
3328 5514 -3329 0
-3329 3330 3331 0
-3329 5504 5516 0
-3329 5516 3331 0
-3329 5504 3330 0
3329 -5516 -3330 0
3329 -5504 -3331 0
3330 5439 -5450 0
3330 -5439 5450 0
-3330 -5439 -5450 0
-3330 5439 5450 0
-3331 -5439 -5514 0
-3331 5450 5514 0
-3331 5439 -5450 0
3331 -5439 -5450 5514 0
3331 5439 5450 -5514 0
-3332 3333 3336 0
-3332 3336 3338 0
-3332 3333 3338 0
3332 -3333 -3338 0
3332 -3336 -3338 0
3332 -3333 -3336 0
-3333 5501 3334 0
-3333 -5501 -3334 0
3333 -5501 3334 0
3333 5501 -3334 0
-3334 5434 5435 0
-3334 3306 3335 0
-3334 5435 3335 0
-3334 5434 3306 0
3334 -5434 -3335 0
3334 -5435 -3306 0
3335 5514 -5515 0
3335 -5514 5515 0
-3335 -5514 -5515 0
-3335 5514 5515 0
-3336 5511 3337 0
-3336 -5511 -3337 0
3336 -5511 3337 0
3336 5511 -3337 0
-3337 3309 3310 0
-3337 5519 5520 0
-3337 5519 3310 0
-3337 5520 3309 0
3337 -5519 -3309 0
3337 -5520 -3310 0
-3338 5517 3339 0
-3338 -5517 -3339 0
3338 -5517 3339 0
3338 5517 -3339 0
-3339 3313 3314 0
-3339 5522 5523 0
-3339 5522 3314 0
-3339 5523 3313 0
3339 -5522 -3313 0
3339 -5523 -3314 0
-3340 2291 3341 0
-3340 3341 3343 0
-3340 2291 3343 0
3340 -3341 -3343 0
3340 -2291 -3341 0
3340 -2291 -3343 0
-3341 5508 3342 0
-3341 -5508 -3342 0
3341 -5508 3342 0
3341 5508 -3342 0
-3342 3319 3320 0
-3342 5470 5507 0
-3342 5470 3320 0
-3342 5507 3319 0
3342 -5470 -3319 0
3342 -5507 -3320 0
-3343 5446 3344 0
-3343 -5446 -3344 0
3343 -5446 3344 0
3343 5446 -3344 0
-3344 3323 3324 0
-3344 5524 5525 0
-3344 5524 3324 0
-3344 5525 3323 0
3344 -5524 -3323 0
3344 -5525 -3324 0
-3345 -2229 3346 0
-3345 3346 3354 0
-3345 -2229 3354 0
3345 2229 -3354 0
3345 -3346 -3354 0
3345 2229 -3346 0
-3346 3347 3352 0
-3346 -3347 -3352 0
3346 -3347 3352 0
3346 3347 -3352 0
-3347 3348 3350 0
-3347 -3348 -3350 0
3347 -3348 3350 0
3347 3348 -3350 0
-3348 -5514 -3349 0
-3348 5514 3349 0
3348 5514 -3349 0
3348 -5514 3349 0
3349 -5516 -3331 0
-3349 5516 0
-3349 3331 0
-3350 5501 3351 0
-3350 -5501 -3351 0
3350 -5501 3351 0
3350 5501 -3351 0
-3351 5434 5504 0
-3351 3306 3335 0
-3351 5504 3306 0
-3351 5434 3335 0
3351 -5434 -3306 0
3351 -5504 -3335 0
-3352 5511 3353 0
-3352 -5511 -3353 0
3352 -5511 3353 0
3352 5511 -3353 0
-3353 3309 3310 0
-3353 5435 5519 0
-3353 5435 3310 0
-3353 5519 3309 0
3353 -5435 -3309 0
3353 -5519 -3310 0
-3354 3355 3360 0
-3354 -3355 -3360 0
3354 -3355 3360 0
3354 3355 -3360 0
-3355 3356 3358 0
-3355 -3356 -3358 0
3355 -3356 3358 0
3355 3356 -3358 0
-3356 5517 3357 0
-3356 -5517 -3357 0
3356 -5517 3357 0
3356 5517 -3357 0
-3357 3313 3314 0
-3357 5520 5522 0
-3357 5520 3314 0
-3357 5522 3313 0
3357 -5520 -3313 0
3357 -5522 -3314 0
-3358 5508 3359 0
-3358 -5508 -3359 0
3358 -5508 3359 0
3358 5508 -3359 0
-3359 3319 3320 0
-3359 5470 5523 0
-3359 5523 3320 0
-3359 5470 3319 0
3359 -5523 -3319 0
3359 -5470 -3320 0
-3360 5446 3361 0
-3360 -5446 -3361 0
3360 -5446 3361 0
3360 5446 -3361 0
-3361 3323 3324 0
-3361 5507 5524 0
-3361 5507 3324 0
-3361 5524 3323 0
3361 -5507 -3323 0
3361 -5524 -3324 0
-3362 3363 3365 0
-3362 -3363 -3365 0
3362 -3363 3365 0
3362 3363 -3365 0
-3363 2174 3364 0
-3363 -2174 -3364 0
3363 -2174 3364 0
3363 2174 -3364 0
-3364 3348 3350 0
-3364 3350 3352 0
-3364 3348 3352 0
3364 -3348 -3352 0
3364 -3350 -3352 0
3364 -3348 -3350 0
-3365 3356 3358 0
-3365 3358 3360 0
-3365 3356 3360 0
3365 -3356 -3360 0
3365 -3358 -3360 0
3365 -3356 -3358 0
3366 3367 -3384 0
3366 -3367 3384 0
-3366 -3367 -3384 0
-3366 3367 3384 0
-3367 3368 3369 0
-3367 -3368 -3369 0
3367 -3368 3369 0
3367 3368 -3369 0
-3368 2174 3364 0
-3368 3364 3365 0
-3368 2174 3365 0
3368 -3364 -3365 0
3368 -2174 -3364 0
3368 -2174 -3365 0
-3369 2229 -3370 0
-3369 -3370 3376 0
-3369 2229 3376 0
3369 3370 -3376 0
3369 -2229 3370 0
3369 -2229 -3376 0
3370 -3371 3374 0
3370 3371 -3374 0
-3370 3371 3374 0
-3370 -3371 -3374 0
3371 -5514 3372 0
3371 5514 -3372 0
-3371 5514 3372 0
-3371 -5514 -3372 0
-3372 5501 3373 0
-3372 -5501 -3373 0
3372 -5501 3373 0
3372 5501 -3373 0
-3373 5504 5516 0
-3373 3306 3335 0
-3373 5516 3306 0
-3373 5504 3335 0
3373 -5504 -3306 0
3373 -5516 -3335 0
-3374 5511 3375 0
-3374 -5511 -3375 0
3374 -5511 3375 0
3374 5511 -3375 0
-3375 3309 3310 0
-3375 5434 5435 0
-3375 5434 3310 0
-3375 5435 3309 0
3375 -5434 -3309 0
3375 -5435 -3310 0
-3376 3377 3382 0
-3376 -3377 -3382 0
3376 -3377 3382 0
3376 3377 -3382 0
-3377 3378 3380 0
-3377 -3378 -3380 0
3377 -3378 3380 0
3377 3378 -3380 0
-3378 5517 3379 0
-3378 -5517 -3379 0
3378 -5517 3379 0
3378 5517 -3379 0
-3379 3313 3314 0
-3379 5519 5520 0
-3379 5519 3314 0
-3379 5520 3313 0
3379 -5519 -3313 0
3379 -5520 -3314 0
-3380 5508 3381 0
-3380 -5508 -3381 0
3380 -5508 3381 0
3380 5508 -3381 0
-3381 3319 3320 0
-3381 5522 5523 0
-3381 5522 3320 0
-3381 5523 3319 0
3381 -5522 -3319 0
3381 -5523 -3320 0
-3382 5446 3383 0
-3382 -5446 -3383 0
3382 -5446 3383 0
3382 5446 -3383 0
-3383 3323 3324 0
-3383 5470 5507 0
-3383 5470 3324 0
-3383 5507 3323 0
3383 -5470 -3323 0
3383 -5507 -3324 0
3384 3385 -3388 0
-3384 -3385 0
-3384 3388 0
3385 -3386 -3387 0
-3385 3386 0
-3385 3387 0
-3386 -5514 3372 0
-3386 3372 3374 0
-3386 -5514 3374 0
3386 5514 -3374 0
3386 -3372 -3374 0
3386 5514 -3372 0
-3387 3378 3380 0
-3387 3380 3382 0
-3387 3378 3382 0
3387 -3378 -3382 0
3387 -3380 -3382 0
3387 -3378 -3380 0
-3388 3386 3387 0
3388 -3386 0
3388 -3387 0
3389 -3390 3402 0
3389 3390 -3402 0
-3389 3390 3402 0
-3389 -3390 -3402 0
3390 -3391 3401 0
3390 3391 -3401 0
-3390 3391 3401 0
-3390 -3391 -3401 0
3391 3392 -3395 0
3391 -3392 3395 0
-3391 -3392 -3395 0
-3391 3392 3395 0
-3392 3393 3394 0
-3392 -3393 -3394 0
3392 -3393 3394 0
3392 3393 -3394 0
-3393 3304 3307 0
-3393 3307 3311 0
-3393 3304 3311 0
3393 -3304 -3311 0
3393 -3307 -3311 0
3393 -3304 -3307 0
-3394 2130 3317 0
-3394 3317 3321 0
-3394 2130 3321 0
3394 -3317 -3321 0
3394 -2130 -3317 0
3394 -2130 -3321 0
3395 -3396 3399 0
3395 3396 -3399 0
-3395 3396 3399 0
-3395 -3396 -3399 0
3396 -5501 3397 0
3396 5501 -3397 0
-3396 5501 3397 0
-3396 -5501 -3397 0
-3397 5511 3398 0
-3397 -5511 -3398 0
3397 -5511 3398 0
3397 5511 -3398 0
-3398 3309 3310 0
-3398 5504 5516 0
-3398 5516 3310 0
-3398 5504 3309 0
3398 -5516 -3309 0
3398 -5504 -3310 0
-3399 5517 3400 0
-3399 -5517 -3400 0
3399 -5517 3400 0
3399 5517 -3400 0
-3400 3313 3314 0
-3400 5434 5435 0
-3400 5434 3314 0
-3400 5435 3313 0
3400 -5434 -3313 0
3400 -5435 -3314 0
-3401 3368 3369 0
-3401 3369 -3384 0
-3401 3368 -3384 0
3401 -3368 3384 0
3401 -3369 3384 0
3401 -3368 -3369 0
-3402 3403 3406 0
-3402 -3403 -3406 0
3402 -3403 3406 0
3402 3403 -3406 0
-3403 -3404 -3405 0
-3403 3404 3405 0
3403 3404 -3405 0
3403 -3404 3405 0
-3404 3386 3387 0
3404 -3386 0
3404 -3387 0
3405 -3302 -3315 0
-3405 3302 0
-3405 3315 0
-3406 2094 3407 0
-3406 -2094 -3407 0
3406 -2094 3407 0
3406 2094 -3407 0
-3407 3408 3410 0
-3407 -3408 -3410 0
3407 -3408 3410 0
3407 3408 -3410 0
-3408 5508 3409 0
-3408 -5508 -3409 0
3408 -5508 3409 0
3408 5508 -3409 0
-3409 3319 3320 0
-3409 5519 5520 0
-3409 5519 3320 0
-3409 5520 3319 0
3409 -5519 -3319 0
3409 -5520 -3320 0
-3410 5446 3411 0
-3410 -5446 -3411 0
3410 -5446 3411 0
3410 5446 -3411 0
-3411 3323 3324 0
-3411 5522 5523 0
-3411 5522 3324 0
-3411 5523 3323 0
3411 -5522 -3323 0
3411 -5523 -3324 0
3412 3413 -3451 0
3412 3413 -3452 0
-3412 -3413 0
-3412 3451 3452 0
3413 -3414 3449 0
-3413 3414 0
-3413 -3449 0
-3414 -3415 3417 0
-3414 3417 3447 0
-3414 -3415 3447 0
3414 3415 -3447 0
3414 -3417 -3447 0
3414 3415 -3417 0
3415 3376 -3416 0
3415 -3376 3416 0
-3415 -3376 -3416 0
-3415 3376 3416 0
3416 2229 -3370 0
3416 -2229 3370 0
-3416 -2229 -3370 0
-3416 2229 3370 0
-3417 3418 3437 0
-3417 3437 -3445 0
-3417 3418 -3445 0
3417 -3418 3445 0
3417 -3437 3445 0
3417 -3418 -3437 0
-3418 3419 3425 0
-3418 3425 3432 0
-3418 3419 3432 0
3418 -3419 -3432 0
3418 -3425 -3432 0
3418 -3419 -3425 0
-3419 5442 3420 0
-3419 3420 3423 0
-3419 5442 3423 0
3419 -3420 -3423 0
3419 -5442 -3420 0
3419 -5442 -3423 0
-3420 -5450 -3421 0
-3420 5450 3421 0
3420 5450 -3421 0
3420 -5450 3421 0
3421 -5516 -3422 0
-3421 5516 0
-3421 3422 0
-3422 -5442 -5450 0
-3422 5450 5513 0
-3422 5442 -5513 0
3422 5442 -5450 5513 0
3422 -5442 5450 -5513 0
-3423 5514 3424 0
-3423 -5514 -3424 0
3423 -5514 3424 0
3423 5514 -3424 0
-3424 3330 3331 0
-3424 5434 5504 0
-3424 5504 3331 0
-3424 5434 3330 0
3424 -5504 -3330 0
3424 -5434 -3331 0
-3425 3426 3428 0
-3425 3428 3430 0
-3425 3426 3430 0
3425 -3426 -3430 0
3425 -3428 -3430 0
3425 -3426 -3428 0
-3426 5501 3427 0
-3426 -5501 -3427 0
3426 -5501 3427 0
3426 5501 -3427 0
-3427 5435 5519 0
-3427 3306 3335 0
-3427 5519 3335 0
-3427 5435 3306 0
3427 -5435 -3335 0
3427 -5519 -3306 0
-3428 5511 3429 0
-3428 -5511 -3429 0
3428 -5511 3429 0
3428 5511 -3429 0
-3429 3309 3310 0
-3429 5520 5522 0
-3429 5520 3310 0
-3429 5522 3309 0
3429 -5520 -3309 0
3429 -5522 -3310 0
-3430 5517 3431 0
-3430 -5517 -3431 0
3430 -5517 3431 0
3430 5517 -3431 0
-3431 3313 3314 0
-3431 5470 5523 0
-3431 5523 3314 0
-3431 5470 3313 0
3431 -5523 -3313 0
3431 -5470 -3314 0
-3432 2361 3433 0
-3432 3433 3435 0
-3432 2361 3435 0
3432 -3433 -3435 0
3432 -2361 -3433 0
3432 -2361 -3435 0
-3433 5508 3434 0
-3433 -5508 -3434 0
3433 -5508 3434 0
3433 5508 -3434 0
-3434 3319 3320 0
-3434 5507 5524 0
-3434 5507 3320 0
-3434 5524 3319 0
3434 -5507 -3319 0
3434 -5524 -3320 0
-3435 5446 3436 0
-3435 -5446 -3436 0
3435 -5446 3436 0
3435 5446 -3436 0
-3436 3323 3324 0
-3436 5525 5526 0
-3436 5525 3324 0
-3436 5526 3323 0
3436 -5525 -3323 0
3436 -5526 -3324 0
-3437 3440 3442 0
-3437 3438 3444 0
-3437 3438 3442 0
-3437 3440 3444 0
3437 -3442 -3444 0
3437 -3438 -3440 0
-3438 3328 3439 0
-3438 -3328 -3439 0
3438 -3328 3439 0
3438 3328 -3439 0
-3439 -5442 -5450 0
-3439 5442 5450 0
3439 5442 -5450 0
3439 -5442 5450 0
-3440 3338 3441 0
-3440 -3338 -3441 0
3440 -3338 3441 0
3440 3338 -3441 0
-3441 3333 3336 0
-3441 -3333 -3336 0
3441 -3333 3336 0
3441 3333 -3336 0
-3442 2291 3443 0
-3442 -2291 -3443 0
3442 -2291 3443 0
3442 2291 -3443 0
-3443 3341 3343 0
-3443 -3341 -3343 0
3443 -3341 3343 0
3443 3341 -3343 0
-3444 3438 3440 0
-3444 -3438 -3440 0
3444 -3438 3440 0
3444 3438 -3440 0
3445 3340 -3446 0
3445 -3340 3446 0
-3445 -3340 -3446 0
-3445 3340 3446 0
3446 -3327 3332 0
3446 3327 -3332 0
-3446 3327 3332 0
-3446 -3327 -3332 0
-3447 3362 3448 0
-3447 -3362 -3448 0
3447 -3362 3448 0
3447 3362 -3448 0
-3448 3326 3345 0
-3448 -3326 -3345 0
3448 -3326 3345 0
3448 3326 -3345 0
3449 -3366 3450 0
3449 3366 -3450 0
-3449 3366 3450 0
-3449 -3366 -3450 0
-3450 3301 3325 0
-3450 -3301 -3325 0
3450 -3301 3325 0
3450 3301 -3325 0
3451 3414 -3449 0
3451 -3414 3449 0
-3451 -3414 -3449 0
-3451 3414 3449 0
3452 -3453 3526 0
3452 -3453 3901 0
-3452 3453 0
-3452 -3526 -3901 0
3453 -3454 -3488 0
3453 -3488 3490 0
3453 -3454 3490 0
-3453 3488 -3490 0
-3453 3454 3488 0
-3453 3454 -3490 0
3454 -3455 3457 0
3454 3457 -3486 0
3454 -3455 -3486 0
-3454 3455 3486 0
-3454 -3457 3486 0
-3454 3455 -3457 0
3455 -2229 3456 0
3455 2229 -3456 0
-3455 2229 3456 0
-3455 -2229 -3456 0
-3456 3346 3354 0
-3456 -3346 -3354 0
3456 -3346 3354 0
3456 3346 -3354 0
-3457 3458 3477 0
-3457 3477 3484 0
-3457 3458 3484 0
3457 -3458 -3484 0
3457 -3477 -3484 0
3457 -3458 -3477 0
-3458 3459 3465 0
-3458 3465 3472 0
-3458 3459 3472 0
3458 -3459 -3472 0
3458 -3465 -3472 0
3458 -3459 -3465 0
-3459 5442 3460 0
-3459 3460 3463 0
-3459 5442 3463 0
3459 -3460 -3463 0
3459 -5442 -3460 0
3459 -5442 -3463 0
-3460 5450 3461 0
-3460 -5450 -3461 0
3460 -5450 3461 0
3460 5450 -3461 0
-3461 5504 5516 0
-3461 3422 3462 0
-3461 5516 3422 0
-3461 5504 3462 0
3461 -5504 -3422 0
3461 -5516 -3462 0
3462 5442 -5513 0
3462 -5442 5513 0
-3462 -5442 -5513 0
-3462 5442 5513 0
-3463 5514 3464 0
-3463 -5514 -3464 0
3463 -5514 3464 0
3463 5514 -3464 0
-3464 3330 3331 0
-3464 5434 5435 0
-3464 5434 3331 0
-3464 5435 3330 0
3464 -5434 -3330 0
3464 -5435 -3331 0
-3465 3466 3468 0
-3465 3468 3470 0
-3465 3466 3470 0
3465 -3466 -3470 0
3465 -3468 -3470 0
3465 -3466 -3468 0
-3466 5501 3467 0
-3466 -5501 -3467 0
3466 -5501 3467 0
3466 5501 -3467 0
-3467 5519 5520 0
-3467 3306 3335 0
-3467 5520 3335 0
-3467 5519 3306 0
3467 -5519 -3335 0
3467 -5520 -3306 0
-3468 5511 3469 0
-3468 -5511 -3469 0
3468 -5511 3469 0
3468 5511 -3469 0
-3469 3309 3310 0
-3469 5522 5523 0
-3469 5522 3310 0
-3469 5523 3309 0
3469 -5522 -3309 0
3469 -5523 -3310 0
-3470 5517 3471 0
-3470 -5517 -3471 0
3470 -5517 3471 0
3470 5517 -3471 0
-3471 3313 3314 0
-3471 5470 5507 0
-3471 5470 3314 0
-3471 5507 3313 0
3471 -5470 -3313 0
3471 -5507 -3314 0
-3472 5437 3475 0
-3472 3473 3475 0
-3472 5437 3473 0
-3472 5446 3475 0
-3472 5446 3473 0
3472 -3473 -3475 0
3472 -5437 -5446 -3475 0
3472 -5437 -5446 -3473 0
-3473 5508 3474 0
-3473 -5508 -3474 0
3473 -5508 3474 0
3473 5508 -3474 0
-3474 3319 3320 0
-3474 5524 5525 0
-3474 5524 3320 0
-3474 5525 3319 0
3474 -5524 -3319 0
3474 -5525 -3320 0
-3475 5446 3476 0
-3475 -5446 -3476 0
3475 -5446 3476 0
3475 5446 -3476 0
-3476 3323 3324 0
-3476 5512 5526 0
-3476 5526 3324 0
-3476 5512 3323 0
3476 -5526 -3323 0
3476 -5512 -3324 0
-3477 3478 3480 0
-3477 3480 3482 0
-3477 3478 3482 0
3477 -3478 -3482 0
3477 -3480 -3482 0
3477 -3478 -3480 0
-3478 3423 3479 0
-3478 -3423 -3479 0
3478 -3423 3479 0
3478 3423 -3479 0
-3479 5442 3420 0
-3479 -5442 -3420 0
3479 -5442 3420 0
3479 5442 -3420 0
-3480 3430 3481 0
-3480 -3430 -3481 0
3480 -3430 3481 0
3480 3430 -3481 0
-3481 3426 3428 0
-3481 -3426 -3428 0
3481 -3426 3428 0
3481 3426 -3428 0
-3482 2361 3483 0
-3482 -2361 -3483 0
3482 -2361 3483 0
3482 2361 -3483 0
-3483 3433 3435 0
-3483 -3433 -3435 0
3483 -3433 3435 0
3483 3433 -3435 0
-3484 3432 3485 0
-3484 -3432 -3485 0
3484 -3432 3485 0
3484 3432 -3485 0
-3485 3419 3425 0
-3485 -3419 -3425 0
3485 -3419 3425 0
3485 3419 -3425 0
3486 -3445 3487 0
3486 3445 -3487 0
-3486 3445 3487 0
-3486 -3445 -3487 0
-3487 3418 3437 0
-3487 -3418 -3437 0
3487 -3418 3437 0
3487 3418 -3437 0
3488 3447 -3489 0
3488 -3447 3489 0
-3488 -3447 -3489 0
-3488 3447 3489 0
3489 -3415 3417 0
3489 3415 -3417 0
-3489 3415 3417 0
-3489 -3415 -3417 0
3490 -3491 -3524 0
-3490 3491 0
-3490 3524 0
-3491 3492 3493 0
-3491 3493 3522 0
-3491 3492 3522 0
3491 -3492 -3522 0
3491 -3493 -3522 0
3491 -3492 -3493 0
-3492 3442 3444 0
-3492 -3442 -3444 0
3492 -3442 3444 0
3492 3442 -3444 0
-3493 3494 3513 0
-3493 3513 3520 0
-3493 3494 3520 0
3493 -3494 -3520 0
3493 -3513 -3520 0
3493 -3494 -3513 0
-3494 3495 3501 0
-3494 3501 3508 0
-3494 3495 3508 0
3494 -3495 -3508 0
3494 -3501 -3508 0
3494 -3495 -3501 0
-3495 3496 3498 0
-3495 5514 3496 3500 0
-3495 -5514 3498 -3500 0
-3495 -5514 3496 -3500 0
-3495 5514 3498 3500 0
3495 -3496 -3498 0
3495 -5514 -3498 3500 0
3495 5514 -3496 -3500 0
3495 5514 -3498 -3500 0
3495 -5514 -3496 3500 0
-3496 3497 0
3496 -3497 0
3497 -5442 -5505 0
3497 -5442 5516 0
-3497 5442 0
-3497 5505 -5516 0
-3498 5450 3499 0
-3498 -5450 -3499 0
3498 -5450 3499 0
3498 5450 -3499 0
-3499 5434 5504 0
-3499 3422 3462 0
-3499 5504 3422 0
-3499 5434 3462 0
3499 -5434 -3422 0
3499 -5504 -3462 0
-3500 3330 3331 0
-3500 5435 5519 0
-3500 5435 3331 0
-3500 5519 3330 0
3500 -5435 -3330 0
3500 -5519 -3331 0
-3501 3502 3504 0
-3501 3504 3506 0
-3501 3502 3506 0
3501 -3502 -3506 0
3501 -3504 -3506 0
3501 -3502 -3504 0
-3502 5501 3503 0
-3502 -5501 -3503 0
3502 -5501 3503 0
3502 5501 -3503 0
-3503 5520 5522 0
-3503 3306 3335 0
-3503 5522 3335 0
-3503 5520 3306 0
3503 -5520 -3335 0
3503 -5522 -3306 0
-3504 5511 3505 0
-3504 -5511 -3505 0
3504 -5511 3505 0
3504 5511 -3505 0
-3505 3309 3310 0
-3505 5470 5523 0
-3505 5523 3310 0
-3505 5470 3309 0
3505 -5523 -3309 0
3505 -5470 -3310 0
-3506 5517 3507 0
-3506 -5517 -3507 0
3506 -5517 3507 0
3506 5517 -3507 0
-3507 3313 3314 0
-3507 5507 5524 0
-3507 5507 3314 0
-3507 5524 3313 0
3507 -5507 -3313 0
3507 -5524 -3314 0
-3508 2496 3509 0
-3508 3509 3511 0
-3508 2496 3511 0
3508 -3509 -3511 0
3508 -2496 -3509 0
3508 -2496 -3511 0
-3509 5508 3510 0
-3509 -5508 -3510 0
3509 -5508 3510 0
3509 5508 -3510 0
-3510 3319 3320 0
-3510 5525 5526 0
-3510 5525 3320 0
-3510 5526 3319 0
3510 -5525 -3319 0
3510 -5526 -3320 0
-3511 5446 3512 0
-3511 -5446 -3512 0
3511 -5446 3512 0
3511 5446 -3512 0
-3512 3323 3324 0
-3512 5437 5512 0
-3512 5512 3324 0
-3512 5437 3323 0
3512 -5512 -3323 0
3512 -5437 -3324 0
-3513 3514 3516 0
-3513 3516 3518 0
-3513 3514 3518 0
3513 -3514 -3518 0
3513 -3516 -3518 0
3513 -3514 -3516 0
-3514 3463 3515 0
-3514 -3463 -3515 0
3514 -3463 3515 0
3514 3463 -3515 0
-3515 5442 3460 0
-3515 -5442 -3460 0
3515 -5442 3460 0
3515 5442 -3460 0
-3516 3470 3517 0
-3516 -3470 -3517 0
3516 -3470 3517 0
3516 3470 -3517 0
-3517 3466 3468 0
-3517 -3466 -3468 0
3517 -3466 3468 0
3517 3466 -3468 0
-3518 2428 3519 0
-3518 -2428 -3519 0
3518 -2428 3519 0
3518 2428 -3519 0
-3519 3473 3475 0
-3519 -3473 -3475 0
3519 -3473 3475 0
3519 3473 -3475 0
-3520 3472 3521 0
-3520 -3472 -3521 0
3520 -3472 3521 0
3520 3472 -3521 0
-3521 3459 3465 0
-3521 -3459 -3465 0
3521 -3459 3465 0
3521 3459 -3465 0
-3522 3484 3523 0
-3522 -3484 -3523 0
3522 -3484 3523 0
3522 3484 -3523 0
-3523 3458 3477 0
-3523 -3458 -3477 0
3523 -3458 3477 0
3523 3458 -3477 0
-3524 -3486 -3525 0
-3524 3486 3525 0
3524 3486 -3525 0
3524 -3486 3525 0
3525 -3455 3457 0
3525 3455 -3457 0
-3525 3455 3457 0
-3525 -3455 -3457 0
-3526 3527 3670 0
-3526 3527 3666 0
3526 -3527 0
3526 -3666 -3670 0
-3527 3528 3567 3603 0
-3527 3528 3569 3603 0
-3527 3567 3569 3603 0
3527 -3567 -3569 0
3527 -3528 -3567 0
3527 -3603 0
3527 -3528 -3569 0
-3528 3529 3531 0
-3528 3531 3565 0
-3528 3529 3565 0
3528 -3529 -3565 0
3528 -3531 -3565 0
3528 -3529 -3531 0
-3529 3482 3530 0
-3529 -3482 -3530 0
3529 -3482 3530 0
3529 3482 -3530 0
-3530 3478 3480 0
-3530 -3478 -3480 0
3530 -3478 3480 0
3530 3478 -3480 0
-3531 3532 3554 0
-3531 3554 3563 0
-3531 3532 3563 0
3531 -3532 -3563 0
3531 -3554 -3563 0
3531 -3532 -3554 0
-3532 3533 3541 0
-3532 3541 3548 0
-3532 3533 3548 0
3532 -3533 -3548 0
3532 -3541 -3548 0
3532 -3533 -3541 0
-3533 3534 3537 0
-3533 3537 3539 0
-3533 3534 3539 0
3533 -3534 -3539 0
3533 -3537 -3539 0
3533 -3534 -3537 0
-3534 5442 3535 0
-3534 -5442 -3535 0
3534 -5442 3535 0
3534 5442 -3535 0
-3535 2323 3536 0
-3535 5504 2323 0
3535 -2323 0
3535 -5504 -3536 0
3536 -5442 5505 0
-3536 5442 0
-3536 -5505 0
-3537 5450 3538 0
-3537 -5450 -3538 0
3537 -5450 3538 0
3537 5450 -3538 0
-3538 5434 5435 0
-3538 3422 3462 0
-3538 5435 3462 0
-3538 5434 3422 0
3538 -5434 -3462 0
3538 -5435 -3422 0
-3539 5514 3540 0
-3539 -5514 -3540 0
3539 -5514 3540 0
3539 5514 -3540 0
-3540 3330 3331 0
-3540 5519 5520 0
-3540 5519 3331 0
-3540 5520 3330 0
3540 -5519 -3330 0
3540 -5520 -3331 0
-3541 3542 3544 0
-3541 3544 3546 0
-3541 3542 3546 0
3541 -3542 -3546 0
3541 -3544 -3546 0
3541 -3542 -3544 0
-3542 5501 3543 0
-3542 -5501 -3543 0
3542 -5501 3543 0
3542 5501 -3543 0
-3543 5522 5523 0
-3543 3306 3335 0
-3543 5523 3335 0
-3543 5522 3306 0
3543 -5522 -3335 0
3543 -5523 -3306 0
-3544 5511 3545 0
-3544 -5511 -3545 0
3544 -5511 3545 0
3544 5511 -3545 0
-3545 3309 3310 0
-3545 5470 5507 0
-3545 5470 3310 0
-3545 5507 3309 0
3545 -5470 -3309 0
3545 -5507 -3310 0
-3546 5517 3547 0
-3546 -5517 -3547 0
3546 -5517 3547 0
3546 5517 -3547 0
-3547 3313 3314 0
-3547 5524 5525 0
-3547 5524 3314 0
-3547 5525 3313 0
3547 -5524 -3313 0
3547 -5525 -3314 0
-3548 5446 3549 0
-3548 3549 3551 0
-3548 5446 3551 0
-3548 3551 -3553 0
-3548 3549 -3553 0
3548 -3549 -3551 0
3548 -5446 -3549 3553 0
3548 -5446 -3551 3553 0
-3549 5508 3550 0
-3549 -5508 -3550 0
3549 -5508 3550 0
3549 5508 -3550 0
-3550 3319 3320 0
-3550 5512 5526 0
-3550 5526 3320 0
-3550 5512 3319 0
3550 -5526 -3319 0
3550 -5512 -3320 0
-3551 5446 3552 0
-3551 -5446 -3552 0
3551 -5446 3552 0
3551 5446 -3552 0
-3552 3323 3324 0
-3552 5431 5437 0
-3552 5437 3324 0
-3552 5431 3323 0
3552 -5437 -3323 0
3552 -5431 -3324 0
3553 -5431 -3323 0
-3553 5431 0
-3553 3323 0
-3554 3558 3560 0
-3554 3555 3562 0
-3554 3555 3560 0
-3554 3558 3562 0
3554 -3560 -3562 0
3554 -3555 -3558 0
-3555 3556 3557 0
-3555 -3556 -3557 0
3555 -3556 3557 0
3555 3556 -3557 0
-3556 5514 3500 0
-3556 -5514 -3500 0
3556 -5514 3500 0
3556 5514 -3500 0
-3557 3496 3498 0
-3557 -3496 -3498 0
3557 -3496 3498 0
3557 3496 -3498 0
-3558 3506 3559 0
-3558 -3506 -3559 0
3558 -3506 3559 0
3558 3506 -3559 0
-3559 3502 3504 0
-3559 -3502 -3504 0
3559 -3502 3504 0
3559 3502 -3504 0
-3560 2496 3561 0
-3560 -2496 -3561 0
3560 -2496 3561 0
3560 2496 -3561 0
-3561 3509 3511 0
-3561 -3509 -3511 0
3561 -3509 3511 0
3561 3509 -3511 0
-3562 3555 3558 0
-3562 -3555 -3558 0
3562 -3555 3558 0
3562 3555 -3558 0
-3563 3508 3564 0
-3563 -3508 -3564 0
3563 -3508 3564 0
3563 3508 -3564 0
-3564 3495 3501 0
-3564 -3495 -3501 0
3564 -3495 3501 0
3564 3495 -3501 0
-3565 3520 3566 0
-3565 -3520 -3566 0
3565 -3520 3566 0
3565 3520 -3566 0
-3566 3494 3513 0
-3566 -3494 -3513 0
3566 -3494 3513 0
3566 3494 -3513 0
-3567 3522 3568 0
-3567 -3522 -3568 0
3567 -3522 3568 0
3567 3522 -3568 0
-3568 3492 3493 0
-3568 -3492 -3493 0
3568 -3492 3493 0
3568 3492 -3493 0
3569 -3570 -3601 0
-3569 3570 0
-3569 3601 0
-3570 3571 3573 0
-3570 3573 3599 0
-3570 3571 3599 0
3570 -3571 -3599 0
3570 -3573 -3599 0
3570 -3571 -3573 0
-3571 3518 3572 0
-3571 -3518 -3572 0
3571 -3518 3572 0
3571 3518 -3572 0
-3572 3514 3516 0
-3572 -3514 -3516 0
3572 -3514 3516 0
3572 3514 -3516 0
-3573 3574 3597 0
-3573 3574 3591 0
-3573 3591 3597 0
3573 -3591 -3597 0
3573 -3574 -3597 0
3573 -3574 -3591 0
-3574 3575 3582 0
-3574 3582 3589 0
-3574 3575 3589 0
3574 -3575 -3589 0
3574 -3582 -3589 0
3574 -3575 -3582 0
-3575 3576 3578 0
-3575 3578 3580 0
-3575 3576 3580 0
3575 -3576 -3580 0
3575 -3578 -3580 0
3575 -3576 -3578 0
-3576 5442 3577 0
-3576 -5442 -3577 0
3576 -5442 3577 0
3576 5442 -3577 0
-3577 2390 3536 0
-3577 5434 2390 0
3577 -2390 0
3577 -5434 -3536 0
-3578 5450 3579 0
-3578 -5450 -3579 0
3578 -5450 3579 0
3578 5450 -3579 0
-3579 5435 5519 0
-3579 3422 3462 0
-3579 5519 3462 0
-3579 5435 3422 0
3579 -5435 -3462 0
3579 -5519 -3422 0
-3580 5514 3581 0
-3580 -5514 -3581 0
3580 -5514 3581 0
3580 5514 -3581 0
-3581 3330 3331 0
-3581 5520 5522 0
-3581 5520 3331 0
-3581 5522 3330 0
3581 -5520 -3330 0
3581 -5522 -3331 0
-3582 3583 3585 0
-3582 3585 3587 0
-3582 3583 3587 0
3582 -3583 -3587 0
3582 -3585 -3587 0
3582 -3583 -3585 0
-3583 5501 3584 0
-3583 -5501 -3584 0
3583 -5501 3584 0
3583 5501 -3584 0
-3584 5470 5523 0
-3584 3306 3335 0
-3584 5523 3306 0
-3584 5470 3335 0
3584 -5470 -3306 0
3584 -5523 -3335 0
-3585 5511 3586 0
-3585 -5511 -3586 0
3585 -5511 3586 0
3585 5511 -3586 0
-3586 3309 3310 0
-3586 5507 5524 0
-3586 5507 3310 0
-3586 5524 3309 0
3586 -5507 -3309 0
3586 -5524 -3310 0
-3587 5517 3588 0
-3587 -5517 -3588 0
3587 -5517 3588 0
3587 5517 -3588 0
-3588 3313 3314 0
-3588 5525 5526 0
-3588 5525 3314 0
-3588 5526 3313 0
3588 -5525 -3313 0
3588 -5526 -3314 0
-3589 3539 3590 0
-3589 -3539 -3590 0
3589 -3539 3590 0
3589 3539 -3590 0
-3590 3534 3537 0
-3590 -3534 -3537 0
3590 -3534 3537 0
3590 3534 -3537 0
3591 -3592 -3594 0
-3591 3592 0
-3591 3594 0
-3592 3546 3593 0
-3592 -3546 -3593 0
3592 -3546 3593 0
3592 3546 -3593 0
-3593 3542 3544 0
-3593 -3542 -3544 0
3593 -3542 3544 0
3593 3542 -3544 0
-3594 3595 3596 0
-3594 -3595 -3596 0
3594 -3595 3596 0
3594 3595 -3596 0
3595 -5446 3553 0
-3595 5446 0
-3595 -3553 0
-3596 3549 3551 0
-3596 -3549 -3551 0
3596 -3549 3551 0
3596 3549 -3551 0
-3597 3548 3598 0
-3597 -3548 -3598 0
3597 -3548 3598 0
3597 3548 -3598 0
-3598 3533 3541 0
-3598 -3533 -3541 0
3598 -3533 3541 0
3598 3533 -3541 0
-3599 3563 3600 0
-3599 -3563 -3600 0
3599 -3563 3600 0
3599 3563 -3600 0
-3600 3532 3554 0
-3600 -3532 -3554 0
3600 -3532 3554 0
3600 3532 -3554 0
-3601 3565 3602 0
-3601 -3565 -3602 0
3601 -3565 3602 0
3601 3565 -3602 0
-3602 3529 3531 0
-3602 -3529 -3531 0
3602 -3529 3531 0
3602 3529 -3531 0
3603 -3604 -3607 0
-3603 3604 0
-3603 3607 0
3604 -3605 -3606 0
-3604 3605 0
-3604 3606 0
-3605 3528 3567 0
-3605 -3528 -3567 0
3605 -3528 3567 0
3605 3528 -3567 0
-3606 3570 3601 0
-3606 -3570 -3601 0
3606 -3570 3601 0
3606 3570 -3601 0
-3607 3608 3637 0
-3607 3637 3639 0
-3607 3608 3639 0
3607 -3637 -3639 0
3607 -3608 -3637 0
3607 -3608 -3639 0
-3608 3609 3610 0
-3608 3610 3635 0
-3608 3609 3635 0
3608 -3609 -3635 0
3608 -3610 -3635 0
3608 -3609 -3610 0
-3609 3560 3562 0
-3609 -3560 -3562 0
3609 -3560 3562 0
3609 3560 -3562 0
-3610 3611 3621 0
-3610 3621 3633 0
-3610 3611 3633 0
3610 -3611 -3633 0
3610 -3621 -3633 0
3610 -3611 -3621 0
-3611 3553 3612 0
-3611 3612 3614 0
-3611 3553 3614 0
3611 -3612 -3614 0
3611 -3553 -3612 0
3611 -3553 -3614 0
-3612 5508 3613 0
-3612 -5508 -3613 0
3612 -5508 3613 0
3612 5508 -3613 0
-3613 3319 3320 0
-3613 5437 5512 0
-3613 5512 3320 0
-3613 5437 3319 0
3613 -5512 -3319 0
3613 -5437 -3320 0
-3614 3615 3617 0
-3614 3617 3619 0
-3614 3615 3619 0
3614 -3615 -3619 0
3614 -3617 -3619 0
3614 -3615 -3617 0
-3615 5442 3616 0
-3615 -5442 -3616 0
3615 -5442 3616 0
3615 5442 -3616 0
-3616 2458 3536 0
-3616 5435 2458 0
3616 -2458 0
3616 -5435 -3536 0
-3617 5450 3618 0
-3617 -5450 -3618 0
3617 -5450 3618 0
3617 5450 -3618 0
-3618 5519 5520 0
-3618 3422 3462 0
-3618 5520 3462 0
-3618 5519 3422 0
3618 -5519 -3462 0
3618 -5520 -3422 0
-3619 5514 3620 0
-3619 -5514 -3620 0
3619 -5514 3620 0
3619 5514 -3620 0
-3620 3330 3331 0
-3620 5522 5523 0
-3620 5522 3331 0
-3620 5523 3330 0
3620 -5522 -3330 0
3620 -5523 -3331 0
-3621 3622 3629 0
-3621 3629 3631 0
-3621 3622 3631 0
3621 -3622 -3631 0
3621 -3629 -3631 0
3621 -3622 -3629 0
-3622 3623 3625 0
-3622 3625 3627 0
-3622 3623 3627 0
3622 -3623 -3627 0
3622 -3625 -3627 0
3622 -3623 -3625 0
-3623 5501 3624 0
-3623 -5501 -3624 0
3623 -5501 3624 0
3623 5501 -3624 0
-3624 5470 5507 0
-3624 3306 3335 0
-3624 5507 3335 0
-3624 5470 3306 0
3624 -5470 -3335 0
3624 -5507 -3306 0
-3625 5511 3626 0
-3625 -5511 -3626 0
3625 -5511 3626 0
3625 5511 -3626 0
-3626 3309 3310 0
-3626 5524 5525 0
-3626 5524 3310 0
-3626 5525 3309 0
3626 -5524 -3309 0
3626 -5525 -3310 0
-3627 5517 3628 0
-3627 -5517 -3628 0
3627 -5517 3628 0
3627 5517 -3628 0
-3628 3313 3314 0
-3628 5512 5526 0
-3628 5526 3314 0
-3628 5512 3313 0
3628 -5526 -3313 0
3628 -5512 -3314 0
-3629 3580 3630 0
-3629 -3580 -3630 0
3629 -3580 3630 0
3629 3580 -3630 0
-3630 3576 3578 0
-3630 -3576 -3578 0
3630 -3576 3578 0
3630 3576 -3578 0
-3631 3587 3632 0
-3631 -3587 -3632 0
3631 -3587 3632 0
3631 3587 -3632 0
-3632 3583 3585 0
-3632 -3583 -3585 0
3632 -3583 3585 0
3632 3583 -3585 0
-3633 3589 3634 0
-3633 -3589 -3634 0
3633 -3589 3634 0
3633 3589 -3634 0
-3634 3575 3582 0
-3634 -3575 -3582 0
3634 -3575 3582 0
3634 3575 -3582 0
-3635 3597 3636 0
-3635 -3597 -3636 0
3635 -3597 3636 0
3635 3597 -3636 0
-3636 -3574 -3591 0
-3636 3574 3591 0
3636 3574 -3591 0
3636 -3574 3591 0
-3637 3599 3638 0
-3637 -3599 -3638 0
3637 -3599 3638 0
3637 3599 -3638 0
-3638 3571 3573 0
-3638 -3571 -3573 0
3638 -3571 3573 0
3638 3571 -3573 0
3639 -3640 -3664 0
-3639 3640 0
-3639 3664 0
-3640 3641 3642 0
-3640 3642 3662 0
-3640 3641 3662 0
3640 -3641 -3662 0
3640 -3642 -3662 0
3640 -3641 -3642 0
-3641 3592 3594 0
-3641 -3592 -3594 0
3641 -3592 3594 0
3641 3592 -3594 0
-3642 3643 3660 0
-3642 3643 3655 0
-3642 3655 3660 0
3642 -3655 -3660 0
3642 -3643 -3660 0
3642 -3643 -3655 0
-3643 3644 3648 0
-3643 3644 3646 0
-3643 3646 3648 0
3643 -3646 -3648 0
3643 -3644 -3648 0
3643 -3644 -3646 0
-3644 5508 3645 0
-3644 -5508 -3645 0
3644 -5508 3645 0
3644 5508 -3645 0
-3645 3319 3320 0
-3645 5431 5437 0
-3645 5437 3320 0
-3645 5431 3319 0
3645 -5437 -3319 0
3645 -5431 -3320 0
3646 -5508 3647 0
-3646 5508 0
-3646 -3647 0
3647 -5431 -3319 0
-3647 5431 0
-3647 3319 0
-3648 3649 3651 0
-3648 3651 3653 0
-3648 3649 3653 0
3648 -3649 -3653 0
3648 -3651 -3653 0
3648 -3649 -3651 0
-3649 5442 3650 0
-3649 -5442 -3650 0
3649 -5442 3650 0
3649 5442 -3650 0
-3650 2525 3536 0
-3650 5519 2525 0
3650 -2525 0
3650 -5519 -3536 0
-3651 5450 3652 0
-3651 -5450 -3652 0
3651 -5450 3652 0
3651 5450 -3652 0
-3652 5520 5522 0
-3652 3422 3462 0
-3652 5522 3462 0
-3652 5520 3422 0
3652 -5520 -3462 0
3652 -5522 -3422 0
-3653 5514 3654 0
-3653 -5514 -3654 0
3653 -5514 3654 0
3653 5514 -3654 0
-3654 3330 3331 0
-3654 5470 5523 0
-3654 5523 3331 0
-3654 5470 3330 0
3654 -5523 -3330 0
3654 -5470 -3331 0
3655 -3656 -3658 0
-3655 3656 0
-3655 3658 0
-3656 3619 3657 0
-3656 -3619 -3657 0
3656 -3619 3657 0
3656 3619 -3657 0
-3657 3615 3617 0
-3657 -3615 -3617 0
3657 -3615 3617 0
3657 3615 -3617 0
-3658 3627 3659 0
-3658 -3627 -3659 0
3658 -3627 3659 0
3658 3627 -3659 0
-3659 3623 3625 0
-3659 -3623 -3625 0
3659 -3623 3625 0
3659 3623 -3625 0
-3660 3614 3661 0
-3660 -3614 -3661 0
3660 -3614 3661 0
3660 3614 -3661 0
-3661 3553 3612 0
-3661 -3553 -3612 0
3661 -3553 3612 0
3661 3553 -3612 0
-3662 3633 3663 0
-3662 -3633 -3663 0
3662 -3633 3663 0
3662 3633 -3663 0
-3663 3611 3621 0
-3663 -3611 -3621 0
3663 -3611 3621 0
3663 3611 -3621 0
-3664 3635 3665 0
-3664 -3635 -3665 0
3664 -3635 3665 0
3664 3635 -3665 0
-3665 3609 3610 0
-3665 -3609 -3610 0
3665 -3609 3610 0
3665 3609 -3610 0
3666 -3604 -3667 0
-3666 3604 0
-3666 3667 0
3667 -3668 -3669 0
-3667 3668 0
-3667 3669 0
-3668 3608 3637 0
-3668 -3608 -3637 0
3668 -3608 3637 0
3668 3608 -3637 0
-3669 3640 3664 0
-3669 -3640 -3664 0
3669 -3640 3664 0
3669 3640 -3664 0
-3670 3671 3771 0
-3670 3771 3844 0
-3670 3771 3848 0
3670 -3771 0
3670 -3671 -3844 -3848 0
3671 -3672 -3723 0
-3671 3672 0
-3671 3723 0
3672 -3673 -3701 0
-3672 3673 0
-3672 3701 0
-3673 3674 3699 0
-3673 -3674 -3699 0
3673 -3674 3699 0
3673 3674 -3699 0
-3674 3675 3677 0
-3674 3677 3697 0
-3674 3675 3697 0
3674 -3675 -3697 0
3674 -3677 -3697 0
3674 -3675 -3677 0
-3675 3631 3676 0
-3675 -3631 -3676 0
3675 -3631 3676 0
3675 3631 -3676 0
-3676 3622 3629 0
-3676 -3622 -3629 0
3676 -3622 3629 0
3676 3622 -3629 0
-3677 3678 3685 0
-3677 3685 3695 0
-3677 3678 3695 0
3677 -3678 -3695 0
3677 -3685 -3695 0
3677 -3678 -3685 0
-3678 3679 3681 0
-3678 3681 3683 0
-3678 3679 3683 0
3678 -3679 -3683 0
3678 -3681 -3683 0
3678 -3679 -3681 0
-3679 5501 3680 0
-3679 -5501 -3680 0
3679 -5501 3680 0
3679 5501 -3680 0
-3680 5507 5524 0
-3680 3306 3335 0
-3680 5524 3335 0
-3680 5507 3306 0
3680 -5507 -3335 0
3680 -5524 -3306 0
-3681 5511 3682 0
-3681 -5511 -3682 0
3681 -5511 3682 0
3681 5511 -3682 0
-3682 3309 3310 0
-3682 5525 5526 0
-3682 5525 3310 0
-3682 5526 3309 0
3682 -5525 -3309 0
3682 -5526 -3310 0
-3683 5517 3684 0
-3683 -5517 -3684 0
3683 -5517 3684 0
3683 5517 -3684 0
-3684 3313 3314 0
-3684 5437 5512 0
-3684 5512 3314 0
-3684 5437 3313 0
3684 -5512 -3313 0
3684 -5437 -3314 0
-3685 3647 3686 0
-3685 3686 3693 0
-3685 3647 3693 0
3685 -3686 -3693 0
3685 -3647 -3686 0
3685 -3647 -3693 0
-3686 3687 3689 0
-3686 3689 3691 0
-3686 3687 3691 0
3686 -3687 -3691 0
3686 -3689 -3691 0
3686 -3687 -3689 0
-3687 5442 3688 0
-3687 -5442 -3688 0
3687 -5442 3688 0
3687 5442 -3688 0
-3688 2589 3536 0
-3688 5520 2589 0
3688 -2589 0
3688 -5520 -3536 0
-3689 5450 3690 0
-3689 -5450 -3690 0
3689 -5450 3690 0
3689 5450 -3690 0
-3690 5522 5523 0
-3690 3422 3462 0
-3690 5523 3462 0
-3690 5522 3422 0
3690 -5522 -3462 0
3690 -5523 -3422 0
-3691 5514 3692 0
-3691 -5514 -3692 0
3691 -5514 3692 0
3691 5514 -3692 0
-3692 3330 3331 0
-3692 5470 5507 0
-3692 5470 3331 0
-3692 5507 3330 0
3692 -5470 -3330 0
3692 -5507 -3331 0
-3693 3653 3694 0
-3693 -3653 -3694 0
3693 -3653 3694 0
3693 3653 -3694 0
-3694 3649 3651 0
-3694 -3649 -3651 0
3694 -3649 3651 0
3694 3649 -3651 0
-3695 3648 3696 0
-3695 -3648 -3696 0
3695 -3648 3696 0
3695 3648 -3696 0
-3696 -3644 -3646 0
-3696 3644 3646 0
3696 3644 -3646 0
3696 -3644 3646 0
-3697 3660 3698 0
-3697 -3660 -3698 0
3697 -3660 3698 0
3697 3660 -3698 0
-3698 -3643 -3655 0
-3698 3643 3655 0
3698 3643 -3655 0
3698 -3643 3655 0
-3699 3662 3700 0
-3699 -3662 -3700 0
3699 -3662 3700 0
3699 3662 -3700 0
-3700 3641 3642 0
-3700 -3641 -3642 0
3700 -3641 3642 0
3700 3641 -3642 0
-3701 3702 3721 0
-3701 -3702 -3721 0
3701 -3702 3721 0
3701 3702 -3721 0
-3702 3703 3704 0
-3702 3704 3719 0
-3702 3703 3719 0
3702 -3703 -3719 0
3702 -3704 -3719 0
3702 -3703 -3704 0
-3703 3656 3658 0
-3703 -3656 -3658 0
3703 -3656 3658 0
3703 3656 -3658 0
-3704 3705 3717 0
-3704 3705 3712 0
-3704 3712 3717 0
3704 -3712 -3717 0
3704 -3705 -3717 0
3704 -3705 -3712 0
-3705 3706 3708 0
-3705 3708 3710 0
-3705 3706 3710 0
3705 -3706 -3710 0
3705 -3708 -3710 0
3705 -3706 -3708 0
-3706 5501 3707 0
-3706 -5501 -3707 0
3706 -5501 3707 0
3706 5501 -3707 0
-3707 5524 5525 0
-3707 3306 3335 0
-3707 5525 3335 0
-3707 5524 3306 0
3707 -5524 -3335 0
3707 -5525 -3306 0
-3708 5511 3709 0
-3708 -5511 -3709 0
3708 -5511 3709 0
3708 5511 -3709 0
-3709 3309 3310 0
-3709 5512 5526 0
-3709 5526 3310 0
-3709 5512 3309 0
3709 -5526 -3309 0
3709 -5512 -3310 0
-3710 5517 3711 0
-3710 -5517 -3711 0
3710 -5517 3711 0
3710 5517 -3711 0
-3711 3313 3314 0
-3711 5431 5437 0
-3711 5437 3314 0
-3711 5431 3313 0
3711 -5437 -3313 0
3711 -5431 -3314 0
3712 -3713 -3715 0
-3712 3713 0
-3712 3715 0
3713 -5517 3714 0
-3713 5517 0
-3713 -3714 0
3714 -5431 -3313 0
-3714 5431 0
-3714 3313 0
-3715 3691 3716 0
-3715 -3691 -3716 0
3715 -3691 3716 0
3715 3691 -3716 0
-3716 3687 3689 0
-3716 -3687 -3689 0
3716 -3687 3689 0
3716 3687 -3689 0
-3717 3683 3718 0
-3717 -3683 -3718 0
3717 -3683 3718 0
3717 3683 -3718 0
-3718 3679 3681 0
-3718 -3679 -3681 0
3718 -3679 3681 0
3718 3679 -3681 0
-3719 3695 3720 0
-3719 -3695 -3720 0
3719 -3695 3720 0
3719 3695 -3720 0
-3720 3678 3685 0
-3720 -3678 -3685 0
3720 -3678 3685 0
3720 3678 -3685 0
-3721 3697 3722 0
-3721 -3697 -3722 0
3721 -3697 3722 0
3721 3697 -3722 0
-3722 3675 3677 0
-3722 -3675 -3677 0
3722 -3675 3677 0
3722 3675 -3677 0
3723 -3724 -3747 0
-3723 3724 0
-3723 3747 0
-3724 3725 3745 0
-3724 -3725 -3745 0
3724 -3725 3745 0
3724 3725 -3745 0
-3725 3726 3728 0
-3725 3728 3743 0
-3725 3726 3743 0
3725 -3726 -3743 0
3725 -3728 -3743 0
3725 -3726 -3728 0
-3726 3693 3727 0
-3726 -3693 -3727 0
3726 -3693 3727 0
3726 3693 -3727 0
-3727 3647 3686 0
-3727 -3647 -3686 0
3727 -3647 3686 0
3727 3647 -3686 0
-3728 3729 3736 0
-3728 3736 3741 0
-3728 3729 3741 0
3728 -3729 -3741 0
3728 -3736 -3741 0
3728 -3729 -3736 0
-3729 3730 3732 0
-3729 3732 3734 0
-3729 3730 3734 0
3729 -3730 -3734 0
3729 -3732 -3734 0
3729 -3730 -3732 0
-3730 5442 3731 0
-3730 -5442 -3731 0
3730 -5442 3731 0
3730 5442 -3731 0
-3731 2648 3536 0
-3731 5522 2648 0
3731 -2648 0
3731 -5522 -3536 0
-3732 5450 3733 0
-3732 -5450 -3733 0
3732 -5450 3733 0
3732 5450 -3733 0
-3733 5470 5523 0
-3733 3422 3462 0
-3733 5523 3422 0
-3733 5470 3462 0
3733 -5470 -3422 0
3733 -5523 -3462 0
-3734 5514 3735 0
-3734 -5514 -3735 0
3734 -5514 3735 0
3734 5514 -3735 0
-3735 3330 3331 0
-3735 5507 5524 0
-3735 5507 3331 0
-3735 5524 3330 0
3735 -5507 -3330 0
3735 -5524 -3331 0
-3736 5431 3739 0
-3736 3737 3739 0
-3736 5431 3737 0
-3736 3313 3739 0
-3736 3313 3737 0
3736 -3737 -3739 0
3736 -5431 -3313 -3739 0
3736 -5431 -3313 -3737 0
-3737 5501 3738 0
-3737 -5501 -3738 0
3737 -5501 3738 0
3737 5501 -3738 0
-3738 5525 5526 0
-3738 3306 3335 0
-3738 5526 3335 0
-3738 5525 3306 0
3738 -5525 -3335 0
3738 -5526 -3306 0
-3739 5511 3740 0
-3739 -5511 -3740 0
3739 -5511 3740 0
3739 5511 -3740 0
-3740 3309 3310 0
-3740 5437 5512 0
-3740 5512 3310 0
-3740 5437 3309 0
3740 -5512 -3309 0
3740 -5437 -3310 0
-3741 3710 3742 0
-3741 -3710 -3742 0
3741 -3710 3742 0
3741 3710 -3742 0
-3742 3706 3708 0
-3742 -3706 -3708 0
3742 -3706 3708 0
3742 3706 -3708 0
-3743 3717 3744 0
-3743 -3717 -3744 0
3743 -3717 3744 0
3743 3717 -3744 0
-3744 -3705 -3712 0
-3744 3705 3712 0
3744 3705 -3712 0
3744 -3705 3712 0
-3745 3719 3746 0
-3745 -3719 -3746 0
3745 -3719 3746 0
3745 3719 -3746 0
-3746 3703 3704 0
-3746 -3703 -3704 0
3746 -3703 3704 0
3746 3703 -3704 0
-3747 3748 3769 0
-3747 -3748 -3769 0
3747 -3748 3769 0
3747 3748 -3769 0
-3748 3749 3750 0
-3748 3750 3767 0
-3748 3749 3767 0
3748 -3749 -3767 0
3748 -3750 -3767 0
3748 -3749 -3750 0
-3749 3713 3715 0
-3749 -3713 -3715 0
3749 -3713 3715 0
3749 3713 -3715 0
-3750 3751 3758 0
-3750 3758 3765 0
-3750 3751 3765 0
3750 -3751 -3765 0
3750 -3758 -3765 0
3750 -3751 -3758 0
-3751 3752 3754 0
-3751 3754 3756 0
-3751 3752 3756 0
3751 -3752 -3756 0
3751 -3754 -3756 0
3751 -3752 -3754 0
-3752 5442 3753 0
-3752 -5442 -3753 0
3752 -5442 3753 0
3752 5442 -3753 0
-3753 2709 3536 0
-3753 5523 2709 0
3753 -2709 0
3753 -5523 -3536 0
-3754 5450 3755 0
-3754 -5450 -3755 0
3754 -5450 3755 0
3754 5450 -3755 0
-3755 5470 5507 0
-3755 3422 3462 0
-3755 5507 3462 0
-3755 5470 3422 0
3755 -5470 -3462 0
3755 -5507 -3422 0
-3756 5514 3757 0
-3756 -5514 -3757 0
3756 -5514 3757 0
3756 5514 -3757 0
-3757 3330 3331 0
-3757 5524 5525 0
-3757 5524 3331 0
-3757 5525 3330 0
3757 -5524 -3330 0
3757 -5525 -3331 0
-3758 3759 3761 0
-3758 3761 3763 0
-3758 3759 3763 0
3758 -3761 -3763 0
3758 -3759 -3761 0
3758 -3759 -3763 0
-3759 5501 3760 0
-3759 -5501 -3760 0
3759 -5501 3760 0
3759 5501 -3760 0
-3760 5512 5526 0
-3760 3306 3335 0
-3760 5526 3306 0
-3760 5512 3335 0
3760 -5512 -3306 0
3760 -5526 -3335 0
-3761 5511 3762 0
-3761 -5511 -3762 0
3761 -5511 3762 0
3761 5511 -3762 0
-3762 3309 3310 0
-3762 5431 5437 0
-3762 5437 3310 0
-3762 5431 3309 0
3762 -5437 -3309 0
3762 -5431 -3310 0
3763 -5511 3764 0
-3763 5511 0
-3763 -3764 0
3764 -5431 -3309 0
-3764 5431 0
-3764 3309 0
-3765 3734 3766 0
-3765 -3734 -3766 0
3765 -3734 3766 0
3765 3734 -3766 0
-3766 3730 3732 0
-3766 -3730 -3732 0
3766 -3730 3732 0
3766 3730 -3732 0
-3767 3741 3768 0
-3767 -3741 -3768 0
3767 -3741 3768 0
3767 3741 -3768 0
-3768 3729 3736 0
-3768 -3729 -3736 0
3768 -3729 3736 0
3768 3729 -3736 0
-3769 3743 3770 0
-3769 -3743 -3770 0
3769 -3743 3770 0
3769 3743 -3770 0
-3770 3726 3728 0
-3770 -3726 -3728 0
3770 -3726 3728 0
3770 3726 -3728 0
-3771 3772 3774 3671 0
-3771 3772 3774 3777 0
3771 -3772 0
3771 -3774 0
3771 -3671 -3777 0
-3772 3674 3699 0
-3772 3699 3773 0
-3772 3674 3773 0
3772 -3699 -3773 0
3772 -3674 -3699 0
3772 -3674 -3773 0
3773 -3702 -3721 0
-3773 3702 0
-3773 3721 0
3774 -3672 -3775 0
-3774 3672 0
-3774 3775 0
-3775 3725 3745 0
-3775 3745 3776 0
-3775 3725 3776 0
3775 -3745 -3776 0
3775 -3725 -3745 0
3775 -3725 -3776 0
3776 -3748 -3769 0
-3776 3748 0
-3776 3769 0
-3777 3778 3795 3813 0
-3777 3778 3797 3813 0
-3777 3795 3797 3813 0
3777 -3795 -3797 0
3777 -3778 -3795 0
3777 -3813 0
3777 -3778 -3797 0
-3778 3779 3781 0
-3778 3781 3793 0
-3778 3779 3793 0
3778 -3779 -3793 0
3778 -3781 -3793 0
3778 -3779 -3781 0
-3779 3714 3780 0
-3779 -3714 -3780 0
3779 -3714 3780 0
3779 3714 -3780 0
-3780 3737 3739 0
-3780 -3737 -3739 0
3780 -3737 3739 0
3780 3737 -3739 0
-3781 3782 3789 0
-3781 3789 3791 0
-3781 3782 3791 0
3781 -3782 -3791 0
3781 -3789 -3791 0
3781 -3782 -3789 0
-3782 3783 3785 0
-3782 3785 3787 0
-3782 3783 3787 0
3782 -3783 -3787 0
3782 -3785 -3787 0
3782 -3783 -3785 0
-3783 5442 3784 0
-3783 -5442 -3784 0
3783 -5442 3784 0
3783 5442 -3784 0
-3784 2758 3536 0
-3784 5470 2758 0
3784 -2758 0
3784 -5470 -3536 0
-3785 5450 3786 0
-3785 -5450 -3786 0
3785 -5450 3786 0
3785 5450 -3786 0
-3786 5507 5524 0
-3786 3422 3462 0
-3786 5524 3462 0
-3786 5507 3422 0
3786 -5507 -3462 0
3786 -5524 -3422 0
-3787 5514 3788 0
-3787 -5514 -3788 0
3787 -5514 3788 0
3787 5514 -3788 0
-3788 3330 3331 0
-3788 5525 5526 0
-3788 5525 3331 0
-3788 5526 3330 0
3788 -5525 -3330 0
3788 -5526 -3331 0
-3789 3756 3790 0
-3789 -3756 -3790 0
3789 -3756 3790 0
3789 3756 -3790 0
-3790 3752 3754 0
-3790 -3752 -3754 0
3790 -3752 3754 0
3790 3752 -3754 0
-3791 3763 3792 0
-3791 -3763 -3792 0
3791 -3763 3792 0
3791 3763 -3792 0
-3792 3759 3761 0
-3792 -3759 -3761 0
3792 -3759 3761 0
3792 3759 -3761 0
-3793 3765 3794 0
-3793 -3765 -3794 0
3793 -3765 3794 0
3793 3765 -3794 0
-3794 3751 3758 0
-3794 -3751 -3758 0
3794 -3751 3758 0
3794 3751 -3758 0
-3795 3767 3796 0
-3795 -3767 -3796 0
3795 -3767 3796 0
3795 3767 -3796 0
-3796 3749 3750 0
-3796 -3749 -3750 0
3796 -3749 3750 0
3796 3749 -3750 0
3797 -3798 -3811 0
-3797 3798 0
-3797 3811 0
3798 -3799 -3809 0
-3798 3799 0
-3798 3809 0
-3799 3764 3800 0
-3799 3800 3802 0
-3799 3764 3802 0
3799 -3800 -3802 0
3799 -3764 -3800 0
3799 -3764 -3802 0
-3800 5501 3801 0
-3800 -5501 -3801 0
3800 -5501 3801 0
3800 5501 -3801 0
-3801 5437 5512 0
-3801 3306 3335 0
-3801 5512 3306 0
-3801 5437 3335 0
3801 -5437 -3306 0
3801 -5512 -3335 0
-3802 3803 3805 0
-3802 3805 3807 0
-3802 3803 3807 0
3802 -3803 -3807 0
3802 -3805 -3807 0
3802 -3803 -3805 0
-3803 5442 3804 0
-3803 -5442 -3804 0
3803 -5442 3804 0
3803 5442 -3804 0
-3804 2807 3536 0
-3804 5507 2807 0
3804 -2807 0
3804 -5507 -3536 0
-3805 5450 3806 0
-3805 -5450 -3806 0
3805 -5450 3806 0
3805 5450 -3806 0
-3806 5524 5525 0
-3806 3422 3462 0
-3806 5525 3462 0
-3806 5524 3422 0
3806 -5524 -3462 0
3806 -5525 -3422 0
-3807 5514 3808 0
-3807 -5514 -3808 0
3807 -5514 3808 0
3807 5514 -3808 0
-3808 3330 3331 0
-3808 5512 5526 0
-3808 5526 3331 0
-3808 5512 3330 0
3808 -5526 -3330 0
3808 -5512 -3331 0
-3809 3791 3810 0
-3809 -3791 -3810 0
3809 -3791 3810 0
3809 3791 -3810 0
-3810 3782 3789 0
-3810 -3782 -3789 0
3810 -3782 3789 0
3810 3782 -3789 0
-3811 3793 3812 0
-3811 -3793 -3812 0
3811 -3793 3812 0
3811 3793 -3812 0
-3812 3779 3781 0
-3812 -3779 -3781 0
3812 -3779 3781 0
3812 3779 -3781 0
3813 -3814 -3817 0
-3813 3814 0
-3813 3817 0
3814 -3815 -3816 0
-3814 3815 0
-3814 3816 0
-3815 3778 3795 0
-3815 -3778 -3795 0
3815 -3778 3795 0
3815 3778 -3795 0
-3816 3798 3811 0
-3816 -3798 -3811 0
3816 -3798 3811 0
3816 3798 -3811 0
-3817 3818 3830 0
-3817 3830 3831 0
-3817 3818 3831 0
3817 -3830 -3831 0
3817 -3818 -3830 0
3817 -3818 -3831 0
-3818 3819 3821 0
-3818 3821 3828 0
-3818 3819 3828 0
3818 -3819 -3828 0
3818 -3821 -3828 0
3818 -3819 -3821 0
-3819 3787 3820 0
-3819 -3787 -3820 0
3819 -3787 3820 0
3819 3787 -3820 0
-3820 3783 3785 0
-3820 -3783 -3785 0
3820 -3783 3785 0
3820 3783 -3785 0
-3821 3822 3826 0
-3821 3822 3824 0
-3821 3824 3826 0
3821 -3824 -3826 0
3821 -3822 -3826 0
3821 -3822 -3824 0
-3822 5501 3823 0
-3822 -5501 -3823 0
3822 -5501 3823 0
3822 5501 -3823 0
-3823 5431 5437 0
-3823 3306 3335 0
-3823 5437 3306 0
-3823 5431 3335 0
3823 -5431 -3306 0
3823 -5437 -3335 0
3824 -5501 3825 0
-3824 5501 0
-3824 -3825 0
3825 -5431 -3335 0
-3825 5431 0
-3825 3335 0
-3826 3807 3827 0
-3826 -3807 -3827 0
3826 -3807 3827 0
3826 3807 -3827 0
-3827 3803 3805 0
-3827 -3803 -3805 0
3827 -3803 3805 0
3827 3803 -3805 0
-3828 3802 3829 0
-3828 -3802 -3829 0
3828 -3802 3829 0
3828 3802 -3829 0
-3829 3764 3800 0
-3829 -3764 -3800 0
3829 -3764 3800 0
3829 3764 -3800 0
-3830 3799 3809 0
-3830 -3799 -3809 0
3830 -3799 3809 0
3830 3799 -3809 0
3831 -3832 -3842 0
-3831 3832 0
-3831 3842 0
3832 -3833 -3840 0
-3832 3833 0
-3832 3840 0
-3833 3834 3836 0
-3833 3836 3838 0
-3833 3834 3838 0
3833 -3834 -3838 0
3833 -3836 -3838 0
3833 -3834 -3836 0
-3834 5442 3835 0
-3834 -5442 -3835 0
3834 -5442 3835 0
3834 5442 -3835 0
-3835 2852 3536 0
-3835 5524 2852 0
3835 -2852 0
3835 -5524 -3536 0
-3836 5450 3837 0
-3836 -5450 -3837 0
3836 -5450 3837 0
3836 5450 -3837 0
-3837 5525 5526 0
-3837 3422 3462 0
-3837 5526 3462 0
-3837 5525 3422 0
3837 -5525 -3462 0
3837 -5526 -3422 0
-3838 5514 3839 0
-3838 -5514 -3839 0
3838 -5514 3839 0
3838 5514 -3839 0
-3839 3330 3331 0
-3839 5437 5512 0
-3839 5512 3331 0
-3839 5437 3330 0
3839 -5512 -3330 0
3839 -5437 -3331 0
-3840 3826 3841 0
-3840 -3826 -3841 0
3840 -3826 3841 0
3840 3826 -3841 0
-3841 -3822 -3824 0
-3841 3822 3824 0
3841 3822 -3824 0
3841 -3822 3824 0
-3842 3828 3843 0
-3842 -3828 -3843 0
3842 -3828 3843 0
3842 3828 -3843 0
-3843 3819 3821 0
-3843 -3819 -3821 0
3843 -3819 3821 0
3843 3819 -3821 0
3844 -3814 -3845 0
-3844 3814 0
-3844 3845 0
3845 -3846 -3847 0
-3845 3846 0
-3845 3847 0
-3846 3818 3830 0
-3846 -3818 -3830 0
3846 -3818 3830 0
3846 3818 -3830 0
-3847 3832 3842 0
-3847 -3832 -3842 0
3847 -3832 3842 0
3847 3832 -3842 0
-3848 3849 3870 0
-3848 3870 3890 0
-3848 3870 3893 0
3848 -3870 0
3848 -3849 -3890 -3893 0
3849 -3850 -3862 0
-3849 3850 0
-3849 3862 0
-3850 3851 3861 0
-3850 -3851 -3861 0
3850 -3851 3861 0
3850 3851 -3861 0
-3851 3825 3852 0
-3851 3852 3859 0
-3851 3825 3859 0
3851 -3852 -3859 0
3851 -3825 -3852 0
3851 -3825 -3859 0
-3852 3853 3855 0
-3852 3855 3857 0
-3852 3853 3857 0
3852 -3853 -3857 0
3852 -3855 -3857 0
3852 -3853 -3855 0
-3853 5442 3854 0
-3853 -5442 -3854 0
3853 -5442 3854 0
3853 5442 -3854 0
-3854 2894 3536 0
-3854 5525 2894 0
3854 -2894 0
3854 -5525 -3536 0
-3855 5450 3856 0
-3855 -5450 -3856 0
3855 -5450 3856 0
3855 5450 -3856 0
-3856 5512 5526 0
-3856 3422 3462 0
-3856 5526 3422 0
-3856 5512 3462 0
3856 -5512 -3422 0
3856 -5526 -3462 0
-3857 5514 3858 0
-3857 -5514 -3858 0
3857 -5514 3858 0
3857 5514 -3858 0
-3858 3330 3331 0
-3858 5431 5437 0
-3858 5437 3331 0
-3858 5431 3330 0
3858 -5437 -3330 0
3858 -5431 -3331 0
-3859 3838 3860 0
-3859 -3838 -3860 0
3859 -3838 3860 0
3859 3838 -3860 0
-3860 3834 3836 0
-3860 -3834 -3836 0
3860 -3834 3836 0
3860 3834 -3836 0
-3861 3833 3840 0
-3861 -3833 -3840 0
3861 -3833 3840 0
3861 3833 -3840 0
-3862 3863 3868 0
-3862 -3863 -3868 0
3862 -3863 3868 0
3862 3863 -3868 0
3863 -3864 -3866 0
-3863 3864 0
-3863 3866 0
3864 -5514 3865 0
-3864 5514 0
-3864 -3865 0
3865 -5431 -3330 0
-3865 5431 0
-3865 3330 0
-3866 3857 3867 0
-3866 -3857 -3867 0
3866 -3857 3867 0
3866 3857 -3867 0
-3867 3853 3855 0
-3867 -3853 -3855 0
3867 -3853 3855 0
3867 3853 -3855 0
-3868 3859 3869 0
-3868 -3859 -3869 0
3868 -3859 3869 0
3868 3859 -3869 0
-3869 3825 3852 0
-3869 -3825 -3852 0
3869 -3825 3852 0
3869 3825 -3852 0
-3870 3851 3861 3872 0
-3870 3851 3871 3872 0
-3870 3861 3871 3872 0
3870 -3861 -3871 0
3870 -3851 -3861 0
3870 -3872 0
3870 -3851 -3871 0
3871 -3863 -3868 0
-3871 3863 0
-3871 3868 0
3872 -3849 -3873 0
-3872 3849 0
-3872 3873 0
-3873 3874 3879 0
-3873 3879 3880 0
-3873 3874 3880 0
3873 -3879 -3880 0
3873 -3874 -3879 0
3873 -3874 -3880 0
-3874 5431 3877 0
-3874 3875 3877 0
-3874 5431 3875 0
-3874 3330 3877 0
-3874 3330 3875 0
3874 -3875 -3877 0
3874 -5431 -3330 -3877 0
3874 -5431 -3330 -3875 0
-3875 5442 3876 0
-3875 -5442 -3876 0
3875 -5442 3876 0
3875 5442 -3876 0
-3876 2927 3536 0
-3876 5526 2927 0
3876 -2927 0
3876 -5526 -3536 0
-3877 5450 3878 0
-3877 -5450 -3878 0
3877 -5450 3878 0
3877 5450 -3878 0
-3878 5437 5512 0
-3878 3422 3462 0
-3878 5512 3422 0
-3878 5437 3462 0
3878 -5437 -3422 0
3878 -5512 -3462 0
-3879 3864 3866 0
-3879 -3864 -3866 0
3879 -3864 3866 0
3879 3864 -3866 0
3880 -3881 -3888 0
-3880 3881 0
-3880 3888 0
-3881 3882 3884 0
-3881 3884 3886 0
-3881 3882 3886 0
3881 -3884 -3886 0
3881 -3882 -3884 0
3881 -3882 -3886 0
-3882 5442 3883 0
-3882 -5442 -3883 0
3882 -5442 3883 0
3882 5442 -3883 0
-3883 2966 3536 0
-3883 5512 2966 0
3883 -2966 0
3883 -5512 -3536 0
-3884 5450 3885 0
-3884 -5450 -3885 0
3884 -5450 3885 0
3884 5450 -3885 0
-3885 5431 5437 0
-3885 3422 3462 0
-3885 5437 3422 0
-3885 5431 3462 0
3885 -5431 -3422 0
3885 -5437 -3462 0
3886 -5450 3887 0
-3886 5450 0
-3886 -3887 0
3887 -5431 -3462 0
-3887 5431 0
-3887 3462 0
-3888 3865 3889 0
-3888 -3865 -3889 0
3888 -3865 3889 0
3888 3865 -3889 0
-3889 3875 3877 0
-3889 -3875 -3877 0
3889 -3875 3877 0
3889 3875 -3877 0
3890 -3891 -3892 0
-3890 3891 0
-3890 3892 0
-3891 3874 3879 0
-3891 -3874 -3879 0
3891 -3874 3879 0
3891 3874 -3879 0
-3892 3881 3888 0
-3892 -3881 -3888 0
3892 -3881 3888 0
3892 3881 -3888 0
-3893 3897 0
-3893 3894 3900 0
-3893 3894 3899 0
3893 -3894 -3897 0
3893 -3897 -3899 -3900 0
3894 -3887 -3895 0
-3894 3887 0
-3894 3895 0
-3895 5442 3896 0
-3895 -5442 -3896 0
3895 -5442 3896 0
3895 5442 -3896 0
-3896 2994 3536 0
-3896 5437 2994 0
3896 -2994 0
3896 -5437 -3536 0
-3897 3886 3898 0
-3897 -3886 -3898 0
3897 -3886 3898 0
3897 3886 -3898 0
-3898 3882 3884 0
-3898 -3882 -3884 0
3898 -3882 3884 0
3898 3882 -3884 0
3899 5431 -5442 3018 0
-3899 -5431 0
-3899 5442 0
-3899 -3018 0
-3900 3887 3895 0
-3900 -3887 -3895 0
3900 -3887 3895 0
3900 3887 -3895 0
3901 -3902 -3903 0
-3901 3902 0
-3901 3903 0
-3902 -3454 -3488 0
-3902 3454 3488 0
3902 3454 -3488 0
3902 -3454 3488 0
-3903 3491 3524 0
-3903 -3491 -3524 0
3903 -3491 3524 0
3903 3491 -3524 0
-3904 -3905 -4016 0
-3904 3905 4016 0
3904 3905 -4016 0
3904 -3905 4016 0
3905 3906 -3993 0
3905 -3906 3993 0
-3905 -3906 -3993 0
-3905 3906 3993 0
-3906 3907 3931 0
-3906 3931 -3972 0
-3906 3907 -3972 0
3906 -3907 3972 0
3906 -3931 3972 0
3906 -3907 -3931 0
-3907 3908 3921 0
-3907 -3908 -3921 0
3907 -3908 3921 0
3907 3908 -3921 0
-3908 3909 3917 0
-3908 -3909 -3917 0
3908 -3909 3917 0
3908 3909 -3917 0
-3909 3910 3913 0
-3909 -3910 -3913 0
3909 -3910 3913 0
3909 3910 -3913 0
-3910 -5485 -3911 0
-3910 5485 3911 0
3910 5485 -3911 0
3910 -5485 3911 0
3911 -5440 -3912 0
-3911 5440 0
-3911 3912 0
-3912 -5468 -5485 0
-3912 5476 5485 0
-3912 5468 -5476 0
3912 -5468 -5476 5485 0
3912 5468 5476 -5485 0
-3913 5479 3914 0
-3913 -5479 -3914 0
3913 -5479 3914 0
3913 5479 -3914 0
-3914 3915 3916 0
-3914 5488 5490 0
-3914 5488 3916 0
-3914 5490 3915 0
3914 -5488 -3915 0
3914 -5490 -3916 0
3915 5485 -5486 0
3915 -5485 5486 0
-3915 -5485 -5486 0
-3915 5485 5486 0
-3916 -5485 5486 0
-3916 -5479 -5486 0
-3916 5479 5485 0
3916 5479 -5485 -5486 0
3916 -5479 5485 5486 0
-3917 5491 3918 0
-3917 -5491 -3918 0
3917 -5491 3918 0
3917 5491 -3918 0
-3918 3919 3920 0
-3918 5441 5481 0
-3918 5481 3920 0
-3918 5441 3919 0
3918 -5481 -3919 0
3918 -5441 -3920 0
3919 5479 -5489 0
3919 -5479 5489 0
-3919 -5479 -5489 0
-3919 5479 5489 0
-3920 -5479 -5491 0
-3920 5489 5491 0
-3920 5479 -5489 0
3920 -5479 -5489 5491 0
3920 5479 5489 -5491 0
-3921 1126 3922 0
-3921 -1126 -3922 0
3921 -1126 3922 0
3921 1126 -3922 0
-3922 3923 3927 0
-3922 -3923 -3927 0
3922 -3923 3927 0
3922 3923 -3927 0
-3923 5510 3924 0
-3923 -5510 -3924 0
3923 -5510 3924 0
3923 5510 -3924 0
-3924 3925 3926 0
-3924 5493 5495 0
-3924 5493 3926 0
-3924 5495 3925 0
3924 -5493 -3925 0
3924 -5495 -3926 0
3925 5491 -5492 0
3925 -5491 5492 0
-3925 -5491 -5492 0
-3925 5491 5492 0
-3926 -5491 -5510 0
-3926 5492 5510 0
-3926 5491 -5492 0
3926 -5491 -5492 5510 0
3926 5491 5492 -5510 0
-3927 5487 3928 0
-3927 -5487 -3928 0
3927 -5487 3928 0
3927 5487 -3928 0
-3928 3929 3930 0
-3928 5432 5496 0
-3928 5496 3930 0
-3928 5432 3929 0
3928 -5496 -3929 0
3928 -5432 -3930 0
3929 5494 -5510 0
3929 -5494 5510 0
-3929 -5494 -5510 0
-3929 5494 5510 0
-3930 -5494 5510 0
-3930 -5487 -5510 0
-3930 5487 5494 0
3930 5487 -5494 -5510 0
3930 -5487 5494 5510 0
-3931 3932 3951 0
-3931 3951 3968 0
-3931 3932 3968 0
3931 -3932 -3968 0
3931 -3951 -3968 0
3931 -3932 -3951 0
-3932 -3933 3938 0
-3932 3938 3946 0
-3932 -3933 3946 0
3932 3933 -3946 0
3932 -3938 -3946 0
3932 3933 -3938 0
3933 -5433 -5483 0
3933 -5483 3934 0
3933 -5433 3934 0
-3933 5433 -3934 0
-3933 5483 -3934 0
-3933 5433 5483 0
-3934 5468 3935 0
-3934 -5468 -3935 0
3934 -5468 3935 0
3934 5468 -3935 0
-3935 3936 3937 0
-3935 5440 5488 0
-3935 5440 3937 0
-3935 5488 3936 0
3935 -5440 -3936 0
3935 -5488 -3937 0
3936 5433 -5484 0
3936 -5433 5484 0
-3936 -5433 -5484 0
-3936 5433 5484 0
-3937 -5433 -5468 0
-3937 5468 5484 0
-3937 5433 -5484 0
3937 5433 -5468 5484 0
3937 -5433 5468 -5484 0
-3938 3939 3942 0
-3938 3942 3944 0
-3938 3939 3944 0
3938 -3939 -3944 0
3938 -3942 -3944 0
3938 -3939 -3942 0
-3939 5485 3940 0
-3939 -5485 -3940 0
3939 -5485 3940 0
3939 5485 -3940 0
-3940 5481 5490 0
-3940 3912 3941 0
-3940 5490 3912 0
-3940 5481 3941 0
3940 -5481 -3912 0
3940 -5490 -3941 0
3941 5468 -5476 0
3941 -5468 5476 0
-3941 -5468 -5476 0
-3941 5468 5476 0
-3942 5479 3943 0
-3942 -5479 -3943 0
3942 -5479 3943 0
3942 5479 -3943 0
-3943 3915 3916 0
-3943 5441 5493 0
-3943 5441 3916 0
-3943 5493 3915 0
3943 -5441 -3915 0
3943 -5493 -3916 0
-3944 5491 3945 0
-3944 -5491 -3945 0
3944 -5491 3945 0
3944 5491 -3945 0
-3945 3919 3920 0
-3945 5495 5496 0
-3945 5495 3920 0
-3945 5496 3919 0
3945 -5495 -3919 0
3945 -5496 -3920 0
-3946 1287 3947 0
-3946 3947 3949 0
-3946 1287 3949 0
3946 -3947 -3949 0
3946 -1287 -3947 0
3946 -1287 -3949 0
-3947 5510 3948 0
-3947 -5510 -3948 0
3947 -5510 3948 0
3947 5510 -3948 0
-3948 3925 3926 0
-3948 5432 5449 0
-3948 5432 3926 0
-3948 5449 3925 0
3948 -5432 -3925 0
3948 -5449 -3926 0
-3949 5487 3950 0
-3949 -5487 -3950 0
3949 -5487 3950 0
3949 5487 -3950 0
-3950 3929 3930 0
-3950 5438 5497 0
-3950 5438 3930 0
-3950 5497 3929 0
3950 -5438 -3929 0
3950 -5497 -3930 0
-3951 -1225 3952 0
-3951 3952 3960 0
-3951 -1225 3960 0
3951 1225 -3960 0
3951 -3952 -3960 0
3951 1225 -3952 0
-3952 3953 3958 0
-3952 -3953 -3958 0
3952 -3953 3958 0
3952 3953 -3958 0
-3953 3954 3956 0
-3953 -3954 -3956 0
3953 -3954 3956 0
3953 3954 -3956 0
-3954 -5468 -3955 0
-3954 5468 3955 0
3954 5468 -3955 0
3954 -5468 3955 0
3955 -5440 -3937 0
-3955 5440 0
-3955 3937 0
-3956 5485 3957 0
-3956 -5485 -3957 0
3956 -5485 3957 0
3956 5485 -3957 0
-3957 5488 5490 0
-3957 3912 3941 0
-3957 5490 3941 0
-3957 5488 3912 0
3957 -5488 -3941 0
3957 -5490 -3912 0
-3958 5479 3959 0
-3958 -5479 -3959 0
3958 -5479 3959 0
3958 5479 -3959 0
-3959 3915 3916 0
-3959 5441 5481 0
-3959 5481 3916 0
-3959 5441 3915 0
3959 -5481 -3915 0
3959 -5441 -3916 0
-3960 3961 3966 0
-3960 -3961 -3966 0
3960 -3961 3966 0
3960 3961 -3966 0
-3961 3962 3964 0
-3961 -3962 -3964 0
3961 -3962 3964 0
3961 3962 -3964 0
-3962 5491 3963 0
-3962 -5491 -3963 0
3962 -5491 3963 0
3962 5491 -3963 0
-3963 3919 3920 0
-3963 5493 5495 0
-3963 5493 3920 0
-3963 5495 3919 0
3963 -5493 -3919 0
3963 -5495 -3920 0
-3964 5510 3965 0
-3964 -5510 -3965 0
3964 -5510 3965 0
3964 5510 -3965 0
-3965 3925 3926 0
-3965 5432 5496 0
-3965 5496 3926 0
-3965 5432 3925 0
3965 -5496 -3925 0
3965 -5432 -3926 0
-3966 5487 3967 0
-3966 -5487 -3967 0
3966 -5487 3967 0
3966 5487 -3967 0
-3967 3929 3930 0
-3967 5438 5449 0
-3967 5449 3930 0
-3967 5438 3929 0
3967 -5449 -3929 0
3967 -5438 -3930 0
-3968 3969 3971 0
-3968 -3969 -3971 0
3968 -3969 3971 0
3968 3969 -3971 0
-3969 1170 3970 0
-3969 -1170 -3970 0
3969 -1170 3970 0
3969 1170 -3970 0
-3970 3954 3956 0
-3970 3956 3958 0
-3970 3954 3958 0
3970 -3954 -3958 0
3970 -3956 -3958 0
3970 -3954 -3956 0
-3971 3962 3964 0
-3971 3964 3966 0
-3971 3962 3966 0
3971 -3962 -3966 0
3971 -3964 -3966 0
3971 -3962 -3964 0
3972 3973 -3990 0
3972 -3973 3990 0
-3972 -3973 -3990 0
-3972 3973 3990 0
-3973 3974 3975 0
-3973 -3974 -3975 0
3973 -3974 3975 0
3973 3974 -3975 0
-3974 1170 3970 0
-3974 3970 3971 0
-3974 1170 3971 0
3974 -3970 -3971 0
3974 -1170 -3970 0
3974 -1170 -3971 0
-3975 1225 -3976 0
-3975 -3976 3982 0
-3975 1225 3982 0
3975 3976 -3982 0
3975 -1225 3976 0
3975 -1225 -3982 0
3976 -3977 3980 0
3976 3977 -3980 0
-3976 3977 3980 0
-3976 -3977 -3980 0
3977 -5468 3978 0
3977 5468 -3978 0
-3977 5468 3978 0
-3977 -5468 -3978 0
-3978 5485 3979 0
-3978 -5485 -3979 0
3978 -5485 3979 0
3978 5485 -3979 0
-3979 5440 5488 0
-3979 3912 3941 0
-3979 5488 3941 0
-3979 5440 3912 0
3979 -5440 -3941 0
3979 -5488 -3912 0
-3980 5479 3981 0
-3980 -5479 -3981 0
3980 -5479 3981 0
3980 5479 -3981 0
-3981 3915 3916 0
-3981 5481 5490 0
-3981 5490 3916 0
-3981 5481 3915 0
3981 -5490 -3915 0
3981 -5481 -3916 0
-3982 3983 3988 0
-3982 -3983 -3988 0
3982 -3983 3988 0
3982 3983 -3988 0
-3983 3984 3986 0
-3983 -3984 -3986 0
3983 -3984 3986 0
3983 3984 -3986 0
-3984 5491 3985 0
-3984 -5491 -3985 0
3984 -5491 3985 0
3984 5491 -3985 0
-3985 3919 3920 0
-3985 5441 5493 0
-3985 5441 3920 0
-3985 5493 3919 0
3985 -5441 -3919 0
3985 -5493 -3920 0
-3986 5510 3987 0
-3986 -5510 -3987 0
3986 -5510 3987 0
3986 5510 -3987 0
-3987 3925 3926 0
-3987 5495 5496 0
-3987 5495 3926 0
-3987 5496 3925 0
3987 -5495 -3925 0
3987 -5496 -3926 0
-3988 5487 3989 0
-3988 -5487 -3989 0
3988 -5487 3989 0
3988 5487 -3989 0
-3989 3929 3930 0
-3989 5432 5449 0
-3989 5432 3930 0
-3989 5449 3929 0
3989 -5432 -3929 0
3989 -5449 -3930 0
3990 -3991 3992 0
3990 3991 -3992 0
-3990 3991 3992 0
-3990 -3991 -3992 0
-3991 -5468 3978 0
-3991 3978 3980 0
-3991 -5468 3980 0
3991 5468 -3980 0
3991 -3978 -3980 0
3991 5468 -3978 0
-3992 3984 3986 0
-3992 3986 3988 0
-3992 3984 3988 0
3992 -3984 -3988 0
3992 -3986 -3988 0
3992 -3984 -3986 0
3993 -3994 4006 0
3993 3994 -4006 0
-3993 3994 4006 0
-3993 -3994 -4006 0
3994 -3995 4005 0
3994 3995 -4005 0
-3994 3995 4005 0
-3994 -3995 -4005 0
3995 3996 -3999 0
3995 -3996 3999 0
-3995 -3996 -3999 0
-3995 3996 3999 0
-3996 3997 3998 0
-3996 -3997 -3998 0
3996 -3997 3998 0
3996 3997 -3998 0
-3997 3910 3913 0
-3997 3913 3917 0
-3997 3910 3917 0
3997 -3910 -3917 0
3997 -3913 -3917 0
3997 -3910 -3913 0
-3998 1126 3923 0
-3998 3923 3927 0
-3998 1126 3927 0
3998 -3923 -3927 0
3998 -1126 -3923 0
3998 -1126 -3927 0
3999 -4000 4003 0
3999 4000 -4003 0
-3999 4000 4003 0
-3999 -4000 -4003 0
4000 -5485 4001 0
4000 5485 -4001 0
-4000 5485 4001 0
-4000 -5485 -4001 0
-4001 5479 4002 0
-4001 -5479 -4002 0
4001 -5479 4002 0
4001 5479 -4002 0
-4002 3915 3916 0
-4002 5440 5488 0
-4002 5440 3916 0
-4002 5488 3915 0
4002 -5440 -3915 0
4002 -5488 -3916 0
-4003 5491 4004 0
-4003 -5491 -4004 0
4003 -5491 4004 0
4003 5491 -4004 0
-4004 3919 3920 0
-4004 5481 5490 0
-4004 5490 3920 0
-4004 5481 3919 0
4004 -5490 -3919 0
4004 -5481 -3920 0
-4005 3974 3975 0
-4005 3975 -3990 0
-4005 3974 -3990 0
4005 -3974 3990 0
4005 -3975 3990 0
4005 -3974 -3975 0
-4006 4007 4010 0
-4006 -4007 -4010 0
4006 -4007 4010 0
4006 4007 -4010 0
-4007 -4008 -4009 0
-4007 4008 4009 0
4007 4008 -4009 0
4007 -4008 4009 0
-4008 3991 3992 0
4008 -3991 0
4008 -3992 0
4009 -3908 -3921 0
-4009 3908 0
-4009 3921 0
-4010 1090 4011 0
-4010 -1090 -4011 0
4010 -1090 4011 0
4010 1090 -4011 0
-4011 4012 4014 0
-4011 -4012 -4014 0
4011 -4012 4014 0
4011 4012 -4014 0
-4012 5510 4013 0
-4012 -5510 -4013 0
4012 -5510 4013 0
4012 5510 -4013 0
-4013 3925 3926 0
-4013 5441 5493 0
-4013 5441 3926 0
-4013 5493 3925 0
4013 -5441 -3925 0
4013 -5493 -3926 0
-4014 5487 4015 0
-4014 -5487 -4015 0
4014 -5487 4015 0
4014 5487 -4015 0
-4015 3929 3930 0
-4015 5495 5496 0
-4015 5495 3930 0
-4015 5496 3929 0
4015 -5495 -3929 0
4015 -5496 -3930 0
4016 4017 -4054 0
4016 4017 -4055 0
-4016 -4017 0
-4016 4054 4055 0
4017 -4018 4052 0
-4017 4018 0
-4017 -4052 0
-4018 -4019 4021 0
-4018 4021 4050 0
-4018 -4019 4050 0
4018 4019 -4050 0
4018 -4021 -4050 0
4018 4019 -4021 0
4019 3982 -4020 0
4019 -3982 4020 0
-4019 -3982 -4020 0
-4019 3982 4020 0
4020 1225 -3976 0
4020 -1225 3976 0
-4020 -1225 -3976 0
-4020 1225 3976 0
-4021 4022 4041 0
-4021 4041 -4048 0
-4021 4022 -4048 0
4021 -4022 4048 0
4021 -4041 4048 0
4021 -4022 -4041 0
-4022 4023 4029 0
-4022 4029 4036 0
-4022 4023 4036 0
4022 -4023 -4036 0
4022 -4029 -4036 0
4022 -4023 -4029 0
-4023 5483 4024 0
-4023 4024 4027 0
-4023 5483 4027 0
4023 -4024 -4027 0
4023 -5483 -4024 0
4023 -5483 -4027 0
-4024 -5433 -4025 0
-4024 5433 4025 0
4024 5433 -4025 0
4024 -5433 4025 0
4025 -5440 -4026 0
-4025 5440 0
-4025 4026 0
-4026 -5443 5483 0
-4026 -5433 -5483 0
-4026 5433 5443 0
4026 5433 -5443 -5483 0
4026 -5433 5443 5483 0
-4027 5468 4028 0
-4027 -5468 -4028 0
4027 -5468 4028 0
4027 5468 -4028 0
-4028 3936 3937 0
-4028 5488 5490 0
-4028 5488 3937 0
-4028 5490 3936 0
4028 -5488 -3936 0
4028 -5490 -3937 0
-4029 4030 4032 0
-4029 4032 4034 0
-4029 4030 4034 0
4029 -4030 -4034 0
4029 -4032 -4034 0
4029 -4030 -4032 0
-4030 5485 4031 0
-4030 -5485 -4031 0
4030 -5485 4031 0
4030 5485 -4031 0
-4031 5441 5481 0
-4031 3912 3941 0
-4031 5481 3912 0
-4031 5441 3941 0
4031 -5441 -3912 0
4031 -5481 -3941 0
-4032 5479 4033 0
-4032 -5479 -4033 0
4032 -5479 4033 0
4032 5479 -4033 0
-4033 3915 3916 0
-4033 5493 5495 0
-4033 5493 3916 0
-4033 5495 3915 0
4033 -5493 -3915 0
4033 -5495 -3916 0
-4034 5491 4035 0
-4034 -5491 -4035 0
4034 -5491 4035 0
4034 5491 -4035 0
-4035 3919 3920 0
-4035 5432 5496 0
-4035 5496 3920 0
-4035 5432 3919 0
4035 -5496 -3919 0
4035 -5432 -3920 0
-4036 1357 4037 0
-4036 4037 4039 0
-4036 1357 4039 0
4036 -4037 -4039 0
4036 -1357 -4037 0
4036 -1357 -4039 0
-4037 5510 4038 0
-4037 -5510 -4038 0
4037 -5510 4038 0
4037 5510 -4038 0
-4038 3925 3926 0
-4038 5438 5449 0
-4038 5449 3926 0
-4038 5438 3925 0
4038 -5449 -3925 0
4038 -5438 -3926 0
-4039 5487 4040 0
-4039 -5487 -4040 0
4039 -5487 4040 0
4039 5487 -4040 0
-4040 3929 3930 0
-4040 5447 5497 0
-4040 5497 3930 0
-4040 5447 3929 0
4040 -5497 -3929 0
4040 -5447 -3930 0
-4041 4042 4044 0
-4041 4044 4046 0
-4041 4042 4046 0
4041 -4042 -4046 0
4041 -4044 -4046 0
4041 -4042 -4044 0
-4042 3934 4043 0
-4042 -3934 -4043 0
4042 -3934 4043 0
4042 3934 -4043 0
-4043 -5433 -5483 0
-4043 5433 5483 0
4043 5433 -5483 0
4043 -5433 5483 0
-4044 3944 4045 0
-4044 -3944 -4045 0
4044 -3944 4045 0
4044 3944 -4045 0
-4045 3939 3942 0
-4045 -3939 -3942 0
4045 -3939 3942 0
4045 3939 -3942 0
-4046 1287 4047 0
-4046 -1287 -4047 0
4046 -1287 4047 0
4046 1287 -4047 0
-4047 3947 3949 0
-4047 -3947 -3949 0
4047 -3947 3949 0
4047 3947 -3949 0
4048 3946 -4049 0
4048 -3946 4049 0
-4048 -3946 -4049 0
-4048 3946 4049 0
4049 -3933 3938 0
4049 3933 -3938 0
-4049 3933 3938 0
-4049 -3933 -3938 0
-4050 3968 4051 0
-4050 -3968 -4051 0
4050 -3968 4051 0
4050 3968 -4051 0
-4051 3932 3951 0
-4051 -3932 -3951 0
4051 -3932 3951 0
4051 3932 -3951 0
4052 -3972 4053 0
4052 3972 -4053 0
-4052 3972 4053 0
-4052 -3972 -4053 0
-4053 3907 3931 0
-4053 -3907 -3931 0
4053 -3907 3931 0
4053 3907 -3931 0
4054 4018 -4052 0
4054 -4018 4052 0
-4054 -4018 -4052 0
-4054 4018 4052 0
4055 -4056 4133 0
4055 -4056 4130 0
-4055 4056 0
-4055 -4130 -4133 0
4056 -4057 -4091 0
4056 -4091 4093 0
4056 -4057 4093 0
-4056 4091 -4093 0
-4056 4057 4091 0
-4056 4057 -4093 0
4057 -4058 4060 0
4057 4060 -4089 0
4057 -4058 -4089 0
-4057 4058 4089 0
-4057 -4060 4089 0
-4057 4058 -4060 0
4058 -1225 4059 0
4058 1225 -4059 0
-4058 1225 4059 0
-4058 -1225 -4059 0
-4059 3952 3960 0
-4059 -3952 -3960 0
4059 -3952 3960 0
4059 3952 -3960 0
-4060 4061 4080 0
-4060 4080 4087 0
-4060 4061 4087 0
4060 -4061 -4087 0
4060 -4080 -4087 0
4060 -4061 -4080 0
-4061 4062 4068 0
-4061 4068 4075 0
-4061 4062 4075 0
4061 -4062 -4075 0
4061 -4068 -4075 0
4061 -4062 -4068 0
-4062 5483 4063 0
-4062 4063 4066 0
-4062 5483 4066 0
4062 -4063 -4066 0
4062 -5483 -4063 0
4062 -5483 -4066 0
-4063 5433 4064 0
-4063 -5433 -4064 0
4063 -5433 4064 0
4063 5433 -4064 0
-4064 5440 5488 0
-4064 4026 4065 0
-4064 5488 4065 0
-4064 5440 4026 0
4064 -5440 -4065 0
4064 -5488 -4026 0
4065 5443 -5483 0
4065 -5443 5483 0
-4065 -5443 -5483 0
-4065 5443 5483 0
-4066 5468 4067 0
-4066 -5468 -4067 0
4066 -5468 4067 0
4066 5468 -4067 0
-4067 3936 3937 0
-4067 5481 5490 0
-4067 5490 3937 0
-4067 5481 3936 0
4067 -5490 -3936 0
4067 -5481 -3937 0
-4068 4069 4071 0
-4068 4071 4073 0
-4068 4069 4073 0
4068 -4069 -4073 0
4068 -4071 -4073 0
4068 -4069 -4071 0
-4069 5485 4070 0
-4069 -5485 -4070 0
4069 -5485 4070 0
4069 5485 -4070 0
-4070 5441 5493 0
-4070 3912 3941 0
-4070 5493 3941 0
-4070 5441 3912 0
4070 -5441 -3941 0
4070 -5493 -3912 0
-4071 5479 4072 0
-4071 -5479 -4072 0
4071 -5479 4072 0
4071 5479 -4072 0
-4072 3915 3916 0
-4072 5495 5496 0
-4072 5495 3916 0
-4072 5496 3915 0
4072 -5495 -3915 0
4072 -5496 -3916 0
-4073 5491 4074 0
-4073 -5491 -4074 0
4073 -5491 4074 0
4073 5491 -4074 0
-4074 3919 3920 0
-4074 5432 5449 0
-4074 5432 3920 0
-4074 5449 3919 0
4074 -5432 -3919 0
4074 -5449 -3920 0
-4075 1424 4076 0
-4075 4076 4078 0
-4075 1424 4078 0
4075 -4076 -4078 0
4075 -1424 -4076 0
4075 -1424 -4078 0
-4076 5510 4077 0
-4076 -5510 -4077 0
4076 -5510 4077 0
4076 5510 -4077 0
-4077 3925 3926 0
-4077 5438 5497 0
-4077 5438 3926 0
-4077 5497 3925 0
4077 -5438 -3925 0
4077 -5497 -3926 0
-4078 5487 4079 0
-4078 -5487 -4079 0
4078 -5487 4079 0
4078 5487 -4079 0
-4079 3929 3930 0
-4079 5447 5498 0
-4079 5447 3930 0
-4079 5498 3929 0
4079 -5447 -3929 0
4079 -5498 -3930 0
-4080 4081 4083 0
-4080 4083 4085 0
-4080 4081 4085 0
4080 -4081 -4085 0
4080 -4083 -4085 0
4080 -4081 -4083 0
-4081 4027 4082 0
-4081 -4027 -4082 0
4081 -4027 4082 0
4081 4027 -4082 0
-4082 5483 4024 0
-4082 -5483 -4024 0
4082 -5483 4024 0
4082 5483 -4024 0
-4083 4034 4084 0
-4083 -4034 -4084 0
4083 -4034 4084 0
4083 4034 -4084 0
-4084 4030 4032 0
-4084 -4030 -4032 0
4084 -4030 4032 0
4084 4030 -4032 0
-4085 1357 4086 0
-4085 -1357 -4086 0
4085 -1357 4086 0
4085 1357 -4086 0
-4086 4037 4039 0
-4086 -4037 -4039 0
4086 -4037 4039 0
4086 4037 -4039 0
-4087 4036 4088 0
-4087 -4036 -4088 0
4087 -4036 4088 0
4087 4036 -4088 0
-4088 4023 4029 0
-4088 -4023 -4029 0
4088 -4023 4029 0
4088 4023 -4029 0
4089 -4048 4090 0
4089 4048 -4090 0
-4089 4048 4090 0
-4089 -4048 -4090 0
-4090 4022 4041 0
-4090 -4022 -4041 0
4090 -4022 4041 0
4090 4022 -4041 0
4091 4050 -4092 0
4091 -4050 4092 0
-4091 -4050 -4092 0
-4091 4050 4092 0
4092 -4019 4021 0
4092 4019 -4021 0
-4092 4019 4021 0
-4092 -4019 -4021 0
4093 -4094 -4128 0
-4093 4094 0
-4093 4128 0
-4094 4095 4097 0
-4094 4097 4126 0
-4094 4095 4126 0
4094 -4095 -4126 0
4094 -4097 -4126 0
4094 -4095 -4097 0
-4095 4046 4096 0
-4095 -4046 -4096 0
4095 -4046 4096 0
4095 4046 -4096 0
-4096 4042 4044 0
-4096 -4042 -4044 0
4096 -4042 4044 0
4096 4042 -4044 0
-4097 4098 4117 0
-4097 4117 4124 0
-4097 4098 4124 0
4097 -4098 -4124 0
4097 -4117 -4124 0
4097 -4098 -4117 0
-4098 4099 4105 0
-4098 4105 4112 0
-4098 4099 4112 0
4098 -4099 -4112 0
4098 -4105 -4112 0
4098 -4099 -4105 0
-4099 4100 4102 0
-4099 5468 4100 4104 0
-4099 -5468 4102 -4104 0
-4099 -5468 4100 -4104 0
-4099 5468 4102 4104 0
4099 -4100 -4102 0
4099 -5468 -4102 4104 0
4099 5468 -4100 -4104 0
4099 5468 -4102 -4104 0
4099 -5468 -4100 4104 0
-4100 4101 0
4100 -4101 0
4101 -5482 -5483 0
4101 5440 -5483 0
-4101 5483 0
-4101 -5440 5482 0
-4102 5433 4103 0
-4102 -5433 -4103 0
4102 -5433 4103 0
4102 5433 -4103 0
-4103 5488 5490 0
-4103 4026 4065 0
-4103 5490 4065 0
-4103 5488 4026 0
4103 -5488 -4065 0
4103 -5490 -4026 0
-4104 3936 3937 0
-4104 5441 5481 0
-4104 5481 3937 0
-4104 5441 3936 0
4104 -5481 -3936 0
4104 -5441 -3937 0
-4105 4106 4108 0
-4105 4108 4110 0
-4105 4106 4110 0
4105 -4106 -4110 0
4105 -4108 -4110 0
4105 -4106 -4108 0
-4106 5485 4107 0
-4106 -5485 -4107 0
4106 -5485 4107 0
4106 5485 -4107 0
-4107 5493 5495 0
-4107 3912 3941 0
-4107 5495 3941 0
-4107 5493 3912 0
4107 -5493 -3941 0
4107 -5495 -3912 0
-4108 5479 4109 0
-4108 -5479 -4109 0
4108 -5479 4109 0
4108 5479 -4109 0
-4109 3915 3916 0
-4109 5432 5496 0
-4109 5496 3916 0
-4109 5432 3915 0
4109 -5496 -3915 0
4109 -5432 -3916 0
-4110 5491 4111 0
-4110 -5491 -4111 0
4110 -5491 4111 0
4110 5491 -4111 0
-4111 3919 3920 0
-4111 5438 5449 0
-4111 5449 3920 0
-4111 5438 3919 0
4111 -5449 -3919 0
4111 -5438 -3920 0
-4112 1492 4113 0
-4112 4113 4115 0
-4112 1492 4115 0
4112 -4113 -4115 0
4112 -1492 -4113 0
4112 -1492 -4115 0
-4113 5510 4114 0
-4113 -5510 -4114 0
4113 -5510 4114 0
4113 5510 -4114 0
-4114 3925 3926 0
-4114 5447 5497 0
-4114 5497 3926 0
-4114 5447 3925 0
4114 -5497 -3925 0
4114 -5447 -3926 0
-4115 5487 4116 0
-4115 -5487 -4116 0
4115 -5487 4116 0
4115 5487 -4116 0
-4116 3929 3930 0
-4116 5498 5499 0
-4116 5498 3930 0
-4116 5499 3929 0
4116 -5498 -3929 0
4116 -5499 -3930 0
-4117 4118 4120 0
-4117 4120 4122 0
-4117 4118 4122 0
4117 -4118 -4122 0
4117 -4120 -4122 0
4117 -4118 -4120 0
-4118 4066 4119 0
-4118 -4066 -4119 0
4118 -4066 4119 0
4118 4066 -4119 0
-4119 5483 4063 0
-4119 -5483 -4063 0
4119 -5483 4063 0
4119 5483 -4063 0
-4120 4073 4121 0
-4120 -4073 -4121 0
4120 -4073 4121 0
4120 4073 -4121 0
-4121 4069 4071 0
-4121 -4069 -4071 0
4121 -4069 4071 0
4121 4069 -4071 0
-4122 1424 4123 0
-4122 -1424 -4123 0
4122 -1424 4123 0
4122 1424 -4123 0
-4123 4076 4078 0
-4123 -4076 -4078 0
4123 -4076 4078 0
4123 4076 -4078 0
-4124 4075 4125 0
-4124 -4075 -4125 0
4124 -4075 4125 0
4124 4075 -4125 0
-4125 4062 4068 0
-4125 -4062 -4068 0
4125 -4062 4068 0
4125 4062 -4068 0
-4126 4087 4127 0
-4126 -4087 -4127 0
4126 -4087 4127 0
4126 4087 -4127 0
-4127 4061 4080 0
-4127 -4061 -4080 0
4127 -4061 4080 0
4127 4061 -4080 0
-4128 -4089 -4129 0
-4128 4089 4129 0
4128 4089 -4129 0
4128 -4089 4129 0
4129 -4058 4060 0
4129 4058 -4060 0
-4129 4058 4060 0
-4129 -4058 -4060 0
4130 -4131 -4132 0
-4130 4131 0
-4130 4132 0
-4131 -4057 -4091 0
-4131 4057 4091 0
4131 4057 -4091 0
4131 -4057 4091 0
-4132 4094 4128 0
-4132 -4094 -4128 0
4132 -4094 4128 0
4132 4094 -4128 0
-4133 4134 4277 0
-4133 4134 4273 0
4133 -4134 0
4133 -4273 -4277 0
-4134 4135 4174 4210 0
-4134 4135 4176 4210 0
-4134 4174 4176 4210 0
4134 -4174 -4176 0
4134 -4135 -4174 0
4134 -4210 0
4134 -4135 -4176 0
-4135 4136 4138 0
-4135 4138 4172 0
-4135 4136 4172 0
4135 -4136 -4172 0
4135 -4138 -4172 0
4135 -4136 -4138 0
-4136 4085 4137 0
-4136 -4085 -4137 0
4136 -4085 4137 0
4136 4085 -4137 0
-4137 4081 4083 0
-4137 -4081 -4083 0
4137 -4081 4083 0
4137 4081 -4083 0
-4138 4139 4161 0
-4138 4161 4170 0
-4138 4139 4170 0
4138 -4139 -4170 0
4138 -4161 -4170 0
4138 -4139 -4161 0
-4139 4140 4148 0
-4139 4148 4155 0
-4139 4140 4155 0
4139 -4140 -4155 0
4139 -4148 -4155 0
4139 -4140 -4148 0
-4140 4141 4144 0
-4140 4144 4146 0
-4140 4141 4146 0
4140 -4141 -4146 0
4140 -4144 -4146 0
4140 -4141 -4144 0
-4141 5483 4142 0
-4141 -5483 -4142 0
4141 -5483 4142 0
4141 5483 -4142 0
-4142 1319 4143 0
-4142 5488 1319 0
4142 -1319 0
4142 -5488 -4143 0
4143 5482 -5483 0
-4143 -5482 0
-4143 5483 0
-4144 5433 4145 0
-4144 -5433 -4145 0
4144 -5433 4145 0
4144 5433 -4145 0
-4145 5481 5490 0
-4145 4026 4065 0
-4145 5490 4026 0
-4145 5481 4065 0
4145 -5481 -4026 0
4145 -5490 -4065 0
-4146 5468 4147 0
-4146 -5468 -4147 0
4146 -5468 4147 0
4146 5468 -4147 0
-4147 3936 3937 0
-4147 5441 5493 0
-4147 5441 3937 0
-4147 5493 3936 0
4147 -5441 -3936 0
4147 -5493 -3937 0
-4148 4149 4151 0
-4148 4151 4153 0
-4148 4149 4153 0
4148 -4149 -4153 0
4148 -4151 -4153 0
4148 -4149 -4151 0
-4149 5485 4150 0
-4149 -5485 -4150 0
4149 -5485 4150 0
4149 5485 -4150 0
-4150 5495 5496 0
-4150 3912 3941 0
-4150 5496 3941 0
-4150 5495 3912 0
4150 -5495 -3941 0
4150 -5496 -3912 0
-4151 5479 4152 0
-4151 -5479 -4152 0
4151 -5479 4152 0
4151 5479 -4152 0
-4152 3915 3916 0
-4152 5432 5449 0
-4152 5432 3916 0
-4152 5449 3915 0
4152 -5432 -3915 0
4152 -5449 -3916 0
-4153 5491 4154 0
-4153 -5491 -4154 0
4153 -5491 4154 0
4153 5491 -4154 0
-4154 3919 3920 0
-4154 5438 5497 0
-4154 5438 3920 0
-4154 5497 3919 0
4154 -5438 -3919 0
4154 -5497 -3920 0
-4155 5487 4156 0
-4155 4156 4158 0
-4155 5487 4158 0
-4155 4158 -4160 0
-4155 4156 -4160 0
4155 -4156 -4158 0
4155 -5487 -4156 4160 0
4155 -5487 -4158 4160 0
-4156 5510 4157 0
-4156 -5510 -4157 0
4156 -5510 4157 0
4156 5510 -4157 0
-4157 3925 3926 0
-4157 5447 5498 0
-4157 5447 3926 0
-4157 5498 3925 0
4157 -5447 -3925 0
4157 -5498 -3926 0
-4158 5487 4159 0
-4158 -5487 -4159 0
4158 -5487 4159 0
4158 5487 -4159 0
-4159 3929 3930 0
-4159 5499 5500 0
-4159 5499 3930 0
-4159 5500 3929 0
4159 -5499 -3929 0
4159 -5500 -3930 0
4160 -5500 -3929 0
-4160 5500 0
-4160 3929 0
-4161 4165 4167 0
-4161 4162 4169 0
-4161 4162 4167 0
-4161 4165 4169 0
4161 -4167 -4169 0
4161 -4162 -4165 0
-4162 4163 4164 0
-4162 -4163 -4164 0
4162 -4163 4164 0
4162 4163 -4164 0
-4163 5468 4104 0
-4163 -5468 -4104 0
4163 -5468 4104 0
4163 5468 -4104 0
-4164 4100 4102 0
-4164 -4100 -4102 0
4164 -4100 4102 0
4164 4100 -4102 0
-4165 4110 4166 0
-4165 -4110 -4166 0
4165 -4110 4166 0
4165 4110 -4166 0
-4166 4106 4108 0
-4166 -4106 -4108 0
4166 -4106 4108 0
4166 4106 -4108 0
-4167 1492 4168 0
-4167 -1492 -4168 0
4167 -1492 4168 0
4167 1492 -4168 0
-4168 4113 4115 0
-4168 -4113 -4115 0
4168 -4113 4115 0
4168 4113 -4115 0
-4169 4162 4165 0
-4169 -4162 -4165 0
4169 -4162 4165 0
4169 4162 -4165 0
-4170 4112 4171 0
-4170 -4112 -4171 0
4170 -4112 4171 0
4170 4112 -4171 0
-4171 4099 4105 0
-4171 -4099 -4105 0
4171 -4099 4105 0
4171 4099 -4105 0
-4172 4124 4173 0
-4172 -4124 -4173 0
4172 -4124 4173 0
4172 4124 -4173 0
-4173 4098 4117 0
-4173 -4098 -4117 0
4173 -4098 4117 0
4173 4098 -4117 0
-4174 4126 4175 0
-4174 -4126 -4175 0
4174 -4126 4175 0
4174 4126 -4175 0
-4175 4095 4097 0
-4175 -4095 -4097 0
4175 -4095 4097 0
4175 4095 -4097 0
4176 -4177 -4208 0
-4176 4177 0
-4176 4208 0
-4177 4178 4180 0
-4177 4180 4206 0
-4177 4178 4206 0
4177 -4178 -4206 0
4177 -4180 -4206 0
4177 -4178 -4180 0
-4178 4122 4179 0
-4178 -4122 -4179 0
4178 -4122 4179 0
4178 4122 -4179 0
-4179 4118 4120 0
-4179 -4118 -4120 0
4179 -4118 4120 0
4179 4118 -4120 0
-4180 4181 4204 0
-4180 4181 4198 0
-4180 4198 4204 0
4180 -4198 -4204 0
4180 -4181 -4204 0
4180 -4181 -4198 0
-4181 4182 4189 0
-4181 4189 4196 0
-4181 4182 4196 0
4181 -4182 -4196 0
4181 -4189 -4196 0
4181 -4182 -4189 0
-4182 4183 4185 0
-4182 4185 4187 0
-4182 4183 4187 0
4182 -4183 -4187 0
4182 -4185 -4187 0
4182 -4183 -4185 0
-4183 5483 4184 0
-4183 -5483 -4184 0
4183 -5483 4184 0
4183 5483 -4184 0
-4184 1386 4143 0
-4184 5490 1386 0
4184 -1386 0
4184 -5490 -4143 0
-4185 5433 4186 0
-4185 -5433 -4186 0
4185 -5433 4186 0
4185 5433 -4186 0
-4186 5441 5481 0
-4186 4026 4065 0
-4186 5481 4026 0
-4186 5441 4065 0
4186 -5441 -4026 0
4186 -5481 -4065 0
-4187 5468 4188 0
-4187 -5468 -4188 0
4187 -5468 4188 0
4187 5468 -4188 0
-4188 3936 3937 0
-4188 5493 5495 0
-4188 5493 3937 0
-4188 5495 3936 0
4188 -5493 -3936 0
4188 -5495 -3937 0
-4189 4190 4192 0
-4189 4192 4194 0
-4189 4190 4194 0
4189 -4190 -4194 0
4189 -4192 -4194 0
4189 -4190 -4192 0
-4190 5485 4191 0
-4190 -5485 -4191 0
4190 -5485 4191 0
4190 5485 -4191 0
-4191 5432 5496 0
-4191 3912 3941 0
-4191 5496 3912 0
-4191 5432 3941 0
4191 -5432 -3912 0
4191 -5496 -3941 0
-4192 5479 4193 0
-4192 -5479 -4193 0
4192 -5479 4193 0
4192 5479 -4193 0
-4193 3915 3916 0
-4193 5438 5449 0
-4193 5449 3916 0
-4193 5438 3915 0
4193 -5449 -3915 0
4193 -5438 -3916 0
-4194 5491 4195 0
-4194 -5491 -4195 0
4194 -5491 4195 0
4194 5491 -4195 0
-4195 3919 3920 0
-4195 5447 5497 0
-4195 5497 3920 0
-4195 5447 3919 0
4195 -5497 -3919 0
4195 -5447 -3920 0
-4196 4146 4197 0
-4196 -4146 -4197 0
4196 -4146 4197 0
4196 4146 -4197 0
-4197 4141 4144 0
-4197 -4141 -4144 0
4197 -4141 4144 0
4197 4141 -4144 0
4198 -4199 -4201 0
-4198 4199 0
-4198 4201 0
-4199 4153 4200 0
-4199 -4153 -4200 0
4199 -4153 4200 0
4199 4153 -4200 0
-4200 4149 4151 0
-4200 -4149 -4151 0
4200 -4149 4151 0
4200 4149 -4151 0
-4201 4202 4203 0
-4201 -4202 -4203 0
4201 -4202 4203 0
4201 4202 -4203 0
4202 -5487 4160 0
-4202 5487 0
-4202 -4160 0
-4203 4156 4158 0
-4203 -4156 -4158 0
4203 -4156 4158 0
4203 4156 -4158 0
-4204 4155 4205 0
-4204 -4155 -4205 0
4204 -4155 4205 0
4204 4155 -4205 0
-4205 4140 4148 0
-4205 -4140 -4148 0
4205 -4140 4148 0
4205 4140 -4148 0
-4206 4170 4207 0
-4206 -4170 -4207 0
4206 -4170 4207 0
4206 4170 -4207 0
-4207 4139 4161 0
-4207 -4139 -4161 0
4207 -4139 4161 0
4207 4139 -4161 0
-4208 4172 4209 0
-4208 -4172 -4209 0
4208 -4172 4209 0
4208 4172 -4209 0
-4209 4136 4138 0
-4209 -4136 -4138 0
4209 -4136 4138 0
4209 4136 -4138 0
4210 -4211 -4214 0
-4210 4211 0
-4210 4214 0
4211 -4212 -4213 0
-4211 4212 0
-4211 4213 0
-4212 4135 4174 0
-4212 -4135 -4174 0
4212 -4135 4174 0
4212 4135 -4174 0
-4213 4177 4208 0
-4213 -4177 -4208 0
4213 -4177 4208 0
4213 4177 -4208 0
-4214 4215 4244 0
-4214 4244 4246 0
-4214 4215 4246 0
4214 -4244 -4246 0
4214 -4215 -4244 0
4214 -4215 -4246 0
-4215 4216 4217 0
-4215 4217 4242 0
-4215 4216 4242 0
4215 -4216 -4242 0
4215 -4217 -4242 0
4215 -4216 -4217 0
-4216 4167 4169 0
-4216 -4167 -4169 0
4216 -4167 4169 0
4216 4167 -4169 0
-4217 4218 4228 0
-4217 4228 4240 0
-4217 4218 4240 0
4217 -4218 -4240 0
4217 -4228 -4240 0
4217 -4218 -4228 0
-4218 4160 4219 0
-4218 4219 4221 0
-4218 4160 4221 0
4218 -4219 -4221 0
4218 -4160 -4219 0
4218 -4160 -4221 0
-4219 5510 4220 0
-4219 -5510 -4220 0
4219 -5510 4220 0
4219 5510 -4220 0
-4220 3925 3926 0
-4220 5498 5499 0
-4220 5498 3926 0
-4220 5499 3925 0
4220 -5498 -3925 0
4220 -5499 -3926 0
-4221 4222 4224 0
-4221 4224 4226 0
-4221 4222 4226 0
4221 -4222 -4226 0
4221 -4224 -4226 0
4221 -4222 -4224 0
-4222 5483 4223 0
-4222 -5483 -4223 0
4222 -5483 4223 0
4222 5483 -4223 0
-4223 1454 4143 0
-4223 5481 1454 0
4223 -1454 0
4223 -5481 -4143 0
-4224 5433 4225 0
-4224 -5433 -4225 0
4224 -5433 4225 0
4224 5433 -4225 0
-4225 5441 5493 0
-4225 4026 4065 0
-4225 5493 4065 0
-4225 5441 4026 0
4225 -5441 -4065 0
4225 -5493 -4026 0
-4226 5468 4227 0
-4226 -5468 -4227 0
4226 -5468 4227 0
4226 5468 -4227 0
-4227 3936 3937 0
-4227 5495 5496 0
-4227 5495 3937 0
-4227 5496 3936 0
4227 -5495 -3936 0
4227 -5496 -3937 0
-4228 4229 4236 0
-4228 4236 4238 0
-4228 4229 4238 0
4228 -4229 -4238 0
4228 -4236 -4238 0
4228 -4229 -4236 0
-4229 4230 4232 0
-4229 4232 4234 0
-4229 4230 4234 0
4229 -4230 -4234 0
4229 -4232 -4234 0
4229 -4230 -4232 0
-4230 5485 4231 0
-4230 -5485 -4231 0
4230 -5485 4231 0
4230 5485 -4231 0
-4231 5432 5449 0
-4231 3912 3941 0
-4231 5449 3941 0
-4231 5432 3912 0
4231 -5432 -3941 0
4231 -5449 -3912 0
-4232 5479 4233 0
-4232 -5479 -4233 0
4232 -5479 4233 0
4232 5479 -4233 0
-4233 3915 3916 0
-4233 5438 5497 0
-4233 5438 3916 0
-4233 5497 3915 0
4233 -5438 -3915 0
4233 -5497 -3916 0
-4234 5491 4235 0
-4234 -5491 -4235 0
4234 -5491 4235 0
4234 5491 -4235 0
-4235 3919 3920 0
-4235 5447 5498 0
-4235 5447 3920 0
-4235 5498 3919 0
4235 -5447 -3919 0
4235 -5498 -3920 0
-4236 4187 4237 0
-4236 -4187 -4237 0
4236 -4187 4237 0
4236 4187 -4237 0
-4237 4183 4185 0
-4237 -4183 -4185 0
4237 -4183 4185 0
4237 4183 -4185 0
-4238 4194 4239 0
-4238 -4194 -4239 0
4238 -4194 4239 0
4238 4194 -4239 0
-4239 4190 4192 0
-4239 -4190 -4192 0
4239 -4190 4192 0
4239 4190 -4192 0
-4240 4196 4241 0
-4240 -4196 -4241 0
4240 -4196 4241 0
4240 4196 -4241 0
-4241 4182 4189 0
-4241 -4182 -4189 0
4241 -4182 4189 0
4241 4182 -4189 0
-4242 4204 4243 0
-4242 -4204 -4243 0
4242 -4204 4243 0
4242 4204 -4243 0
-4243 -4181 -4198 0
-4243 4181 4198 0
4243 4181 -4198 0
4243 -4181 4198 0
-4244 4206 4245 0
-4244 -4206 -4245 0
4244 -4206 4245 0
4244 4206 -4245 0
-4245 4178 4180 0
-4245 -4178 -4180 0
4245 -4178 4180 0
4245 4178 -4180 0
4246 -4247 -4271 0
-4246 4247 0
-4246 4271 0
-4247 4248 4249 0
-4247 4249 4269 0
-4247 4248 4269 0
4247 -4248 -4269 0
4247 -4249 -4269 0
4247 -4248 -4249 0
-4248 4199 4201 0
-4248 -4199 -4201 0
4248 -4199 4201 0
4248 4199 -4201 0
-4249 4250 4267 0
-4249 4250 4262 0
-4249 4262 4267 0
4249 -4262 -4267 0
4249 -4250 -4267 0
4249 -4250 -4262 0
-4250 4251 4255 0
-4250 4251 4253 0
-4250 4253 4255 0
4250 -4253 -4255 0
4250 -4251 -4255 0
4250 -4251 -4253 0
-4251 5510 4252 0
-4251 -5510 -4252 0
4251 -5510 4252 0
4251 5510 -4252 0
-4252 3925 3926 0
-4252 5499 5500 0
-4252 5499 3926 0
-4252 5500 3925 0
4252 -5499 -3925 0
4252 -5500 -3926 0
4253 -5510 4254 0
-4253 5510 0
-4253 -4254 0
4254 -5500 -3925 0
-4254 5500 0
-4254 3925 0
-4255 4256 4258 0
-4255 4258 4260 0
-4255 4256 4260 0
4255 -4256 -4260 0
4255 -4258 -4260 0
4255 -4256 -4258 0
-4256 5483 4257 0
-4256 -5483 -4257 0
4256 -5483 4257 0
4256 5483 -4257 0
-4257 1521 4143 0
-4257 5441 1521 0
4257 -1521 0
4257 -5441 -4143 0
-4258 5433 4259 0
-4258 -5433 -4259 0
4258 -5433 4259 0
4258 5433 -4259 0
-4259 5493 5495 0
-4259 4026 4065 0
-4259 5495 4065 0
-4259 5493 4026 0
4259 -5493 -4065 0
4259 -5495 -4026 0
-4260 5468 4261 0
-4260 -5468 -4261 0
4260 -5468 4261 0
4260 5468 -4261 0
-4261 3936 3937 0
-4261 5432 5496 0
-4261 5496 3937 0
-4261 5432 3936 0
4261 -5496 -3936 0
4261 -5432 -3937 0
4262 -4263 -4265 0
-4262 4263 0
-4262 4265 0
-4263 4226 4264 0
-4263 -4226 -4264 0
4263 -4226 4264 0
4263 4226 -4264 0
-4264 4222 4224 0
-4264 -4222 -4224 0
4264 -4222 4224 0
4264 4222 -4224 0
-4265 4234 4266 0
-4265 -4234 -4266 0
4265 -4234 4266 0
4265 4234 -4266 0
-4266 4230 4232 0
-4266 -4230 -4232 0
4266 -4230 4232 0
4266 4230 -4232 0
-4267 4221 4268 0
-4267 -4221 -4268 0
4267 -4221 4268 0
4267 4221 -4268 0
-4268 4160 4219 0
-4268 -4160 -4219 0
4268 -4160 4219 0
4268 4160 -4219 0
-4269 4240 4270 0
-4269 -4240 -4270 0
4269 -4240 4270 0
4269 4240 -4270 0
-4270 4218 4228 0
-4270 -4218 -4228 0
4270 -4218 4228 0
4270 4218 -4228 0
-4271 4242 4272 0
-4271 -4242 -4272 0
4271 -4242 4272 0
4271 4242 -4272 0
-4272 4216 4217 0
-4272 -4216 -4217 0
4272 -4216 4217 0
4272 4216 -4217 0
4273 -4211 -4274 0
-4273 4211 0
-4273 4274 0
4274 -4275 -4276 0
-4274 4275 0
-4274 4276 0
-4275 4215 4244 0
-4275 -4215 -4244 0
4275 -4215 4244 0
4275 4215 -4244 0
-4276 4247 4271 0
-4276 -4247 -4271 0
4276 -4247 4271 0
4276 4247 -4271 0
-4277 4278 4377 0
-4277 4377 4451 0
-4277 4377 4455 0
4277 -4377 0
4277 -4278 -4451 -4455 0
4278 -4279 -4330 0
-4278 4279 0
-4278 4330 0
4279 -4280 -4308 0
-4279 4280 0
-4279 4308 0
-4280 4281 4306 0
-4280 -4281 -4306 0
4280 -4281 4306 0
4280 4281 -4306 0
-4281 4282 4284 0
-4281 4284 4304 0
-4281 4282 4304 0
4281 -4282 -4304 0
4281 -4284 -4304 0
4281 -4282 -4284 0
-4282 4238 4283 0
-4282 -4238 -4283 0
4282 -4238 4283 0
4282 4238 -4283 0
-4283 4229 4236 0
-4283 -4229 -4236 0
4283 -4229 4236 0
4283 4229 -4236 0
-4284 4285 4292 0
-4284 4292 4302 0
-4284 4285 4302 0
4284 -4285 -4302 0
4284 -4292 -4302 0
4284 -4285 -4292 0
-4285 4286 4288 0
-4285 4288 4290 0
-4285 4286 4290 0
4285 -4286 -4290 0
4285 -4288 -4290 0
4285 -4286 -4288 0
-4286 5485 4287 0
-4286 -5485 -4287 0
4286 -5485 4287 0
4286 5485 -4287 0
-4287 5438 5449 0
-4287 3912 3941 0
-4287 5449 3912 0
-4287 5438 3941 0
4287 -5438 -3912 0
4287 -5449 -3941 0
-4288 5479 4289 0
-4288 -5479 -4289 0
4288 -5479 4289 0
4288 5479 -4289 0
-4289 3915 3916 0
-4289 5447 5497 0
-4289 5497 3916 0
-4289 5447 3915 0
4289 -5497 -3915 0
4289 -5447 -3916 0
-4290 5491 4291 0
-4290 -5491 -4291 0
4290 -5491 4291 0
4290 5491 -4291 0
-4291 3919 3920 0
-4291 5498 5499 0
-4291 5498 3920 0
-4291 5499 3919 0
4291 -5498 -3919 0
4291 -5499 -3920 0
-4292 4254 4293 0
-4292 4293 4300 0
-4292 4254 4300 0
4292 -4293 -4300 0
4292 -4254 -4293 0
4292 -4254 -4300 0
-4293 4294 4296 0
-4293 4296 4298 0
-4293 4294 4298 0
4293 -4294 -4298 0
4293 -4296 -4298 0
4293 -4294 -4296 0
-4294 5483 4295 0
-4294 -5483 -4295 0
4294 -5483 4295 0
4294 5483 -4295 0
-4295 1585 4143 0
-4295 5493 1585 0
4295 -1585 0
4295 -5493 -4143 0
-4296 5433 4297 0
-4296 -5433 -4297 0
4296 -5433 4297 0
4296 5433 -4297 0
-4297 5495 5496 0
-4297 4026 4065 0
-4297 5496 4065 0
-4297 5495 4026 0
4297 -5495 -4065 0
4297 -5496 -4026 0
-4298 5468 4299 0
-4298 -5468 -4299 0
4298 -5468 4299 0
4298 5468 -4299 0
-4299 3936 3937 0
-4299 5432 5449 0
-4299 5432 3937 0
-4299 5449 3936 0
4299 -5432 -3936 0
4299 -5449 -3937 0
-4300 4260 4301 0
-4300 -4260 -4301 0
4300 -4260 4301 0
4300 4260 -4301 0
-4301 4256 4258 0
-4301 -4256 -4258 0
4301 -4256 4258 0
4301 4256 -4258 0
-4302 4255 4303 0
-4302 -4255 -4303 0
4302 -4255 4303 0
4302 4255 -4303 0
-4303 -4251 -4253 0
-4303 4251 4253 0
4303 4251 -4253 0
4303 -4251 4253 0
-4304 4267 4305 0
-4304 -4267 -4305 0
4304 -4267 4305 0
4304 4267 -4305 0
-4305 -4250 -4262 0
-4305 4250 4262 0
4305 4250 -4262 0
4305 -4250 4262 0
-4306 4269 4307 0
-4306 -4269 -4307 0
4306 -4269 4307 0
4306 4269 -4307 0
-4307 4248 4249 0
-4307 -4248 -4249 0
4307 -4248 4249 0
4307 4248 -4249 0
-4308 4309 4328 0
-4308 -4309 -4328 0
4308 -4309 4328 0
4308 4309 -4328 0
-4309 4310 4311 0
-4309 4311 4326 0
-4309 4310 4326 0
4309 -4310 -4326 0
4309 -4311 -4326 0
4309 -4310 -4311 0
-4310 4263 4265 0
-4310 -4263 -4265 0
4310 -4263 4265 0
4310 4263 -4265 0
-4311 4312 4324 0
-4311 4312 4319 0
-4311 4319 4324 0
4311 -4319 -4324 0
4311 -4312 -4324 0
4311 -4312 -4319 0
-4312 4313 4315 0
-4312 4315 4317 0
-4312 4313 4317 0
4312 -4313 -4317 0
4312 -4315 -4317 0
4312 -4313 -4315 0
-4313 5485 4314 0
-4313 -5485 -4314 0
4313 -5485 4314 0
4313 5485 -4314 0
-4314 5438 5497 0
-4314 3912 3941 0
-4314 5497 3941 0
-4314 5438 3912 0
4314 -5438 -3941 0
4314 -5497 -3912 0
-4315 5479 4316 0
-4315 -5479 -4316 0
4315 -5479 4316 0
4315 5479 -4316 0
-4316 3915 3916 0
-4316 5447 5498 0
-4316 5447 3916 0
-4316 5498 3915 0
4316 -5447 -3915 0
4316 -5498 -3916 0
-4317 5491 4318 0
-4317 -5491 -4318 0
4317 -5491 4318 0
4317 5491 -4318 0
-4318 3919 3920 0
-4318 5499 5500 0
-4318 5499 3920 0
-4318 5500 3919 0
4318 -5499 -3919 0
4318 -5500 -3920 0
4319 -4320 -4322 0
-4319 4320 0
-4319 4322 0
4320 -5491 4321 0
-4320 5491 0
-4320 -4321 0
4321 -5500 -3919 0
-4321 5500 0
-4321 3919 0
-4322 4298 4323 0
-4322 -4298 -4323 0
4322 -4298 4323 0
4322 4298 -4323 0
-4323 4294 4296 0
-4323 -4294 -4296 0
4323 -4294 4296 0
4323 4294 -4296 0
-4324 4290 4325 0
-4324 -4290 -4325 0
4324 -4290 4325 0
4324 4290 -4325 0
-4325 4286 4288 0
-4325 -4286 -4288 0
4325 -4286 4288 0
4325 4286 -4288 0
-4326 4302 4327 0
-4326 -4302 -4327 0
4326 -4302 4327 0
4326 4302 -4327 0
-4327 4285 4292 0
-4327 -4285 -4292 0
4327 -4285 4292 0
4327 4285 -4292 0
-4328 4304 4329 0
-4328 -4304 -4329 0
4328 -4304 4329 0
4328 4304 -4329 0
-4329 4282 4284 0
-4329 -4282 -4284 0
4329 -4282 4284 0
4329 4282 -4284 0
4330 -4331 -4354 0
-4330 4331 0
-4330 4354 0
-4331 4332 4352 0
-4331 -4332 -4352 0
4331 -4332 4352 0
4331 4332 -4352 0
-4332 4333 4335 0
-4332 4335 4350 0
-4332 4333 4350 0
4332 -4333 -4350 0
4332 -4335 -4350 0
4332 -4333 -4335 0
-4333 4300 4334 0
-4333 -4300 -4334 0
4333 -4300 4334 0
4333 4300 -4334 0
-4334 4254 4293 0
-4334 -4254 -4293 0
4334 -4254 4293 0
4334 4254 -4293 0
-4335 4336 4343 0
-4335 4343 4348 0
-4335 4336 4348 0
4335 -4336 -4348 0
4335 -4343 -4348 0
4335 -4336 -4343 0
-4336 4337 4339 0
-4336 4339 4341 0
-4336 4337 4341 0
4336 -4337 -4341 0
4336 -4339 -4341 0
4336 -4337 -4339 0
-4337 5483 4338 0
-4337 -5483 -4338 0
4337 -5483 4338 0
4337 5483 -4338 0
-4338 1644 4143 0
-4338 5495 1644 0
4338 -1644 0
4338 -5495 -4143 0
-4339 5433 4340 0
-4339 -5433 -4340 0
4339 -5433 4340 0
4339 5433 -4340 0
-4340 5432 5496 0
-4340 4026 4065 0
-4340 5496 4026 0
-4340 5432 4065 0
4340 -5432 -4026 0
4340 -5496 -4065 0
-4341 5468 4342 0
-4341 -5468 -4342 0
4341 -5468 4342 0
4341 5468 -4342 0
-4342 3936 3937 0
-4342 5438 5449 0
-4342 5449 3937 0
-4342 5438 3936 0
4342 -5449 -3936 0
4342 -5438 -3937 0
-4343 5500 4346 0
-4343 4344 4346 0
-4343 5500 4344 0
-4343 3919 4346 0
-4343 3919 4344 0
4343 -4344 -4346 0
4343 -5500 -3919 -4346 0
4343 -5500 -3919 -4344 0
-4344 5485 4345 0
-4344 -5485 -4345 0
4344 -5485 4345 0
4344 5485 -4345 0
-4345 5447 5497 0
-4345 3912 3941 0
-4345 5497 3912 0
-4345 5447 3941 0
4345 -5447 -3912 0
4345 -5497 -3941 0
-4346 5479 4347 0
-4346 -5479 -4347 0
4346 -5479 4347 0
4346 5479 -4347 0
-4347 3915 3916 0
-4347 5498 5499 0
-4347 5498 3916 0
-4347 5499 3915 0
4347 -5498 -3915 0
4347 -5499 -3916 0
-4348 4317 4349 0
-4348 -4317 -4349 0
4348 -4317 4349 0
4348 4317 -4349 0
-4349 4313 4315 0
-4349 -4313 -4315 0
4349 -4313 4315 0
4349 4313 -4315 0
-4350 4324 4351 0
-4350 -4324 -4351 0
4350 -4324 4351 0
4350 4324 -4351 0
-4351 -4312 -4319 0
-4351 4312 4319 0
4351 4312 -4319 0
4351 -4312 4319 0
-4352 4326 4353 0
-4352 -4326 -4353 0
4352 -4326 4353 0
4352 4326 -4353 0
-4353 4310 4311 0
-4353 -4310 -4311 0
4353 -4310 4311 0
4353 4310 -4311 0
-4354 4355 4375 0
-4354 -4355 -4375 0
4354 -4355 4375 0
4354 4355 -4375 0
-4355 4356 4357 0
-4355 4357 4373 0
-4355 4356 4373 0
4355 -4356 -4373 0
4355 -4357 -4373 0
4355 -4356 -4357 0
-4356 4320 4322 0
-4356 -4320 -4322 0
4356 -4320 4322 0
4356 4320 -4322 0
-4357 4358 4365 0
-4357 4365 4371 0
-4357 4358 4371 0
4357 -4358 -4371 0
4357 -4365 -4371 0
4357 -4358 -4365 0
-4358 4359 4361 0
-4358 4361 4363 0
-4358 4359 4363 0
4358 -4359 -4363 0
4358 -4361 -4363 0
4358 -4359 -4361 0
-4359 5483 4360 0
-4359 -5483 -4360 0
4359 -5483 4360 0
4359 5483 -4360 0
-4360 1705 4143 0
-4360 5496 1705 0
4360 -1705 0
4360 -5496 -4143 0
-4361 5433 4362 0
-4361 -5433 -4362 0
4361 -5433 4362 0
4361 5433 -4362 0
-4362 5432 5449 0
-4362 4026 4065 0
-4362 5449 4065 0
-4362 5432 4026 0
4362 -5432 -4065 0
4362 -5449 -4026 0
-4363 5468 4364 0
-4363 -5468 -4364 0
4363 -5468 4364 0
4363 5468 -4364 0
-4364 3936 3937 0
-4364 5438 5497 0
-4364 5438 3937 0
-4364 5497 3936 0
4364 -5438 -3936 0
4364 -5497 -3937 0
-4365 5479 4366 0
-4365 4366 4368 0
-4365 5479 4368 0
-4365 4368 -4370 0
-4365 4366 -4370 0
4365 -4366 -4368 0
4365 -5479 -4366 4370 0
4365 -5479 -4368 4370 0
-4366 5485 4367 0
-4366 -5485 -4367 0
4366 -5485 4367 0
4366 5485 -4367 0
-4367 5447 5498 0
-4367 3912 3941 0
-4367 5498 3941 0
-4367 5447 3912 0
4367 -5447 -3941 0
4367 -5498 -3912 0
-4368 5479 4369 0
-4368 -5479 -4369 0
4368 -5479 4369 0
4368 5479 -4369 0
-4369 3915 3916 0
-4369 5499 5500 0
-4369 5499 3916 0
-4369 5500 3915 0
4369 -5499 -3915 0
4369 -5500 -3916 0
4370 -5500 -3915 0
-4370 5500 0
-4370 3915 0
-4371 4341 4372 0
-4371 -4341 -4372 0
4371 -4341 4372 0
4371 4341 -4372 0
-4372 4337 4339 0
-4372 -4337 -4339 0
4372 -4337 4339 0
4372 4337 -4339 0
-4373 4348 4374 0
-4373 -4348 -4374 0
4373 -4348 4374 0
4373 4348 -4374 0
-4374 4336 4343 0
-4374 -4336 -4343 0
4374 -4336 4343 0
4374 4336 -4343 0
-4375 4350 4376 0
-4375 -4350 -4376 0
4375 -4350 4376 0
4375 4350 -4376 0
-4376 4333 4335 0
-4376 -4333 -4335 0
4376 -4333 4335 0
4376 4333 -4335 0
-4377 4378 4380 4278 0
-4377 4378 4380 4383 0
4377 -4378 0
4377 -4380 0
4377 -4278 -4383 0
-4378 4281 4280 0
-4378 4306 4379 0
-4378 4281 4379 0
-4378 4306 4280 0
4378 -4281 -4306 0
4378 -4379 -4280 0
4379 -4309 -4328 0
-4379 4309 0
-4379 4328 0
4380 -4279 -4381 0
-4380 4279 0
-4380 4381 0
-4381 4332 4352 0
-4381 4352 4382 0
-4381 4332 4382 0
4381 -4352 -4382 0
4381 -4332 -4352 0
4381 -4332 -4382 0
4382 -4355 -4375 0
-4382 4355 0
-4382 4375 0
-4383 4384 4402 4420 0
-4383 4384 4404 4420 0
-4383 4402 4404 4420 0
4383 -4402 -4404 0
4383 -4384 -4402 0
4383 -4420 0
4383 -4384 -4404 0
-4384 4385 4387 0
-4384 4387 4400 0
-4384 4385 4400 0
4384 -4385 -4400 0
4384 -4387 -4400 0
4384 -4385 -4387 0
-4385 4321 4386 0
-4385 -4321 -4386 0
4385 -4321 4386 0
4385 4321 -4386 0
-4386 4344 4346 0
-4386 -4344 -4346 0
4386 -4344 4346 0
4386 4344 -4346 0
-4387 4388 4395 0
-4387 4395 4397 0
-4387 4388 4397 0
4387 -4388 -4397 0
4387 -4395 -4397 0
4387 -4388 -4395 0
-4388 4389 4391 0
-4388 4391 4393 0
-4388 4389 4393 0
4388 -4389 -4393 0
4388 -4391 -4393 0
4388 -4389 -4391 0
-4389 5483 4390 0
-4389 -5483 -4390 0
4389 -5483 4390 0
4389 5483 -4390 0
-4390 1754 4143 0
-4390 5432 1754 0
4390 -1754 0
4390 -5432 -4143 0
-4391 5433 4392 0
-4391 -5433 -4392 0
4391 -5433 4392 0
4391 5433 -4392 0
-4392 5438 5449 0
-4392 4026 4065 0
-4392 5449 4026 0
-4392 5438 4065 0
4392 -5438 -4026 0
4392 -5449 -4065 0
-4393 5468 4394 0
-4393 -5468 -4394 0
4393 -5468 4394 0
4393 5468 -4394 0
-4394 3936 3937 0
-4394 5447 5497 0
-4394 5497 3937 0
-4394 5447 3936 0
4394 -5497 -3936 0
4394 -5447 -3937 0
-4395 4363 4396 0
-4395 -4363 -4396 0
4395 -4363 4396 0
4395 4363 -4396 0
-4396 4359 4361 0
-4396 -4359 -4361 0
4396 -4359 4361 0
4396 4359 -4361 0
-4397 4398 4399 0
-4397 -4398 -4399 0
4397 -4398 4399 0
4397 4398 -4399 0
4398 -5479 4370 0
-4398 5479 0
-4398 -4370 0
-4399 4366 4368 0
-4399 -4366 -4368 0
4399 -4366 4368 0
4399 4366 -4368 0
-4400 4371 4401 0
-4400 -4371 -4401 0
4400 -4371 4401 0
4400 4371 -4401 0
-4401 4358 4365 0
-4401 -4358 -4365 0
4401 -4358 4365 0
4401 4358 -4365 0
-4402 4373 4403 0
-4402 -4373 -4403 0
4402 -4373 4403 0
4402 4373 -4403 0
-4403 4356 4357 0
-4403 -4356 -4357 0
4403 -4356 4357 0
4403 4356 -4357 0
4404 -4405 -4418 0
-4404 4405 0
-4404 4418 0
4405 -4406 -4416 0
-4405 4406 0
-4405 4416 0
-4406 4370 4407 0
-4406 4407 4409 0
-4406 4370 4409 0
4406 -4407 -4409 0
4406 -4370 -4407 0
4406 -4370 -4409 0
-4407 5485 4408 0
-4407 -5485 -4408 0
4407 -5485 4408 0
4407 5485 -4408 0
-4408 5498 5499 0
-4408 3912 3941 0
-4408 5499 3941 0
-4408 5498 3912 0
4408 -5498 -3941 0
4408 -5499 -3912 0
-4409 4410 4412 0
-4409 4412 4414 0
-4409 4410 4414 0
4409 -4410 -4414 0
4409 -4412 -4414 0
4409 -4410 -4412 0
-4410 5483 4411 0
-4410 -5483 -4411 0
4410 -5483 4411 0
4410 5483 -4411 0
-4411 1803 4143 0
-4411 5449 1803 0
4411 -1803 0
4411 -5449 -4143 0
-4412 5433 4413 0
-4412 -5433 -4413 0
4412 -5433 4413 0
4412 5433 -4413 0
-4413 5438 5497 0
-4413 4026 4065 0
-4413 5497 4065 0
-4413 5438 4026 0
4413 -5438 -4065 0
4413 -5497 -4026 0
-4414 5468 4415 0
-4414 -5468 -4415 0
4414 -5468 4415 0
4414 5468 -4415 0
-4415 3936 3937 0
-4415 5447 5498 0
-4415 5447 3937 0
-4415 5498 3936 0
4415 -5447 -3936 0
4415 -5498 -3937 0
-4416 4397 4417 0
-4416 -4397 -4417 0
4416 -4397 4417 0
4416 4397 -4417 0
-4417 4388 4395 0
-4417 -4388 -4395 0
4417 -4388 4395 0
4417 4388 -4395 0
-4418 4400 4419 0
-4418 -4400 -4419 0
4418 -4400 4419 0
4418 4400 -4419 0
-4419 4385 4387 0
-4419 -4385 -4387 0
4419 -4385 4387 0
4419 4385 -4387 0
4420 -4421 -4424 0
-4420 4421 0
-4420 4424 0
4421 -4422 -4423 0
-4421 4422 0
-4421 4423 0
-4422 4384 4402 0
-4422 -4384 -4402 0
4422 -4384 4402 0
4422 4384 -4402 0
-4423 4405 4418 0
-4423 -4405 -4418 0
4423 -4405 4418 0
4423 4405 -4418 0
-4424 4425 4437 0
-4424 4437 4438 0
-4424 4425 4438 0
4424 -4437 -4438 0
4424 -4425 -4437 0
4424 -4425 -4438 0
-4425 4426 4428 0
-4425 4428 4435 0
-4425 4426 4435 0
4425 -4426 -4435 0
4425 -4428 -4435 0
4425 -4426 -4428 0
-4426 4393 4427 0
-4426 -4393 -4427 0
4426 -4393 4427 0
4426 4393 -4427 0
-4427 4389 4391 0
-4427 -4389 -4391 0
4427 -4389 4391 0
4427 4389 -4391 0
-4428 4429 4433 0
-4428 4429 4431 0
-4428 4431 4433 0
4428 -4431 -4433 0
4428 -4429 -4433 0
4428 -4429 -4431 0
-4429 5485 4430 0
-4429 -5485 -4430 0
4429 -5485 4430 0
4429 5485 -4430 0
-4430 5499 5500 0
-4430 3912 3941 0
-4430 5500 3941 0
-4430 5499 3912 0
4430 -5499 -3941 0
4430 -5500 -3912 0
4431 -5485 4432 0
-4431 5485 0
-4431 -4432 0
4432 -5500 -3941 0
-4432 5500 0
-4432 3941 0
-4433 4414 4434 0
-4433 -4414 -4434 0
4433 -4414 4434 0
4433 4414 -4434 0
-4434 4410 4412 0
-4434 -4410 -4412 0
4434 -4410 4412 0
4434 4410 -4412 0
-4435 4409 4436 0
-4435 -4409 -4436 0
4435 -4409 4436 0
4435 4409 -4436 0
-4436 4370 4407 0
-4436 -4370 -4407 0
4436 -4370 4407 0
4436 4370 -4407 0
-4437 4406 4416 0
-4437 -4406 -4416 0
4437 -4406 4416 0
4437 4406 -4416 0
4438 -4439 -4449 0
-4438 4439 0
-4438 4449 0
4439 -4440 -4447 0
-4439 4440 0
-4439 4447 0
-4440 4441 4443 0
-4440 4443 4445 0
-4440 4441 4445 0
4440 -4441 -4445 0
4440 -4443 -4445 0
4440 -4441 -4443 0
-4441 5483 4442 0
-4441 -5483 -4442 0
4441 -5483 4442 0
4441 5483 -4442 0
-4442 1848 4143 0
-4442 5438 1848 0
4442 -1848 0
4442 -5438 -4143 0
-4443 5433 4444 0
-4443 -5433 -4444 0
4443 -5433 4444 0
4443 5433 -4444 0
-4444 5447 5497 0
-4444 4026 4065 0
-4444 5497 4026 0
-4444 5447 4065 0
4444 -5447 -4026 0
4444 -5497 -4065 0
-4445 5468 4446 0
-4445 -5468 -4446 0
4445 -5468 4446 0
4445 5468 -4446 0
-4446 3936 3937 0
-4446 5498 5499 0
-4446 5498 3937 0
-4446 5499 3936 0
4446 -5498 -3936 0
4446 -5499 -3937 0
-4447 4433 4448 0
-4447 -4433 -4448 0
4447 -4433 4448 0
4447 4433 -4448 0
-4448 -4429 -4431 0
-4448 4429 4431 0
4448 4429 -4431 0
4448 -4429 4431 0
-4449 4435 4450 0
-4449 -4435 -4450 0
4449 -4435 4450 0
4449 4435 -4450 0
-4450 4426 4428 0
-4450 -4426 -4428 0
4450 -4426 4428 0
4450 4426 -4428 0
4451 -4421 -4452 0
-4451 4421 0
-4451 4452 0
4452 -4453 -4454 0
-4452 4453 0
-4452 4454 0
-4453 4425 4437 0
-4453 -4425 -4437 0
4453 -4425 4437 0
4453 4425 -4437 0
-4454 4439 4449 0
-4454 -4439 -4449 0
4454 -4439 4449 0
4454 4439 -4449 0
-4455 4456 4477 0
-4455 4477 4498 0
-4455 4477 4500 0
4455 -4477 0
4455 -4456 -4498 -4500 0
4456 -4457 -4469 0
-4456 4457 0
-4456 4469 0
-4457 4458 4468 0
-4457 -4458 -4468 0
4457 -4458 4468 0
4457 4458 -4468 0
-4458 4432 4459 0
-4458 4459 4466 0
-4458 4432 4466 0
4458 -4459 -4466 0
4458 -4432 -4459 0
4458 -4432 -4466 0
-4459 4460 4462 0
-4459 4462 4464 0
-4459 4460 4464 0
4459 -4460 -4464 0
4459 -4462 -4464 0
4459 -4460 -4462 0
-4460 5483 4461 0
-4460 -5483 -4461 0
4460 -5483 4461 0
4460 5483 -4461 0
-4461 1890 4143 0
-4461 5497 1890 0
4461 -1890 0
4461 -5497 -4143 0
-4462 5433 4463 0
-4462 -5433 -4463 0
4462 -5433 4463 0
4462 5433 -4463 0
-4463 5447 5498 0
-4463 4026 4065 0
-4463 5498 4065 0
-4463 5447 4026 0
4463 -5447 -4065 0
4463 -5498 -4026 0
-4464 5468 4465 0
-4464 -5468 -4465 0
4464 -5468 4465 0
4464 5468 -4465 0
-4465 3936 3937 0
-4465 5499 5500 0
-4465 5499 3937 0
-4465 5500 3936 0
4465 -5499 -3936 0
4465 -5500 -3937 0
-4466 4445 4467 0
-4466 -4445 -4467 0
4466 -4445 4467 0
4466 4445 -4467 0
-4467 4441 4443 0
-4467 -4441 -4443 0
4467 -4441 4443 0
4467 4441 -4443 0
-4468 4440 4447 0
-4468 -4440 -4447 0
4468 -4440 4447 0
4468 4440 -4447 0
-4469 4470 4475 0
-4469 -4470 -4475 0
4469 -4470 4475 0
4469 4470 -4475 0
4470 -4471 -4473 0
-4470 4471 0
-4470 4473 0
4471 -5468 4472 0
-4471 5468 0
-4471 -4472 0
4472 -5500 -3936 0
-4472 5500 0
-4472 3936 0
-4473 4464 4474 0
-4473 -4464 -4474 0
4473 -4464 4474 0
4473 4464 -4474 0
-4474 4460 4462 0
-4474 -4460 -4462 0
4474 -4460 4462 0
4474 4460 -4462 0
-4475 4466 4476 0
-4475 -4466 -4476 0
4475 -4466 4476 0
4475 4466 -4476 0
-4476 4432 4459 0
-4476 -4432 -4459 0
4476 -4432 4459 0
4476 4432 -4459 0
-4477 4458 4468 4479 0
-4477 4458 4478 4479 0
-4477 4468 4478 4479 0
4477 -4468 -4478 0
4477 -4458 -4468 0
4477 -4479 0
4477 -4458 -4478 0
4478 -4470 -4475 0
-4478 4470 0
-4478 4475 0
4479 -4456 -4480 0
-4479 4456 0
-4479 4480 0
-4480 4481 4497 0
-4480 4486 4487 0
-4480 4481 4487 0
-4480 4486 4497 0
4480 -4481 -4486 0
4480 -4487 -4497 0
-4481 4472 4482 0
-4481 4482 4484 0
-4481 4472 4484 0
4481 -4482 -4484 0
4481 -4472 -4482 0
4481 -4472 -4484 0
-4482 5483 4483 0
-4482 -5483 -4483 0
4482 -5483 4483 0
4482 5483 -4483 0
-4483 1923 4143 0
-4483 5447 1923 0
4483 -1923 0
4483 -5447 -4143 0
-4484 5433 4485 0
-4484 -5433 -4485 0
4484 -5433 4485 0
4484 5433 -4485 0
-4485 5498 5499 0
-4485 4026 4065 0
-4485 5499 4065 0
-4485 5498 4026 0
4485 -5498 -4065 0
4485 -5499 -4026 0
-4486 4471 4473 0
-4486 -4471 -4473 0
4486 -4471 4473 0
4486 4471 -4473 0
4487 -4488 -4495 0
-4487 4488 0
-4487 4495 0
-4488 4489 4491 0
-4488 4491 4493 0
-4488 4489 4493 0
4488 -4491 -4493 0
4488 -4489 -4491 0
4488 -4489 -4493 0
-4489 5483 4490 0
-4489 -5483 -4490 0
4489 -5483 4490 0
4489 5483 -4490 0
-4490 1962 4143 0
-4490 5498 1962 0
4490 -1962 0
4490 -5498 -4143 0
-4491 5433 4492 0
-4491 -5433 -4492 0
4491 -5433 4492 0
4491 5433 -4492 0
-4492 5499 5500 0
-4492 4026 4065 0
-4492 5500 4065 0
-4492 5499 4026 0
4492 -5499 -4065 0
4492 -5500 -4026 0
4493 -5433 4494 0
-4493 5433 0
-4493 -4494 0
4494 -5500 -4065 0
-4494 5500 0
-4494 4065 0
-4495 4472 4496 0
-4495 -4472 -4496 0
4495 -4472 4496 0
4495 4472 -4496 0
-4496 4482 4484 0
-4496 -4482 -4484 0
4496 -4482 4484 0
4496 4482 -4484 0
-4497 4481 4486 0
-4497 -4481 -4486 0
4497 -4481 4486 0
4497 4481 -4486 0
4498 -4497 -4499 0
-4498 4497 0
-4498 4499 0
-4499 4488 4495 0
-4499 -4488 -4495 0
4499 -4488 4495 0
4499 4488 -4495 0
-4500 4504 0
-4500 4501 4507 0
-4500 4501 4506 0
4500 -4501 -4504 0
4500 -4504 -4506 -4507 0
4501 -4494 -4502 0
-4501 4494 0
-4501 4502 0
-4502 5483 4503 0
-4502 -5483 -4503 0
4502 -5483 4503 0
4502 5483 -4503 0
-4503 1990 4143 0
-4503 5499 1990 0
4503 -1990 0
4503 -5499 -4143 0
-4504 4493 4505 0
-4504 -4493 -4505 0
4504 -4493 4505 0
4504 4493 -4505 0
-4505 4489 4491 0
-4505 -4489 -4491 0
4505 -4489 4491 0
4505 4489 -4491 0
4506 -5483 5500 2014 0
-4506 5483 0
-4506 -2014 0
-4506 -5500 0
-4507 4494 4502 0
-4507 -4494 -4502 0
4507 -4494 4502 0
4507 4494 -4502 0
-4508 -4509 -4620 0
-4508 4509 4620 0
4508 4509 -4620 0
4508 -4509 4620 0
4509 4510 -4597 0
4509 -4510 4597 0
-4509 -4510 -4597 0
-4509 4510 4597 0
-4510 4511 4535 0
-4510 4535 -4576 0
-4510 4511 -4576 0
4510 -4511 4576 0
4510 -4535 4576 0
4510 -4511 -4535 0
-4511 4512 4525 0
-4511 -4512 -4525 0
4511 -4512 4525 0
4511 4512 -4525 0
-4512 4513 4521 0
-4512 -4513 -4521 0
4512 -4513 4521 0
4512 4513 -4521 0
-4513 4514 4517 0
-4513 -4514 -4517 0
4513 -4514 4517 0
4513 4514 -4517 0
-4514 -5466 -4515 0
-4514 5466 4515 0
4514 5466 -4515 0
4514 -5466 4515 0
4515 -5460 -4516 0
-4515 5460 0
-4515 4516 0
-4516 -5464 -5466 0
-4516 5465 5466 0
-4516 5464 -5465 0
4516 -5464 -5465 5466 0
4516 5464 5465 -5466 0
-4517 5461 4518 0
-4517 -5461 -4518 0
4517 -5461 4518 0
4517 5461 -4518 0
-4518 4519 4520 0
-4518 5457 5459 0
-4518 5459 4520 0
-4518 5457 4519 0
4518 -5459 -4519 0
4518 -5457 -4520 0
4519 5466 -5467 0
4519 -5466 5467 0
-4519 -5466 -5467 0
-4519 5466 5467 0
-4520 -5466 5467 0
-4520 -5461 -5467 0
-4520 5461 5466 0
4520 5461 -5466 -5467 0
4520 -5461 5466 5467 0
-4521 5456 4522 0
-4521 -5456 -4522 0
4521 -5456 4522 0
4521 5456 -4522 0
-4522 4523 4524 0
-4522 5455 5502 0
-4522 5502 4524 0
-4522 5455 4523 0
4522 -5502 -4523 0
4522 -5455 -4524 0
4523 5461 -5462 0
4523 -5461 5462 0
-4523 -5461 -5462 0
-4523 5461 5462 0
-4524 -5461 5462 0
-4524 -5456 -5462 0
-4524 5456 5461 0
4524 5456 -5461 -5462 0
4524 -5456 5461 5462 0
-4525 120 4526 0
-4525 -120 -4526 0
4525 -120 4526 0
4525 120 -4526 0
-4526 4527 4531 0
-4526 -4527 -4531 0
4526 -4527 4531 0
4526 4527 -4531 0
-4527 5451 4528 0
-4527 -5451 -4528 0
4527 -5451 4528 0
4527 5451 -4528 0
-4528 4529 4530 0
-4528 5448 5480 0
-4528 5480 4530 0
-4528 5448 4529 0
4528 -5480 -4529 0
4528 -5448 -4530 0
4529 5456 -5471 0
4529 -5456 5471 0
-4529 -5456 -5471 0
-4529 5456 5471 0
-4530 -5456 5471 0
-4530 -5451 -5471 0
-4530 5451 5456 0
4530 5451 -5456 -5471 0
4530 -5451 5456 5471 0
-4531 5474 4532 0
-4531 -5474 -4532 0
4531 -5474 4532 0
4531 5474 -4532 0
-4532 4533 4534 0
-4532 5452 5477 0
-4532 5452 4534 0
-4532 5477 4533 0
4532 -5452 -4533 0
4532 -5477 -4534 0
4533 5451 -5503 0
4533 -5451 5503 0
-4533 -5451 -5503 0
-4533 5451 5503 0
-4534 -5451 -5474 0
-4534 5474 5503 0
-4534 5451 -5503 0
4534 5451 -5474 5503 0
4534 -5451 5474 -5503 0
-4535 4536 4555 0
-4535 4555 4572 0
-4535 4536 4572 0
4535 -4536 -4572 0
4535 -4555 -4572 0
4535 -4536 -4555 0
-4536 -4537 4542 0
-4536 4542 4550 0
-4536 -4537 4550 0
4536 4537 -4550 0
4536 -4542 -4550 0
4536 4537 -4542 0
4537 -5453 -5454 0
4537 -5454 4538 0
4537 -5453 4538 0
-4537 5453 -4538 0
-4537 5454 -4538 0
-4537 5453 5454 0
-4538 5464 4539 0
-4538 -5464 -4539 0
4538 -5464 4539 0
4538 5464 -4539 0
-4539 4540 4541 0
-4539 5459 5460 0
-4539 5460 4541 0
-4539 5459 4540 0
4539 -5460 -4540 0
4539 -5459 -4541 0
4540 5453 -5463 0
4540 -5453 5463 0
-4540 -5453 -5463 0
-4540 5453 5463 0
-4541 -5453 -5464 0
-4541 5463 5464 0
-4541 5453 -5463 0
4541 -5453 -5463 5464 0
4541 5453 5463 -5464 0
-4542 4543 4546 0
-4542 4546 4548 0
-4542 4543 4548 0
4542 -4543 -4548 0
4542 -4546 -4548 0
4542 -4543 -4546 0
-4543 5466 4544 0
-4543 -5466 -4544 0
4543 -5466 4544 0
4543 5466 -4544 0
-4544 5457 5502 0
-4544 4516 4545 0
-4544 5502 4545 0
-4544 5457 4516 0
4544 -5457 -4545 0
4544 -5502 -4516 0
4545 5464 -5465 0
4545 -5464 5465 0
-4545 -5464 -5465 0
-4545 5464 5465 0
-4546 5461 4547 0
-4546 -5461 -4547 0
4546 -5461 4547 0
4546 5461 -4547 0
-4547 4519 4520 0
-4547 5455 5480 0
-4547 5455 4520 0
-4547 5480 4519 0
4547 -5455 -4519 0
4547 -5480 -4520 0
-4548 5456 4549 0
-4548 -5456 -4549 0
4548 -5456 4549 0
4548 5456 -4549 0
-4549 4523 4524 0
-4549 5448 5452 0
-4549 5448 4524 0
-4549 5452 4523 0
4549 -5448 -4523 0
4549 -5452 -4524 0
-4550 281 4551 0
-4550 4551 4553 0
-4550 281 4553 0
4550 -4551 -4553 0
4550 -281 -4551 0
4550 -281 -4553 0
-4551 5451 4552 0
-4551 -5451 -4552 0
4551 -5451 4552 0
4551 5451 -4552 0
-4552 4529 4530 0
-4552 5469 5477 0
-4552 5477 4530 0
-4552 5469 4529 0
4552 -5477 -4529 0
4552 -5469 -4530 0
-4553 5474 4554 0
-4553 -5474 -4554 0
4553 -5474 4554 0
4553 5474 -4554 0
-4554 4533 4534 0
-4554 5472 5475 0
-4554 5475 4534 0
-4554 5472 4533 0
4554 -5475 -4533 0
4554 -5472 -4534 0
-4555 -219 4556 0
-4555 4556 4564 0
-4555 -219 4564 0
4555 219 -4564 0
4555 -4556 -4564 0
4555 219 -4556 0
-4556 4557 4562 0
-4556 -4557 -4562 0
4556 -4557 4562 0
4556 4557 -4562 0
-4557 4558 4560 0
-4557 -4558 -4560 0
4557 -4558 4560 0
4557 4558 -4560 0
-4558 -5464 -4559 0
-4558 5464 4559 0
4558 5464 -4559 0
4558 -5464 4559 0
4559 -5460 -4541 0
-4559 5460 0
-4559 4541 0
-4560 5466 4561 0
-4560 -5466 -4561 0
4560 -5466 4561 0
4560 5466 -4561 0
-4561 5457 5459 0
-4561 4516 4545 0
-4561 5459 4516 0
-4561 5457 4545 0
4561 -5457 -4516 0
4561 -5459 -4545 0
-4562 5461 4563 0
-4562 -5461 -4563 0
4562 -5461 4563 0
4562 5461 -4563 0
-4563 4519 4520 0
-4563 5455 5502 0
-4563 5502 4520 0
-4563 5455 4519 0
4563 -5502 -4519 0
4563 -5455 -4520 0
-4564 4565 4570 0
-4564 -4565 -4570 0
4564 -4565 4570 0
4564 4565 -4570 0
-4565 4566 4568 0
-4565 -4566 -4568 0
4565 -4566 4568 0
4565 4566 -4568 0
-4566 5456 4567 0
-4566 -5456 -4567 0
4566 -5456 4567 0
4566 5456 -4567 0
-4567 4523 4524 0
-4567 5448 5480 0
-4567 5480 4524 0
-4567 5448 4523 0
4567 -5480 -4523 0
4567 -5448 -4524 0
-4568 5451 4569 0
-4568 -5451 -4569 0
4568 -5451 4569 0
4568 5451 -4569 0
-4569 4529 4530 0
-4569 5452 5477 0
-4569 5452 4530 0
-4569 5477 4529 0
4569 -5452 -4529 0
4569 -5477 -4530 0
-4570 5474 4571 0
-4570 -5474 -4571 0
4570 -5474 4571 0
4570 5474 -4571 0
-4571 4533 4534 0
-4571 5469 5475 0
-4571 5469 4534 0
-4571 5475 4533 0
4571 -5469 -4533 0
4571 -5475 -4534 0
-4572 4573 4575 0
-4572 -4573 -4575 0
4572 -4573 4575 0
4572 4573 -4575 0
-4573 164 4574 0
-4573 -164 -4574 0
4573 -164 4574 0
4573 164 -4574 0
-4574 4558 4560 0
-4574 4560 4562 0
-4574 4558 4562 0
4574 -4558 -4562 0
4574 -4560 -4562 0
4574 -4558 -4560 0
-4575 4566 4568 0
-4575 4568 4570 0
-4575 4566 4570 0
4575 -4566 -4570 0
4575 -4568 -4570 0
4575 -4566 -4568 0
4576 4577 -4594 0
4576 -4577 4594 0
-4576 -4577 -4594 0
-4576 4577 4594 0
-4577 4578 4579 0
-4577 -4578 -4579 0
4577 -4578 4579 0
4577 4578 -4579 0
-4578 164 4574 0
-4578 4574 4575 0
-4578 164 4575 0
4578 -4574 -4575 0
4578 -164 -4574 0
4578 -164 -4575 0
-4579 219 -4580 0
-4579 -4580 4586 0
-4579 219 4586 0
4579 4580 -4586 0
4579 -219 4580 0
4579 -219 -4586 0
4580 -4581 4584 0
4580 4581 -4584 0
-4580 4581 4584 0
-4580 -4581 -4584 0
4581 -5464 4582 0
4581 5464 -4582 0
-4581 5464 4582 0
-4581 -5464 -4582 0
-4582 5466 4583 0
-4582 -5466 -4583 0
4582 -5466 4583 0
4582 5466 -4583 0
-4583 5459 5460 0
-4583 4516 4545 0
-4583 5460 4516 0
-4583 5459 4545 0
4583 -5459 -4516 0
4583 -5460 -4545 0
-4584 5461 4585 0
-4584 -5461 -4585 0
4584 -5461 4585 0
4584 5461 -4585 0
-4585 4519 4520 0
-4585 5457 5502 0
-4585 5457 4520 0
-4585 5502 4519 0
4585 -5457 -4519 0
4585 -5502 -4520 0
-4586 4587 4592 0
-4586 -4587 -4592 0
4586 -4587 4592 0
4586 4587 -4592 0
-4587 4588 4590 0
-4587 -4588 -4590 0
4587 -4588 4590 0
4587 4588 -4590 0
-4588 5456 4589 0
-4588 -5456 -4589 0
4588 -5456 4589 0
4588 5456 -4589 0
-4589 4523 4524 0
-4589 5455 5480 0
-4589 5455 4524 0
-4589 5480 4523 0
4589 -5455 -4523 0
4589 -5480 -4524 0
-4590 5451 4591 0
-4590 -5451 -4591 0
4590 -5451 4591 0
4590 5451 -4591 0
-4591 4529 4530 0
-4591 5448 5452 0
-4591 5448 4530 0
-4591 5452 4529 0
4591 -5448 -4529 0
4591 -5452 -4530 0
-4592 5474 4593 0
-4592 -5474 -4593 0
4592 -5474 4593 0
4592 5474 -4593 0
-4593 4533 4534 0
-4593 5469 5477 0
-4593 5477 4534 0
-4593 5469 4533 0
4593 -5477 -4533 0
4593 -5469 -4534 0
4594 -4595 4596 0
4594 4595 -4596 0
-4594 4595 4596 0
-4594 -4595 -4596 0
-4595 -5464 4582 0
-4595 4582 4584 0
-4595 -5464 4584 0
4595 5464 -4584 0
4595 -4582 -4584 0
4595 5464 -4582 0
-4596 4588 4590 0
-4596 4590 4592 0
-4596 4588 4592 0
4596 -4588 -4592 0
4596 -4590 -4592 0
4596 -4588 -4590 0
4597 -4598 4610 0
4597 4598 -4610 0
-4597 4598 4610 0
-4597 -4598 -4610 0
4598 -4599 4609 0
4598 4599 -4609 0
-4598 4599 4609 0
-4598 -4599 -4609 0
4599 4600 -4603 0
4599 -4600 4603 0
-4599 -4600 -4603 0
-4599 4600 4603 0
-4600 4601 4602 0
-4600 -4601 -4602 0
4600 -4601 4602 0
4600 4601 -4602 0
-4601 4514 4517 0
-4601 4517 4521 0
-4601 4514 4521 0
4601 -4514 -4521 0
4601 -4517 -4521 0
4601 -4514 -4517 0
-4602 120 4527 0
-4602 4527 4531 0
-4602 120 4531 0
4602 -4527 -4531 0
4602 -120 -4527 0
4602 -120 -4531 0
4603 -4604 4607 0
4603 4604 -4607 0
-4603 4604 4607 0
-4603 -4604 -4607 0
4604 -5466 4605 0
4604 5466 -4605 0
-4604 5466 4605 0
-4604 -5466 -4605 0
-4605 5461 4606 0
-4605 -5461 -4606 0
4605 -5461 4606 0
4605 5461 -4606 0
-4606 4519 4520 0
-4606 5459 5460 0
-4606 5460 4520 0
-4606 5459 4519 0
4606 -5460 -4519 0
4606 -5459 -4520 0
-4607 5456 4608 0
-4607 -5456 -4608 0
4607 -5456 4608 0
4607 5456 -4608 0
-4608 4523 4524 0
-4608 5457 5502 0
-4608 5457 4524 0
-4608 5502 4523 0
4608 -5457 -4523 0
4608 -5502 -4524 0
-4609 4578 4579 0
-4609 4579 -4594 0
-4609 4578 -4594 0
4609 -4578 4594 0
4609 -4579 4594 0
4609 -4578 -4579 0
-4610 4611 4614 0
-4610 -4611 -4614 0
4610 -4611 4614 0
4610 4611 -4614 0
-4611 -4612 -4613 0
-4611 4612 4613 0
4611 4612 -4613 0
4611 -4612 4613 0
-4612 4595 4596 0
4612 -4595 0
4612 -4596 0
4613 -4512 -4525 0
-4613 4512 0
-4613 4525 0
-4614 84 4615 0
-4614 -84 -4615 0
4614 -84 4615 0
4614 84 -4615 0
-4615 4616 4618 0
-4615 -4616 -4618 0
4615 -4616 4618 0
4615 4616 -4618 0
-4616 5451 4617 0
-4616 -5451 -4617 0
4616 -5451 4617 0
4616 5451 -4617 0
-4617 4529 4530 0
-4617 5455 5480 0
-4617 5455 4530 0
-4617 5480 4529 0
4617 -5455 -4529 0
4617 -5480 -4530 0
-4618 5474 4619 0
-4618 -5474 -4619 0
4618 -5474 4619 0
4618 5474 -4619 0
-4619 4533 4534 0
-4619 5448 5452 0
-4619 5448 4534 0
-4619 5452 4533 0
4619 -5448 -4533 0
4619 -5452 -4534 0
4620 4621 -4658 0
4620 4621 -4659 0
-4620 -4621 0
-4620 4658 4659 0
4621 -4622 4656 0
-4621 4622 0
-4621 -4656 0
-4622 -4623 4625 0
-4622 4625 4654 0
-4622 -4623 4654 0
4622 4623 -4654 0
4622 -4625 -4654 0
4622 4623 -4625 0
4623 4586 -4624 0
4623 -4586 4624 0
-4623 -4586 -4624 0
-4623 4586 4624 0
4624 219 -4580 0
4624 -219 4580 0
-4624 -219 -4580 0
-4624 219 4580 0
-4625 4626 4645 0
-4625 4645 -4652 0
-4625 4626 -4652 0
4625 -4626 4652 0
4625 -4645 4652 0
4625 -4626 -4645 0
-4626 4627 4633 0
-4626 4633 4640 0
-4626 4627 4640 0
4626 -4627 -4640 0
4626 -4633 -4640 0
4626 -4627 -4633 0
-4627 5454 4628 0
-4627 4628 4631 0
-4627 5454 4631 0
4627 -4628 -4631 0
4627 -5454 -4628 0
4627 -5454 -4631 0
-4628 -5453 -4629 0
-4628 5453 4629 0
4628 5453 -4629 0
4628 -5453 4629 0
4629 -5460 -4630 0
-4629 5460 0
-4629 4630 0
-4630 -5454 5506 0
-4630 -5453 -5506 0
-4630 5453 5454 0
4630 5453 -5454 -5506 0
4630 -5453 5454 5506 0
-4631 5464 4632 0
-4631 -5464 -4632 0
4631 -5464 4632 0
4631 5464 -4632 0
-4632 4540 4541 0
-4632 5457 5459 0
-4632 5459 4541 0
-4632 5457 4540 0
4632 -5459 -4540 0
4632 -5457 -4541 0
-4633 4634 4636 0
-4633 4636 4638 0
-4633 4634 4638 0
4633 -4634 -4638 0
4633 -4636 -4638 0
4633 -4634 -4636 0
-4634 5466 4635 0
-4634 -5466 -4635 0
4634 -5466 4635 0
4634 5466 -4635 0
-4635 5455 5502 0
-4635 4516 4545 0
-4635 5502 4516 0
-4635 5455 4545 0
4635 -5455 -4516 0
4635 -5502 -4545 0
-4636 5461 4637 0
-4636 -5461 -4637 0
4636 -5461 4637 0
4636 5461 -4637 0
-4637 4519 4520 0
-4637 5448 5480 0
-4637 5480 4520 0
-4637 5448 4519 0
4637 -5480 -4519 0
4637 -5448 -4520 0
-4638 5456 4639 0
-4638 -5456 -4639 0
4638 -5456 4639 0
4638 5456 -4639 0
-4639 4523 4524 0
-4639 5452 5477 0
-4639 5452 4524 0
-4639 5477 4523 0
4639 -5452 -4523 0
4639 -5477 -4524 0
-4640 351 4641 0
-4640 4641 4643 0
-4640 351 4643 0
4640 -4641 -4643 0
4640 -351 -4641 0
4640 -351 -4643 0
-4641 5451 4642 0
-4641 -5451 -4642 0
4641 -5451 4642 0
4641 5451 -4642 0
-4642 4529 4530 0
-4642 5469 5475 0
-4642 5469 4530 0
-4642 5475 4529 0
4642 -5469 -4529 0
4642 -5475 -4530 0
-4643 5474 4644 0
-4643 -5474 -4644 0
4643 -5474 4644 0
4643 5474 -4644 0
-4644 4533 4534 0
-4644 5458 5472 0
-4644 5472 4534 0
-4644 5458 4533 0
4644 -5472 -4533 0
4644 -5458 -4534 0
-4645 4646 4648 0
-4645 4648 4650 0
-4645 4646 4650 0
4645 -4646 -4650 0
4645 -4648 -4650 0
4645 -4646 -4648 0
-4646 4538 4647 0
-4646 -4538 -4647 0
4646 -4538 4647 0
4646 4538 -4647 0
-4647 -5453 -5454 0
-4647 5453 5454 0
4647 5453 -5454 0
4647 -5453 5454 0
-4648 4548 4649 0
-4648 -4548 -4649 0
4648 -4548 4649 0
4648 4548 -4649 0
-4649 4543 4546 0
-4649 -4543 -4546 0
4649 -4543 4546 0
4649 4543 -4546 0
-4650 281 4651 0
-4650 -281 -4651 0
4650 -281 4651 0
4650 281 -4651 0
-4651 4551 4553 0
-4651 -4551 -4553 0
4651 -4551 4553 0
4651 4551 -4553 0
4652 4550 -4653 0
4652 -4550 4653 0
-4652 -4550 -4653 0
-4652 4550 4653 0
4653 -4537 4542 0
4653 4537 -4542 0
-4653 4537 4542 0
-4653 -4537 -4542 0
-4654 4572 4655 0
-4654 -4572 -4655 0
4654 -4572 4655 0
4654 4572 -4655 0
-4655 4536 4555 0
-4655 -4536 -4555 0
4655 -4536 4555 0
4655 4536 -4555 0
4656 -4576 4657 0
4656 4576 -4657 0
-4656 4576 4657 0
-4656 -4576 -4657 0
-4657 4511 4535 0
-4657 -4511 -4535 0
4657 -4511 4535 0
4657 4511 -4535 0
4658 4622 -4656 0
4658 -4622 4656 0
-4658 -4622 -4656 0
-4658 4622 4656 0
4659 -4660 4737 0
4659 -4660 4734 0
-4659 4660 0
-4659 -4734 -4737 0
4660 -4661 -4695 0
4660 -4695 4697 0
4660 -4661 4697 0
-4660 4695 -4697 0
-4660 4661 4695 0
-4660 4661 -4697 0
4661 -4662 4664 0
4661 4664 -4693 0
4661 -4662 -4693 0
-4661 4662 4693 0
-4661 -4664 4693 0
-4661 4662 -4664 0
4662 -219 4663 0
4662 219 -4663 0
-4662 219 4663 0
-4662 -219 -4663 0
-4663 4556 4564 0
-4663 -4556 -4564 0
4663 -4556 4564 0
4663 4556 -4564 0
-4664 4665 4684 0
-4664 4684 4691 0
-4664 4665 4691 0
4664 -4665 -4691 0
4664 -4684 -4691 0
4664 -4665 -4684 0
-4665 4666 4672 0
-4665 4672 4679 0
-4665 4666 4679 0
4665 -4666 -4679 0
4665 -4672 -4679 0
4665 -4666 -4672 0
-4666 5454 4667 0
-4666 4667 4670 0
-4666 5454 4670 0
4666 -4667 -4670 0
4666 -5454 -4667 0
4666 -5454 -4670 0
-4667 5453 4668 0
-4667 -5453 -4668 0
4667 -5453 4668 0
4667 5453 -4668 0
-4668 5459 5460 0
-4668 4630 4669 0
-4668 5460 4630 0
-4668 5459 4669 0
4668 -5459 -4630 0
4668 -5460 -4669 0
4669 5454 -5506 0
4669 -5454 5506 0
-4669 -5454 -5506 0
-4669 5454 5506 0
-4670 5464 4671 0
-4670 -5464 -4671 0
4670 -5464 4671 0
4670 5464 -4671 0
-4671 4540 4541 0
-4671 5457 5502 0
-4671 5457 4541 0
-4671 5502 4540 0
4671 -5457 -4540 0
4671 -5502 -4541 0
-4672 4673 4675 0
-4672 4675 4677 0
-4672 4673 4677 0
4672 -4673 -4677 0
4672 -4675 -4677 0
4672 -4673 -4675 0
-4673 5466 4674 0
-4673 -5466 -4674 0
4673 -5466 4674 0
4673 5466 -4674 0
-4674 5455 5480 0
-4674 4516 4545 0
-4674 5480 4545 0
-4674 5455 4516 0
4674 -5455 -4545 0
4674 -5480 -4516 0
-4675 5461 4676 0
-4675 -5461 -4676 0
4675 -5461 4676 0
4675 5461 -4676 0
-4676 4519 4520 0
-4676 5448 5452 0
-4676 5448 4520 0
-4676 5452 4519 0
4676 -5448 -4519 0
4676 -5452 -4520 0
-4677 5456 4678 0
-4677 -5456 -4678 0
4677 -5456 4678 0
4677 5456 -4678 0
-4678 4523 4524 0
-4678 5469 5477 0
-4678 5477 4524 0
-4678 5469 4523 0
4678 -5477 -4523 0
4678 -5469 -4524 0
-4679 418 4680 0
-4679 4680 4682 0
-4679 418 4682 0
4679 -4680 -4682 0
4679 -418 -4680 0
4679 -418 -4682 0
-4680 5451 4681 0
-4680 -5451 -4681 0
4680 -5451 4681 0
4680 5451 -4681 0
-4681 4529 4530 0
-4681 5472 5475 0
-4681 5475 4530 0
-4681 5472 4529 0
4681 -5475 -4529 0
4681 -5472 -4530 0
-4682 5474 4683 0
-4682 -5474 -4683 0
4682 -5474 4683 0
4682 5474 -4683 0
-4683 4533 4534 0
-4683 5444 5458 0
-4683 5458 4534 0
-4683 5444 4533 0
4683 -5458 -4533 0
4683 -5444 -4534 0
-4684 4685 4687 0
-4684 4687 4689 0
-4684 4685 4689 0
4684 -4685 -4689 0
4684 -4687 -4689 0
4684 -4685 -4687 0
-4685 4631 4686 0
-4685 -4631 -4686 0
4685 -4631 4686 0
4685 4631 -4686 0
-4686 5454 4628 0
-4686 -5454 -4628 0
4686 -5454 4628 0
4686 5454 -4628 0
-4687 4638 4688 0
-4687 -4638 -4688 0
4687 -4638 4688 0
4687 4638 -4688 0
-4688 4634 4636 0
-4688 -4634 -4636 0
4688 -4634 4636 0
4688 4634 -4636 0
-4689 351 4690 0
-4689 -351 -4690 0
4689 -351 4690 0
4689 351 -4690 0
-4690 4641 4643 0
-4690 -4641 -4643 0
4690 -4641 4643 0
4690 4641 -4643 0
-4691 4640 4692 0
-4691 -4640 -4692 0
4691 -4640 4692 0
4691 4640 -4692 0
-4692 4627 4633 0
-4692 -4627 -4633 0
4692 -4627 4633 0
4692 4627 -4633 0
4693 -4652 4694 0
4693 4652 -4694 0
-4693 4652 4694 0
-4693 -4652 -4694 0
-4694 4626 4645 0
-4694 -4626 -4645 0
4694 -4626 4645 0
4694 4626 -4645 0
4695 4654 -4696 0
4695 -4654 4696 0
-4695 -4654 -4696 0
-4695 4654 4696 0
4696 -4623 4625 0
4696 4623 -4625 0
-4696 4623 4625 0
-4696 -4623 -4625 0
4697 -4698 -4732 0
-4697 4698 0
-4697 4732 0
-4698 4699 4701 0
-4698 4701 4730 0
-4698 4699 4730 0
4698 -4699 -4730 0
4698 -4701 -4730 0
4698 -4699 -4701 0
-4699 4650 4700 0
-4699 -4650 -4700 0
4699 -4650 4700 0
4699 4650 -4700 0
-4700 4646 4648 0
-4700 -4646 -4648 0
4700 -4646 4648 0
4700 4646 -4648 0
-4701 4702 4721 0
-4701 4721 4728 0
-4701 4702 4728 0
4701 -4702 -4728 0
4701 -4721 -4728 0
4701 -4702 -4721 0
-4702 4703 4709 0
-4702 4709 4716 0
-4702 4703 4716 0
4702 -4703 -4716 0
4702 -4709 -4716 0
4702 -4703 -4709 0
-4703 4704 4706 0
-4703 5464 4704 4708 0
-4703 -5464 4706 -4708 0
-4703 -5464 4704 -4708 0
-4703 5464 4706 4708 0
4703 -4704 -4706 0
4703 -5464 -4706 4708 0
4703 5464 -4704 -4708 0
4703 5464 -4706 -4708 0
4703 -5464 -4704 4708 0
-4704 4705 0
4704 -4705 0
4705 -5454 -5509 0
4705 -5454 5460 0
-4705 5454 0
-4705 -5460 5509 0
-4706 5453 4707 0
-4706 -5453 -4707 0
4706 -5453 4707 0
4706 5453 -4707 0
-4707 5457 5459 0
-4707 4630 4669 0
-4707 5459 4630 0
-4707 5457 4669 0
4707 -5457 -4630 0
4707 -5459 -4669 0
-4708 4540 4541 0
-4708 5455 5502 0
-4708 5502 4541 0
-4708 5455 4540 0
4708 -5502 -4540 0
4708 -5455 -4541 0
-4709 4710 4712 0
-4709 4712 4714 0
-4709 4710 4714 0
4709 -4710 -4714 0
4709 -4712 -4714 0
4709 -4710 -4712 0
-4710 5466 4711 0
-4710 -5466 -4711 0
4710 -5466 4711 0
4710 5466 -4711 0
-4711 5448 5480 0
-4711 4516 4545 0
-4711 5480 4516 0
-4711 5448 4545 0
4711 -5448 -4516 0
4711 -5480 -4545 0
-4712 5461 4713 0
-4712 -5461 -4713 0
4712 -5461 4713 0
4712 5461 -4713 0
-4713 4519 4520 0
-4713 5452 5477 0
-4713 5452 4520 0
-4713 5477 4519 0
4713 -5452 -4519 0
4713 -5477 -4520 0
-4714 5456 4715 0
-4714 -5456 -4715 0
4714 -5456 4715 0
4714 5456 -4715 0
-4715 4523 4524 0
-4715 5469 5475 0
-4715 5469 4524 0
-4715 5475 4523 0
4715 -5469 -4523 0
4715 -5475 -4524 0
-4716 486 4717 0
-4716 4717 4719 0
-4716 486 4719 0
4716 -4717 -4719 0
4716 -486 -4717 0
4716 -486 -4719 0
-4717 5451 4718 0
-4717 -5451 -4718 0
4717 -5451 4718 0
4717 5451 -4718 0
-4718 4529 4530 0
-4718 5458 5472 0
-4718 5472 4530 0
-4718 5458 4529 0
4718 -5472 -4529 0
4718 -5458 -4530 0
-4719 5474 4720 0
-4719 -5474 -4720 0
4719 -5474 4720 0
4719 5474 -4720 0
-4720 4533 4534 0
-4720 5444 5473 0
-4720 5444 4534 0
-4720 5473 4533 0
4720 -5444 -4533 0
4720 -5473 -4534 0
-4721 4722 4724 0
-4721 4724 4726 0
-4721 4722 4726 0
4721 -4722 -4726 0
4721 -4724 -4726 0
4721 -4722 -4724 0
-4722 4670 4723 0
-4722 -4670 -4723 0
4722 -4670 4723 0
4722 4670 -4723 0
-4723 5454 4667 0
-4723 -5454 -4667 0
4723 -5454 4667 0
4723 5454 -4667 0
-4724 4677 4725 0
-4724 -4677 -4725 0
4724 -4677 4725 0
4724 4677 -4725 0
-4725 4673 4675 0
-4725 -4673 -4675 0
4725 -4673 4675 0
4725 4673 -4675 0
-4726 418 4727 0
-4726 -418 -4727 0
4726 -418 4727 0
4726 418 -4727 0
-4727 4680 4682 0
-4727 -4680 -4682 0
4727 -4680 4682 0
4727 4680 -4682 0
-4728 4679 4729 0
-4728 -4679 -4729 0
4728 -4679 4729 0
4728 4679 -4729 0
-4729 4666 4672 0
-4729 -4666 -4672 0
4729 -4666 4672 0
4729 4666 -4672 0
-4730 4691 4731 0
-4730 -4691 -4731 0
4730 -4691 4731 0
4730 4691 -4731 0
-4731 4665 4684 0
-4731 -4665 -4684 0
4731 -4665 4684 0
4731 4665 -4684 0
-4732 -4693 -4733 0
-4732 4693 4733 0
4732 4693 -4733 0
4732 -4693 4733 0
4733 -4662 4664 0
4733 4662 -4664 0
-4733 4662 4664 0
-4733 -4662 -4664 0
4734 -4735 -4736 0
-4734 4735 0
-4734 4736 0
-4735 -4661 -4695 0
-4735 4661 4695 0
4735 4661 -4695 0
4735 -4661 4695 0
-4736 4698 4732 0
-4736 -4698 -4732 0
4736 -4698 4732 0
4736 4698 -4732 0
-4737 4738 4877 0
-4737 4738 5108 0
4737 -4738 0
4737 -4877 -5108 0
-4738 4739 4778 4814 0
-4738 4739 4780 4814 0
-4738 4778 4780 4814 0
4738 -4778 -4780 0
4738 -4739 -4778 0
4738 -4814 0
4738 -4739 -4780 0
-4739 4740 4742 0
-4739 4742 4776 0
-4739 4740 4776 0
4739 -4740 -4776 0
4739 -4742 -4776 0
4739 -4740 -4742 0
-4740 4689 4741 0
-4740 -4689 -4741 0
4740 -4689 4741 0
4740 4689 -4741 0
-4741 4685 4687 0
-4741 -4685 -4687 0
4741 -4685 4687 0
4741 4685 -4687 0
-4742 4743 4765 0
-4742 4765 4774 0
-4742 4743 4774 0
4742 -4743 -4774 0
4742 -4765 -4774 0
4742 -4743 -4765 0
-4743 4744 4752 0
-4743 4752 4759 0
-4743 4744 4759 0
4743 -4744 -4759 0
4743 -4752 -4759 0
4743 -4744 -4752 0
-4744 4745 4748 0
-4744 4748 4750 0
-4744 4745 4750 0
4744 -4745 -4750 0
4744 -4748 -4750 0
4744 -4745 -4748 0
-4745 5454 4746 0
-4745 -5454 -4746 0
4745 -5454 4746 0
4745 5454 -4746 0
-4746 313 4747 0
-4746 5459 313 0
4746 -313 0
4746 -5459 -4747 0
4747 -5454 5509 0
-4747 5454 0
-4747 -5509 0
-4748 5453 4749 0
-4748 -5453 -4749 0
4748 -5453 4749 0
4748 5453 -4749 0
-4749 5457 5502 0
-4749 4630 4669 0
-4749 5502 4669 0
-4749 5457 4630 0
4749 -5457 -4669 0
4749 -5502 -4630 0
-4750 5464 4751 0
-4750 -5464 -4751 0
4750 -5464 4751 0
4750 5464 -4751 0
-4751 4540 4541 0
-4751 5455 5480 0
-4751 5455 4541 0
-4751 5480 4540 0
4751 -5455 -4540 0
4751 -5480 -4541 0
-4752 4753 4755 0
-4752 4755 4757 0
-4752 4753 4757 0
4752 -4753 -4757 0
4752 -4755 -4757 0
4752 -4753 -4755 0
-4753 5466 4754 0
-4753 -5466 -4754 0
4753 -5466 4754 0
4753 5466 -4754 0
-4754 5448 5452 0
-4754 4516 4545 0
-4754 5452 4545 0
-4754 5448 4516 0
4754 -5448 -4545 0
4754 -5452 -4516 0
-4755 5461 4756 0
-4755 -5461 -4756 0
4755 -5461 4756 0
4755 5461 -4756 0
-4756 4519 4520 0
-4756 5469 5477 0
-4756 5477 4520 0
-4756 5469 4519 0
4756 -5477 -4519 0
4756 -5469 -4520 0
-4757 5456 4758 0
-4757 -5456 -4758 0
4757 -5456 4758 0
4757 5456 -4758 0
-4758 4523 4524 0
-4758 5472 5475 0
-4758 5475 4524 0
-4758 5472 4523 0
4758 -5475 -4523 0
4758 -5472 -4524 0
-4759 5474 4760 0
-4759 4760 4762 0
-4759 5474 4762 0
-4759 4762 -4764 0
-4759 4760 -4764 0
4759 -4760 -4762 0
4759 -5474 -4760 4764 0
4759 -5474 -4762 4764 0
-4760 5451 4761 0
-4760 -5451 -4761 0
4760 -5451 4761 0
4760 5451 -4761 0
-4761 4529 4530 0
-4761 5444 5458 0
-4761 5458 4530 0
-4761 5444 4529 0
4761 -5458 -4529 0
4761 -5444 -4530 0
-4762 5474 4763 0
-4762 -5474 -4763 0
4762 -5474 4763 0
4762 5474 -4763 0
-4763 4533 4534 0
-4763 5445 5473 0
-4763 5473 4534 0
-4763 5445 4533 0
4763 -5473 -4533 0
4763 -5445 -4534 0
4764 -5445 -4533 0
-4764 5445 0
-4764 4533 0
-4765 4769 4771 0
-4765 4766 4773 0
-4765 4766 4771 0
-4765 4769 4773 0
4765 -4771 -4773 0
4765 -4766 -4769 0
-4766 4767 4768 0
-4766 -4767 -4768 0
4766 -4767 4768 0
4766 4767 -4768 0
-4767 5464 4708 0
-4767 -5464 -4708 0
4767 -5464 4708 0
4767 5464 -4708 0
-4768 4704 4706 0
-4768 -4704 -4706 0
4768 -4704 4706 0
4768 4704 -4706 0
-4769 4714 4770 0
-4769 -4714 -4770 0
4769 -4714 4770 0
4769 4714 -4770 0
-4770 4710 4712 0
-4770 -4710 -4712 0
4770 -4710 4712 0
4770 4710 -4712 0
-4771 486 4772 0
-4771 -486 -4772 0
4771 -486 4772 0
4771 486 -4772 0
-4772 4717 4719 0
-4772 -4717 -4719 0
4772 -4717 4719 0
4772 4717 -4719 0
-4773 4766 4769 0
-4773 -4766 -4769 0
4773 -4766 4769 0
4773 4766 -4769 0
-4774 4716 4775 0
-4774 -4716 -4775 0
4774 -4716 4775 0
4774 4716 -4775 0
-4775 4703 4709 0
-4775 -4703 -4709 0
4775 -4703 4709 0
4775 4703 -4709 0
-4776 4728 4777 0
-4776 -4728 -4777 0
4776 -4728 4777 0
4776 4728 -4777 0
-4777 4702 4721 0
-4777 -4702 -4721 0
4777 -4702 4721 0
4777 4702 -4721 0
-4778 4730 4779 0
-4778 -4730 -4779 0
4778 -4730 4779 0
4778 4730 -4779 0
-4779 4699 4701 0
-4779 -4699 -4701 0
4779 -4699 4701 0
4779 4699 -4701 0
4780 -4781 -4812 0
-4780 4781 0
-4780 4812 0
-4781 4782 4784 0
-4781 4784 4810 0
-4781 4782 4810 0
4781 -4782 -4810 0
4781 -4784 -4810 0
4781 -4782 -4784 0
-4782 4726 4783 0
-4782 -4726 -4783 0
4782 -4726 4783 0
4782 4726 -4783 0
-4783 4722 4724 0
-4783 -4722 -4724 0
4783 -4722 4724 0
4783 4722 -4724 0
-4784 4785 4808 0
-4784 4785 4802 0
-4784 4802 4808 0
4784 -4802 -4808 0
4784 -4785 -4808 0
4784 -4785 -4802 0
-4785 4786 4793 0
-4785 4793 4800 0
-4785 4786 4800 0
4785 -4786 -4800 0
4785 -4793 -4800 0
4785 -4786 -4793 0
-4786 4787 4789 0
-4786 4789 4791 0
-4786 4787 4791 0
4786 -4787 -4791 0
4786 -4789 -4791 0
4786 -4787 -4789 0
-4787 5454 4788 0
-4787 -5454 -4788 0
4787 -5454 4788 0
4787 5454 -4788 0
-4788 380 4747 0
-4788 5457 380 0
4788 -380 0
4788 -5457 -4747 0
-4789 5453 4790 0
-4789 -5453 -4790 0
4789 -5453 4790 0
4789 5453 -4790 0
-4790 5455 5502 0
-4790 4630 4669 0
-4790 5502 4630 0
-4790 5455 4669 0
4790 -5455 -4630 0
4790 -5502 -4669 0
-4791 5464 4792 0
-4791 -5464 -4792 0
4791 -5464 4792 0
4791 5464 -4792 0
-4792 4540 4541 0
-4792 5448 5480 0
-4792 5480 4541 0
-4792 5448 4540 0
4792 -5480 -4540 0
4792 -5448 -4541 0
-4793 4794 4796 0
-4793 4796 4798 0
-4793 4794 4798 0
4793 -4794 -4798 0
4793 -4796 -4798 0
4793 -4794 -4796 0
-4794 5466 4795 0
-4794 -5466 -4795 0
4794 -5466 4795 0
4794 5466 -4795 0
-4795 5452 5477 0
-4795 4516 4545 0
-4795 5477 4545 0
-4795 5452 4516 0
4795 -5452 -4545 0
4795 -5477 -4516 0
-4796 5461 4797 0
-4796 -5461 -4797 0
4796 -5461 4797 0
4796 5461 -4797 0
-4797 4519 4520 0
-4797 5469 5475 0
-4797 5469 4520 0
-4797 5475 4519 0
4797 -5469 -4519 0
4797 -5475 -4520 0
-4798 5456 4799 0
-4798 -5456 -4799 0
4798 -5456 4799 0
4798 5456 -4799 0
-4799 4523 4524 0
-4799 5458 5472 0
-4799 5472 4524 0
-4799 5458 4523 0
4799 -5472 -4523 0
4799 -5458 -4524 0
-4800 4750 4801 0
-4800 -4750 -4801 0
4800 -4750 4801 0
4800 4750 -4801 0
-4801 4745 4748 0
-4801 -4745 -4748 0
4801 -4745 4748 0
4801 4745 -4748 0
4802 -4803 -4805 0
-4802 4803 0
-4802 4805 0
-4803 4757 4804 0
-4803 -4757 -4804 0
4803 -4757 4804 0
4803 4757 -4804 0
-4804 4753 4755 0
-4804 -4753 -4755 0
4804 -4753 4755 0
4804 4753 -4755 0
-4805 4806 4807 0
-4805 -4806 -4807 0
4805 -4806 4807 0
4805 4806 -4807 0
4806 -5474 4764 0
-4806 5474 0
-4806 -4764 0
-4807 4760 4762 0
-4807 -4760 -4762 0
4807 -4760 4762 0
4807 4760 -4762 0
-4808 4759 4809 0
-4808 -4759 -4809 0
4808 -4759 4809 0
4808 4759 -4809 0
-4809 4744 4752 0
-4809 -4744 -4752 0
4809 -4744 4752 0
4809 4744 -4752 0
-4810 4774 4811 0
-4810 -4774 -4811 0
4810 -4774 4811 0
4810 4774 -4811 0
-4811 4743 4765 0
-4811 -4743 -4765 0
4811 -4743 4765 0
4811 4743 -4765 0
-4812 4776 4813 0
-4812 -4776 -4813 0
4812 -4776 4813 0
4812 4776 -4813 0
-4813 4740 4742 0
-4813 -4740 -4742 0
4813 -4740 4742 0
4813 4740 -4742 0
4814 -4815 -4874 0
-4814 4815 0
-4814 4874 0
-4815 4816 4845 0
-4815 4845 4847 0
-4815 4816 4847 0
4815 -4845 -4847 0
4815 -4816 -4845 0
4815 -4816 -4847 0
-4816 4817 4818 0
-4816 4818 4843 0
-4816 4817 4843 0
4816 -4817 -4843 0
4816 -4818 -4843 0
4816 -4817 -4818 0
-4817 4771 4773 0
-4817 -4771 -4773 0
4817 -4771 4773 0
4817 4771 -4773 0
-4818 4819 4829 0
-4818 4829 4841 0
-4818 4819 4841 0
4818 -4819 -4841 0
4818 -4829 -4841 0
4818 -4819 -4829 0
-4819 4764 4820 0
-4819 4820 4822 0
-4819 4764 4822 0
4819 -4820 -4822 0
4819 -4764 -4820 0
4819 -4764 -4822 0
-4820 5451 4821 0
-4820 -5451 -4821 0
4820 -5451 4821 0
4820 5451 -4821 0
-4821 4529 4530 0
-4821 5444 5473 0
-4821 5444 4530 0
-4821 5473 4529 0
4821 -5444 -4529 0
4821 -5473 -4530 0
-4822 4823 4825 0
-4822 4825 4827 0
-4822 4823 4827 0
4822 -4823 -4827 0
4822 -4825 -4827 0
4822 -4823 -4825 0
-4823 5454 4824 0
-4823 -5454 -4824 0
4823 -5454 4824 0
4823 5454 -4824 0
-4824 448 4747 0
-4824 5502 448 0
4824 -448 0
4824 -5502 -4747 0
-4825 5453 4826 0
-4825 -5453 -4826 0
4825 -5453 4826 0
4825 5453 -4826 0
-4826 5455 5480 0
-4826 4630 4669 0
-4826 5480 4669 0
-4826 5455 4630 0
4826 -5455 -4669 0
4826 -5480 -4630 0
-4827 5464 4828 0
-4827 -5464 -4828 0
4827 -5464 4828 0
4827 5464 -4828 0
-4828 4540 4541 0
-4828 5448 5452 0
-4828 5448 4541 0
-4828 5452 4540 0
4828 -5448 -4540 0
4828 -5452 -4541 0
-4829 4830 4837 0
-4829 4837 4839 0
-4829 4830 4839 0
4829 -4830 -4839 0
4829 -4837 -4839 0
4829 -4830 -4837 0
-4830 4831 4833 0
-4830 4833 4835 0
-4830 4831 4835 0
4830 -4831 -4835 0
4830 -4833 -4835 0
4830 -4831 -4833 0
-4831 5466 4832 0
-4831 -5466 -4832 0
4831 -5466 4832 0
4831 5466 -4832 0
-4832 5469 5477 0
-4832 4516 4545 0
-4832 5477 4516 0
-4832 5469 4545 0
4832 -5469 -4516 0
4832 -5477 -4545 0
-4833 5461 4834 0
-4833 -5461 -4834 0
4833 -5461 4834 0
4833 5461 -4834 0
-4834 4519 4520 0
-4834 5472 5475 0
-4834 5475 4520 0
-4834 5472 4519 0
4834 -5475 -4519 0
4834 -5472 -4520 0
-4835 5456 4836 0
-4835 -5456 -4836 0
4835 -5456 4836 0
4835 5456 -4836 0
-4836 4523 4524 0
-4836 5444 5458 0
-4836 5458 4524 0
-4836 5444 4523 0
4836 -5458 -4523 0
4836 -5444 -4524 0
-4837 4791 4838 0
-4837 -4791 -4838 0
4837 -4791 4838 0
4837 4791 -4838 0
-4838 4787 4789 0
-4838 -4787 -4789 0
4838 -4787 4789 0
4838 4787 -4789 0
-4839 4798 4840 0
-4839 -4798 -4840 0
4839 -4798 4840 0
4839 4798 -4840 0
-4840 4794 4796 0
-4840 -4794 -4796 0
4840 -4794 4796 0
4840 4794 -4796 0
-4841 4800 4842 0
-4841 -4800 -4842 0
4841 -4800 4842 0
4841 4800 -4842 0
-4842 4786 4793 0
-4842 -4786 -4793 0
4842 -4786 4793 0
4842 4786 -4793 0
-4843 4808 4844 0
-4843 -4808 -4844 0
4843 -4808 4844 0
4843 4808 -4844 0
-4844 -4785 -4802 0
-4844 4785 4802 0
4844 4785 -4802 0
4844 -4785 4802 0
-4845 4810 4846 0
-4845 -4810 -4846 0
4845 -4810 4846 0
4845 4810 -4846 0
-4846 4782 4784 0
-4846 -4782 -4784 0
4846 -4782 4784 0
4846 4782 -4784 0
4847 -4848 -4872 0
-4847 4848 0
-4847 4872 0
-4848 4849 4850 0
-4848 4850 4870 0
-4848 4849 4870 0
4848 -4849 -4870 0
4848 -4850 -4870 0
4848 -4849 -4850 0
-4849 4803 4805 0
-4849 -4803 -4805 0
4849 -4803 4805 0
4849 4803 -4805 0
-4850 4851 4868 0
-4850 4851 4863 0
-4850 4863 4868 0
4850 -4863 -4868 0
4850 -4851 -4868 0
4850 -4851 -4863 0
-4851 4852 4856 0
-4851 4852 4854 0
-4851 4854 4856 0
4851 -4854 -4856 0
4851 -4852 -4856 0
4851 -4852 -4854 0
-4852 5451 4853 0
-4852 -5451 -4853 0
4852 -5451 4853 0
4852 5451 -4853 0
-4853 4529 4530 0
-4853 5445 5473 0
-4853 5473 4530 0
-4853 5445 4529 0
4853 -5473 -4529 0
4853 -5445 -4530 0
4854 -5451 4855 0
-4854 5451 0
-4854 -4855 0
4855 -5445 -4529 0
-4855 5445 0
-4855 4529 0
-4856 4857 4859 0
-4856 4859 4861 0
-4856 4857 4861 0
4856 -4857 -4861 0
4856 -4859 -4861 0
4856 -4857 -4859 0
-4857 5454 4858 0
-4857 -5454 -4858 0
4857 -5454 4858 0
4857 5454 -4858 0
-4858 515 4747 0
-4858 5455 515 0
4858 -515 0
4858 -5455 -4747 0
-4859 5453 4860 0
-4859 -5453 -4860 0
4859 -5453 4860 0
4859 5453 -4860 0
-4860 5448 5480 0
-4860 4630 4669 0
-4860 5480 4630 0
-4860 5448 4669 0
4860 -5448 -4630 0
4860 -5480 -4669 0
-4861 5464 4862 0
-4861 -5464 -4862 0
4861 -5464 4862 0
4861 5464 -4862 0
-4862 4540 4541 0
-4862 5452 5477 0
-4862 5452 4541 0
-4862 5477 4540 0
4862 -5452 -4540 0
4862 -5477 -4541 0
4863 -4864 -4866 0
-4863 4864 0
-4863 4866 0
-4864 4827 4865 0
-4864 -4827 -4865 0
4864 -4827 4865 0
4864 4827 -4865 0
-4865 4823 4825 0
-4865 -4823 -4825 0
4865 -4823 4825 0
4865 4823 -4825 0
-4866 4835 4867 0
-4866 -4835 -4867 0
4866 -4835 4867 0
4866 4835 -4867 0
-4867 4831 4833 0
-4867 -4831 -4833 0
4867 -4831 4833 0
4867 4831 -4833 0
-4868 4822 4869 0
-4868 -4822 -4869 0
4868 -4822 4869 0
4868 4822 -4869 0
-4869 4764 4820 0
-4869 -4764 -4820 0
4869 -4764 4820 0
4869 4764 -4820 0
-4870 4841 4871 0
-4870 -4841 -4871 0
4870 -4841 4871 0
4870 4841 -4871 0
-4871 4819 4829 0
-4871 -4819 -4829 0
4871 -4819 4829 0
4871 4819 -4829 0
-4872 4843 4873 0
-4872 -4843 -4873 0
4872 -4843 4873 0
4872 4843 -4873 0
-4873 4817 4818 0
-4873 -4817 -4818 0
4873 -4817 4818 0
4873 4817 -4818 0
4874 -4875 -4876 0
-4874 4875 0
-4874 4876 0
-4875 4739 4778 0
-4875 -4739 -4778 0
4875 -4739 4778 0
4875 4739 -4778 0
-4876 4781 4812 0
-4876 -4781 -4812 0
4876 -4781 4812 0
4876 4781 -4812 0
-4877 4878 4978 0
-4877 4978 5051 0
-4877 4978 5055 0
4877 -4978 0
4877 -4878 -5051 -5055 0
4878 -4879 -4930 0
-4878 4879 0
-4878 4930 0
4879 -4880 -4908 0
-4879 4880 0
-4879 4908 0
-4880 4881 4906 0
-4880 -4881 -4906 0
4880 -4881 4906 0
4880 4881 -4906 0
-4881 4882 4884 0
-4881 4884 4904 0
-4881 4882 4904 0
4881 -4882 -4904 0
4881 -4884 -4904 0
4881 -4882 -4884 0
-4882 4839 4883 0
-4882 -4839 -4883 0
4882 -4839 4883 0
4882 4839 -4883 0
-4883 4830 4837 0
-4883 -4830 -4837 0
4883 -4830 4837 0
4883 4830 -4837 0
-4884 4885 4892 0
-4884 4892 4902 0
-4884 4885 4902 0
4884 -4885 -4902 0
4884 -4892 -4902 0
4884 -4885 -4892 0
-4885 4886 4888 0
-4885 4888 4890 0
-4885 4886 4890 0
4885 -4886 -4890 0
4885 -4888 -4890 0
4885 -4886 -4888 0
-4886 5466 4887 0
-4886 -5466 -4887 0
4886 -5466 4887 0
4886 5466 -4887 0
-4887 5469 5475 0
-4887 4516 4545 0
-4887 5475 4545 0
-4887 5469 4516 0
4887 -5469 -4545 0
4887 -5475 -4516 0
-4888 5461 4889 0
-4888 -5461 -4889 0
4888 -5461 4889 0
4888 5461 -4889 0
-4889 4519 4520 0
-4889 5458 5472 0
-4889 5472 4520 0
-4889 5458 4519 0
4889 -5472 -4519 0
4889 -5458 -4520 0
-4890 5456 4891 0
-4890 -5456 -4891 0
4890 -5456 4891 0
4890 5456 -4891 0
-4891 4523 4524 0
-4891 5444 5473 0
-4891 5444 4524 0
-4891 5473 4523 0
4891 -5444 -4523 0
4891 -5473 -4524 0
-4892 4855 4893 0
-4892 4893 4900 0
-4892 4855 4900 0
4892 -4893 -4900 0
4892 -4855 -4893 0
4892 -4855 -4900 0
-4893 4894 4896 0
-4893 4896 4898 0
-4893 4894 4898 0
4893 -4894 -4898 0
4893 -4896 -4898 0
4893 -4894 -4896 0
-4894 5454 4895 0
-4894 -5454 -4895 0
4894 -5454 4895 0
4894 5454 -4895 0
-4895 579 4747 0
-4895 5480 579 0
4895 -579 0
4895 -5480 -4747 0
-4896 5453 4897 0
-4896 -5453 -4897 0
4896 -5453 4897 0
4896 5453 -4897 0
-4897 5448 5452 0
-4897 4630 4669 0
-4897 5452 4669 0
-4897 5448 4630 0
4897 -5448 -4669 0
4897 -5452 -4630 0
-4898 5464 4899 0
-4898 -5464 -4899 0
4898 -5464 4899 0
4898 5464 -4899 0
-4899 4540 4541 0
-4899 5469 5477 0
-4899 5477 4541 0
-4899 5469 4540 0
4899 -5477 -4540 0
4899 -5469 -4541 0
-4900 4861 4901 0
-4900 -4861 -4901 0
4900 -4861 4901 0
4900 4861 -4901 0
-4901 4857 4859 0
-4901 -4857 -4859 0
4901 -4857 4859 0
4901 4857 -4859 0
-4902 4856 4903 0
-4902 -4856 -4903 0
4902 -4856 4903 0
4902 4856 -4903 0
-4903 -4852 -4854 0
-4903 4852 4854 0
4903 4852 -4854 0
4903 -4852 4854 0
-4904 4868 4905 0
-4904 -4868 -4905 0
4904 -4868 4905 0
4904 4868 -4905 0
-4905 -4851 -4863 0
-4905 4851 4863 0
4905 4851 -4863 0
4905 -4851 4863 0
-4906 4870 4907 0
-4906 -4870 -4907 0
4906 -4870 4907 0
4906 4870 -4907 0
-4907 4849 4850 0
-4907 -4849 -4850 0
4907 -4849 4850 0
4907 4849 -4850 0
-4908 4909 4928 0
-4908 -4909 -4928 0
4908 -4909 4928 0
4908 4909 -4928 0
-4909 4910 4911 0
-4909 4911 4926 0
-4909 4910 4926 0
4909 -4910 -4926 0
4909 -4911 -4926 0
4909 -4910 -4911 0
-4910 4864 4866 0
-4910 -4864 -4866 0
4910 -4864 4866 0
4910 4864 -4866 0
-4911 4912 4924 0
-4911 4912 4919 0
-4911 4919 4924 0
4911 -4919 -4924 0
4911 -4912 -4924 0
4911 -4912 -4919 0
-4912 4913 4915 0
-4912 4915 4917 0
-4912 4913 4917 0
4912 -4913 -4917 0
4912 -4915 -4917 0
4912 -4913 -4915 0
-4913 5466 4914 0
-4913 -5466 -4914 0
4913 -5466 4914 0
4913 5466 -4914 0
-4914 5472 5475 0
-4914 4516 4545 0
-4914 5475 4516 0
-4914 5472 4545 0
4914 -5472 -4516 0
4914 -5475 -4545 0
-4915 5461 4916 0
-4915 -5461 -4916 0
4915 -5461 4916 0
4915 5461 -4916 0
-4916 4519 4520 0
-4916 5444 5458 0
-4916 5458 4520 0
-4916 5444 4519 0
4916 -5458 -4519 0
4916 -5444 -4520 0
-4917 5456 4918 0
-4917 -5456 -4918 0
4917 -5456 4918 0
4917 5456 -4918 0
-4918 4523 4524 0
-4918 5445 5473 0
-4918 5473 4524 0
-4918 5445 4523 0
4918 -5473 -4523 0
4918 -5445 -4524 0
4919 -4920 -4922 0
-4919 4920 0
-4919 4922 0
4920 -5456 4921 0
-4920 5456 0
-4920 -4921 0
4921 -5445 -4523 0
-4921 5445 0
-4921 4523 0
-4922 4898 4923 0
-4922 -4898 -4923 0
4922 -4898 4923 0
4922 4898 -4923 0
-4923 4894 4896 0
-4923 -4894 -4896 0
4923 -4894 4896 0
4923 4894 -4896 0
-4924 4890 4925 0
-4924 -4890 -4925 0
4924 -4890 4925 0
4924 4890 -4925 0
-4925 4886 4888 0
-4925 -4886 -4888 0
4925 -4886 4888 0
4925 4886 -4888 0
-4926 4902 4927 0
-4926 -4902 -4927 0
4926 -4902 4927 0
4926 4902 -4927 0
-4927 4885 4892 0
-4927 -4885 -4892 0
4927 -4885 4892 0
4927 4885 -4892 0
-4928 4904 4929 0
-4928 -4904 -4929 0
4928 -4904 4929 0
4928 4904 -4929 0
-4929 4882 4884 0
-4929 -4882 -4884 0
4929 -4882 4884 0
4929 4882 -4884 0
4930 -4931 -4954 0
-4930 4931 0
-4930 4954 0
-4931 4932 4952 0
-4931 -4932 -4952 0
4931 -4932 4952 0
4931 4932 -4952 0
-4932 4933 4935 0
-4932 4935 4950 0
-4932 4933 4950 0
4932 -4933 -4950 0
4932 -4935 -4950 0
4932 -4933 -4935 0
-4933 4900 4934 0
-4933 -4900 -4934 0
4933 -4900 4934 0
4933 4900 -4934 0
-4934 4855 4893 0
-4934 -4855 -4893 0
4934 -4855 4893 0
4934 4855 -4893 0
-4935 4936 4943 0
-4935 4943 4948 0
-4935 4936 4948 0
4935 -4936 -4948 0
4935 -4943 -4948 0
4935 -4936 -4943 0
-4936 4937 4939 0
-4936 4939 4941 0
-4936 4937 4941 0
4936 -4937 -4941 0
4936 -4939 -4941 0
4936 -4937 -4939 0
-4937 5454 4938 0
-4937 -5454 -4938 0
4937 -5454 4938 0
4937 5454 -4938 0
-4938 638 4747 0
-4938 5448 638 0
4938 -638 0
4938 -5448 -4747 0
-4939 5453 4940 0
-4939 -5453 -4940 0
4939 -5453 4940 0
4939 5453 -4940 0
-4940 5452 5477 0
-4940 4630 4669 0
-4940 5477 4669 0
-4940 5452 4630 0
4940 -5452 -4669 0
4940 -5477 -4630 0
-4941 5464 4942 0
-4941 -5464 -4942 0
4941 -5464 4942 0
4941 5464 -4942 0
-4942 4540 4541 0
-4942 5469 5475 0
-4942 5469 4541 0
-4942 5475 4540 0
4942 -5469 -4540 0
4942 -5475 -4541 0
-4943 5445 4946 0
-4943 4944 4946 0
-4943 5445 4944 0
-4943 4523 4946 0
-4943 4523 4944 0
4943 -4944 -4946 0
4943 -5445 -4523 -4946 0
4943 -5445 -4523 -4944 0
-4944 5466 4945 0
-4944 -5466 -4945 0
4944 -5466 4945 0
4944 5466 -4945 0
-4945 5458 5472 0
-4945 4516 4545 0
-4945 5472 4516 0
-4945 5458 4545 0
4945 -5458 -4516 0
4945 -5472 -4545 0
-4946 5461 4947 0
-4946 -5461 -4947 0
4946 -5461 4947 0
4946 5461 -4947 0
-4947 4519 4520 0
-4947 5444 5473 0
-4947 5444 4520 0
-4947 5473 4519 0
4947 -5444 -4519 0
4947 -5473 -4520 0
-4948 4917 4949 0
-4948 -4917 -4949 0
4948 -4917 4949 0
4948 4917 -4949 0
-4949 4913 4915 0
-4949 -4913 -4915 0
4949 -4913 4915 0
4949 4913 -4915 0
-4950 4924 4951 0
-4950 -4924 -4951 0
4950 -4924 4951 0
4950 4924 -4951 0
-4951 -4912 -4919 0
-4951 4912 4919 0
4951 4912 -4919 0
4951 -4912 4919 0
-4952 4926 4953 0
-4952 -4926 -4953 0
4952 -4926 4953 0
4952 4926 -4953 0
-4953 4910 4911 0
-4953 -4910 -4911 0
4953 -4910 4911 0
4953 4910 -4911 0
-4954 4955 4976 0
-4954 -4955 -4976 0
4954 -4955 4976 0
4954 4955 -4976 0
-4955 4956 4957 0
-4955 4957 4974 0
-4955 4956 4974 0
4955 -4956 -4974 0
4955 -4957 -4974 0
4955 -4956 -4957 0
-4956 4920 4922 0
-4956 -4920 -4922 0
4956 -4920 4922 0
4956 4920 -4922 0
-4957 4958 4965 0
-4957 4965 4972 0
-4957 4958 4972 0
4957 -4958 -4972 0
4957 -4965 -4972 0
4957 -4958 -4965 0
-4958 4959 4961 0
-4958 4961 4963 0
-4958 4959 4963 0
4958 -4959 -4963 0
4958 -4961 -4963 0
4958 -4959 -4961 0
-4959 5454 4960 0
-4959 -5454 -4960 0
4959 -5454 4960 0
4959 5454 -4960 0
-4960 699 4747 0
-4960 5452 699 0
4960 -699 0
4960 -5452 -4747 0
-4961 5453 4962 0
-4961 -5453 -4962 0
4961 -5453 4962 0
4961 5453 -4962 0
-4962 5469 5477 0
-4962 4630 4669 0
-4962 5477 4630 0
-4962 5469 4669 0
4962 -5469 -4630 0
4962 -5477 -4669 0
-4963 5464 4964 0
-4963 -5464 -4964 0
4963 -5464 4964 0
4963 5464 -4964 0
-4964 4540 4541 0
-4964 5472 5475 0
-4964 5475 4541 0
-4964 5472 4540 0
4964 -5475 -4540 0
4964 -5472 -4541 0
-4965 4966 4968 0
-4965 4968 4970 0
-4965 4966 4970 0
4965 -4968 -4970 0
4965 -4966 -4968 0
4965 -4966 -4970 0
-4966 5466 4967 0
-4966 -5466 -4967 0
4966 -5466 4967 0
4966 5466 -4967 0
-4967 5444 5458 0
-4967 4516 4545 0
-4967 5458 4516 0
-4967 5444 4545 0
4967 -5444 -4516 0
4967 -5458 -4545 0
-4968 5461 4969 0
-4968 -5461 -4969 0
4968 -5461 4969 0
4968 5461 -4969 0
-4969 4519 4520 0
-4969 5445 5473 0
-4969 5473 4520 0
-4969 5445 4519 0
4969 -5473 -4519 0
4969 -5445 -4520 0
4970 -5461 4971 0
-4970 5461 0
-4970 -4971 0
4971 -5445 -4519 0
-4971 5445 0
-4971 4519 0
-4972 4941 4973 0
-4972 -4941 -4973 0
4972 -4941 4973 0
4972 4941 -4973 0
-4973 4937 4939 0
-4973 -4937 -4939 0
4973 -4937 4939 0
4973 4937 -4939 0
-4974 4948 4975 0
-4974 -4948 -4975 0
4974 -4948 4975 0
4974 4948 -4975 0
-4975 4936 4943 0
-4975 -4936 -4943 0
4975 -4936 4943 0
4975 4936 -4943 0
-4976 4950 4977 0
-4976 -4950 -4977 0
4976 -4950 4977 0
4976 4950 -4977 0
-4977 4933 4935 0
-4977 -4933 -4935 0
4977 -4933 4935 0
4977 4933 -4935 0
-4978 4979 4981 4878 0
-4978 4979 4981 4984 0
4978 -4979 0
4978 -4981 0
4978 -4878 -4984 0
-4979 4881 4906 0
-4979 4906 4980 0
-4979 4881 4980 0
4979 -4906 -4980 0
4979 -4881 -4906 0
4979 -4881 -4980 0
4980 -4909 -4928 0
-4980 4909 0
-4980 4928 0
4981 -4879 -4982 0
-4981 4879 0
-4981 4982 0
-4982 4932 4952 0
-4982 4952 4983 0
-4982 4932 4983 0
4982 -4952 -4983 0
4982 -4932 -4952 0
4982 -4932 -4983 0
4983 -4955 -4976 0
-4983 4955 0
-4983 4976 0
-4984 4985 5002 5020 0
-4984 4985 5004 5020 0
-4984 5002 5004 5020 0
4984 -5002 -5004 0
4984 -4985 -5002 0
4984 -5020 0
4984 -4985 -5004 0
-4985 4986 4988 0
-4985 4988 5000 0
-4985 4986 5000 0
4985 -4986 -5000 0
4985 -4988 -5000 0
4985 -4986 -4988 0
-4986 4921 4987 0
-4986 -4921 -4987 0
4986 -4921 4987 0
4986 4921 -4987 0
-4987 4944 4946 0
-4987 -4944 -4946 0
4987 -4944 4946 0
4987 4944 -4946 0
-4988 4989 4996 0
-4988 4996 4998 0
-4988 4989 4998 0
4988 -4989 -4998 0
4988 -4996 -4998 0
4988 -4989 -4996 0
-4989 4990 4992 0
-4989 4992 4994 0
-4989 4990 4994 0
4989 -4990 -4994 0
4989 -4992 -4994 0
4989 -4990 -4992 0
-4990 5454 4991 0
-4990 -5454 -4991 0
4990 -5454 4991 0
4990 5454 -4991 0
-4991 748 4747 0
-4991 5477 748 0
4991 -748 0
4991 -5477 -4747 0
-4992 5453 4993 0
-4992 -5453 -4993 0
4992 -5453 4993 0
4992 5453 -4993 0
-4993 5469 5475 0
-4993 4630 4669 0
-4993 5475 4669 0
-4993 5469 4630 0
4993 -5469 -4669 0
4993 -5475 -4630 0
-4994 5464 4995 0
-4994 -5464 -4995 0
4994 -5464 4995 0
4994 5464 -4995 0
-4995 4540 4541 0
-4995 5458 5472 0
-4995 5472 4541 0
-4995 5458 4540 0
4995 -5472 -4540 0
4995 -5458 -4541 0
-4996 4963 4997 0
-4996 -4963 -4997 0
4996 -4963 4997 0
4996 4963 -4997 0
-4997 4959 4961 0
-4997 -4959 -4961 0
4997 -4959 4961 0
4997 4959 -4961 0
-4998 4970 4999 0
-4998 -4970 -4999 0
4998 -4970 4999 0
4998 4970 -4999 0
-4999 4966 4968 0
-4999 -4966 -4968 0
4999 -4966 4968 0
4999 4966 -4968 0
-5000 4972 5001 0
-5000 -4972 -5001 0
5000 -4972 5001 0
5000 4972 -5001 0
-5001 4958 4965 0
-5001 -4958 -4965 0
5001 -4958 4965 0
5001 4958 -4965 0
-5002 4974 5003 0
-5002 -4974 -5003 0
5002 -4974 5003 0
5002 4974 -5003 0
-5003 4956 4957 0
-5003 -4956 -4957 0
5003 -4956 4957 0
5003 4956 -4957 0
5004 -5005 -5018 0
-5004 5005 0
-5004 5018 0
5005 -5006 -5016 0
-5005 5006 0
-5005 5016 0
-5006 4971 5007 0
-5006 5007 5009 0
-5006 4971 5009 0
5006 -5007 -5009 0
5006 -4971 -5007 0
5006 -4971 -5009 0
-5007 5466 5008 0
-5007 -5466 -5008 0
5007 -5466 5008 0
5007 5466 -5008 0
-5008 5444 5473 0
-5008 4516 4545 0
-5008 5473 4545 0
-5008 5444 4516 0
5008 -5444 -4545 0
5008 -5473 -4516 0
-5009 5010 5012 0
-5009 5012 5014 0
-5009 5010 5014 0
5009 -5010 -5014 0
5009 -5012 -5014 0
5009 -5010 -5012 0
-5010 5454 5011 0
-5010 -5454 -5011 0
5010 -5454 5011 0
5010 5454 -5011 0
-5011 797 4747 0
-5011 5469 797 0
5011 -797 0
5011 -5469 -4747 0
-5012 5453 5013 0
-5012 -5453 -5013 0
5012 -5453 5013 0
5012 5453 -5013 0
-5013 5472 5475 0
-5013 4630 4669 0
-5013 5475 4630 0
-5013 5472 4669 0
5013 -5472 -4630 0
5013 -5475 -4669 0
-5014 5464 5015 0
-5014 -5464 -5015 0
5014 -5464 5015 0
5014 5464 -5015 0
-5015 4540 4541 0
-5015 5444 5458 0
-5015 5458 4541 0
-5015 5444 4540 0
5015 -5458 -4540 0
5015 -5444 -4541 0
-5016 4998 5017 0
-5016 -4998 -5017 0
5016 -4998 5017 0
5016 4998 -5017 0
-5017 4989 4996 0
-5017 -4989 -4996 0
5017 -4989 4996 0
5017 4989 -4996 0
-5018 5000 5019 0
-5018 -5000 -5019 0
5018 -5000 5019 0
5018 5000 -5019 0
-5019 4986 4988 0
-5019 -4986 -4988 0
5019 -4986 4988 0
5019 4986 -4988 0
5020 -5021 -5024 0
-5020 5021 0
-5020 5024 0
5021 -5022 -5023 0
-5021 5022 0
-5021 5023 0
-5022 4985 5002 0
-5022 -4985 -5002 0
5022 -4985 5002 0
5022 4985 -5002 0
-5023 5005 5018 0
-5023 -5005 -5018 0
5023 -5005 5018 0
5023 5005 -5018 0
-5024 5025 5037 0
-5024 5037 5038 0
-5024 5025 5038 0
5024 -5037 -5038 0
5024 -5025 -5037 0
5024 -5025 -5038 0
-5025 5026 5028 0
-5025 5028 5035 0
-5025 5026 5035 0
5025 -5026 -5035 0
5025 -5028 -5035 0
5025 -5026 -5028 0
-5026 4994 5027 0
-5026 -4994 -5027 0
5026 -4994 5027 0
5026 4994 -5027 0
-5027 4990 4992 0
-5027 -4990 -4992 0
5027 -4990 4992 0
5027 4990 -4992 0
-5028 5029 5033 0
-5028 5029 5031 0
-5028 5031 5033 0
5028 -5031 -5033 0
5028 -5029 -5033 0
5028 -5029 -5031 0
-5029 5466 5030 0
-5029 -5466 -5030 0
5029 -5466 5030 0
5029 5466 -5030 0
-5030 5445 5473 0
-5030 4516 4545 0
-5030 5473 4516 0
-5030 5445 4545 0
5030 -5445 -4516 0
5030 -5473 -4545 0
5031 -5466 5032 0
-5031 5466 0
-5031 -5032 0
5032 -5445 -4545 0
-5032 5445 0
-5032 4545 0
-5033 5014 5034 0
-5033 -5014 -5034 0
5033 -5014 5034 0
5033 5014 -5034 0
-5034 5010 5012 0
-5034 -5010 -5012 0
5034 -5010 5012 0
5034 5010 -5012 0
-5035 5009 5036 0
-5035 -5009 -5036 0
5035 -5009 5036 0
5035 5009 -5036 0
-5036 4971 5007 0
-5036 -4971 -5007 0
5036 -4971 5007 0
5036 4971 -5007 0
-5037 5006 5016 0
-5037 -5006 -5016 0
5037 -5006 5016 0
5037 5006 -5016 0
5038 -5039 -5049 0
-5038 5039 0
-5038 5049 0
5039 -5040 -5047 0
-5039 5040 0
-5039 5047 0
-5040 5041 5043 0
-5040 5043 5045 0
-5040 5041 5045 0
5040 -5041 -5045 0
5040 -5043 -5045 0
5040 -5041 -5043 0
-5041 5454 5042 0
-5041 -5454 -5042 0
5041 -5454 5042 0
5041 5454 -5042 0
-5042 842 4747 0
-5042 5475 842 0
5042 -842 0
5042 -5475 -4747 0
-5043 5453 5044 0
-5043 -5453 -5044 0
5043 -5453 5044 0
5043 5453 -5044 0
-5044 5458 5472 0
-5044 4630 4669 0
-5044 5472 4630 0
-5044 5458 4669 0
5044 -5458 -4630 0
5044 -5472 -4669 0
-5045 5464 5046 0
-5045 -5464 -5046 0
5045 -5464 5046 0
5045 5464 -5046 0
-5046 4540 4541 0
-5046 5444 5473 0
-5046 5444 4541 0
-5046 5473 4540 0
5046 -5444 -4540 0
5046 -5473 -4541 0
-5047 5033 5048 0
-5047 -5033 -5048 0
5047 -5033 5048 0
5047 5033 -5048 0
-5048 -5029 -5031 0
-5048 5029 5031 0
5048 5029 -5031 0
5048 -5029 5031 0
-5049 5035 5050 0
-5049 -5035 -5050 0
5049 -5035 5050 0
5049 5035 -5050 0
-5050 5026 5028 0
-5050 -5026 -5028 0
5050 -5026 5028 0
5050 5026 -5028 0
5051 -5021 -5052 0
-5051 5021 0
-5051 5052 0
5052 -5053 -5054 0
-5052 5053 0
-5052 5054 0
-5053 5025 5037 0
-5053 -5025 -5037 0
5053 -5025 5037 0
5053 5025 -5037 0
-5054 5039 5049 0
-5054 -5039 -5049 0
5054 -5039 5049 0
5054 5039 -5049 0
-5055 5056 5077 0
-5055 5077 5097 0
-5055 5077 5100 0
5055 -5077 0
5055 -5056 -5097 -5100 0
5056 -5057 -5069 0
-5056 5057 0
-5056 5069 0
-5057 5058 5068 0
-5057 -5058 -5068 0
5057 -5058 5068 0
5057 5058 -5068 0
-5058 5032 5059 0
-5058 5059 5066 0
-5058 5032 5066 0
5058 -5059 -5066 0
5058 -5032 -5059 0
5058 -5032 -5066 0
-5059 5060 5062 0
-5059 5062 5064 0
-5059 5060 5064 0
5059 -5060 -5064 0
5059 -5062 -5064 0
5059 -5060 -5062 0
-5060 5454 5061 0
-5060 -5454 -5061 0
5060 -5454 5061 0
5060 5454 -5061 0
-5061 884 4747 0
-5061 5472 884 0
5061 -884 0
5061 -5472 -4747 0
-5062 5453 5063 0
-5062 -5453 -5063 0
5062 -5453 5063 0
5062 5453 -5063 0
-5063 5444 5458 0
-5063 4630 4669 0
-5063 5458 4630 0
-5063 5444 4669 0
5063 -5444 -4630 0
5063 -5458 -4669 0
-5064 5464 5065 0
-5064 -5464 -5065 0
5064 -5464 5065 0
5064 5464 -5065 0
-5065 4540 4541 0
-5065 5445 5473 0
-5065 5473 4541 0
-5065 5445 4540 0
5065 -5473 -4540 0
5065 -5445 -4541 0
-5066 5045 5067 0
-5066 -5045 -5067 0
5066 -5045 5067 0
5066 5045 -5067 0
-5067 5041 5043 0
-5067 -5041 -5043 0
5067 -5041 5043 0
5067 5041 -5043 0
-5068 5040 5047 0
-5068 -5040 -5047 0
5068 -5040 5047 0
5068 5040 -5047 0
-5069 5070 5075 0
-5069 -5070 -5075 0
5069 -5070 5075 0
5069 5070 -5075 0
5070 -5071 -5073 0
-5070 5071 0
-5070 5073 0
5071 -5464 5072 0
-5071 5464 0
-5071 -5072 0
5072 -5445 -4540 0
-5072 5445 0
-5072 4540 0
-5073 5064 5074 0
-5073 -5064 -5074 0
5073 -5064 5074 0
5073 5064 -5074 0
-5074 5060 5062 0
-5074 -5060 -5062 0
5074 -5060 5062 0
5074 5060 -5062 0
-5075 5066 5076 0
-5075 -5066 -5076 0
5075 -5066 5076 0
5075 5066 -5076 0
-5076 5032 5059 0
-5076 -5032 -5059 0
5076 -5032 5059 0
5076 5032 -5059 0
-5077 5058 5068 5079 0
-5077 5058 5078 5079 0
-5077 5068 5078 5079 0
5077 -5068 -5078 0
5077 -5058 -5068 0
5077 -5079 0
5077 -5058 -5078 0
5078 -5070 -5075 0
-5078 5070 0
-5078 5075 0
5079 -5056 -5080 0
-5079 5056 0
-5079 5080 0
-5080 5081 5086 0
-5080 5086 5087 0
-5080 5081 5087 0
5080 -5086 -5087 0
5080 -5081 -5086 0
5080 -5081 -5087 0
-5081 5072 5082 0
-5081 5082 5084 0
-5081 5072 5084 0
5081 -5082 -5084 0
5081 -5072 -5082 0
5081 -5072 -5084 0
-5082 5454 5083 0
-5082 -5454 -5083 0
5082 -5454 5083 0
5082 5454 -5083 0
-5083 917 4747 0
-5083 5458 917 0
5083 -917 0
5083 -5458 -4747 0
-5084 5453 5085 0
-5084 -5453 -5085 0
5084 -5453 5085 0
5084 5453 -5085 0
-5085 5444 5473 0
-5085 4630 4669 0
-5085 5473 4669 0
-5085 5444 4630 0
5085 -5444 -4669 0
5085 -5473 -4630 0
-5086 5071 5073 0
-5086 -5071 -5073 0
5086 -5071 5073 0
5086 5071 -5073 0
5087 -5088 -5095 0
-5087 5088 0
-5087 5095 0
-5088 5089 5091 0
-5088 5091 5093 0
-5088 5089 5093 0
5088 -5091 -5093 0
5088 -5089 -5091 0
5088 -5089 -5093 0
-5089 5454 5090 0
-5089 -5454 -5090 0
5089 -5454 5090 0
5089 5454 -5090 0
-5090 956 4747 0
-5090 5444 956 0
5090 -956 0
5090 -5444 -4747 0
-5091 5453 5092 0
-5091 -5453 -5092 0
5091 -5453 5092 0
5091 5453 -5092 0
-5092 5445 5473 0
-5092 4630 4669 0
-5092 5473 4630 0
-5092 5445 4669 0
5092 -5445 -4630 0
5092 -5473 -4669 0
5093 -5453 5094 0
-5093 5453 0
-5093 -5094 0
5094 -5445 -4669 0
-5094 5445 0
-5094 4669 0
-5095 5072 5096 0
-5095 -5072 -5096 0
5095 -5072 5096 0
5095 5072 -5096 0
-5096 5082 5084 0
-5096 -5082 -5084 0
5096 -5082 5084 0
5096 5082 -5084 0
5097 -5098 -5099 0
-5097 5098 0
-5097 5099 0
-5098 5081 5086 0
-5098 -5081 -5086 0
5098 -5081 5086 0
5098 5081 -5086 0
-5099 5088 5095 0
-5099 -5088 -5095 0
5099 -5088 5095 0
5099 5088 -5095 0
-5100 5104 0
-5100 5101 5107 0
-5100 5101 5106 0
5100 -5101 -5104 0
5100 -5104 -5106 -5107 0
5101 -5094 -5102 0
-5101 5094 0
-5101 5102 0
-5102 5454 5103 0
-5102 -5454 -5103 0
5102 -5454 5103 0
5102 5454 -5103 0
-5103 984 4747 0
-5103 5473 984 0
5103 -984 0
5103 -5473 -4747 0
-5104 5093 5105 0
-5104 -5093 -5105 0
5104 -5093 5105 0
5104 5093 -5105 0
-5105 5089 5091 0
-5105 -5089 -5091 0
5105 -5089 5091 0
5105 5089 -5091 0
5106 5445 -5454 1008 0
-5106 -5445 0
-5106 5454 0
-5106 -1008 0
-5107 5094 5102 0
-5107 -5094 -5102 0
5107 -5094 5102 0
5107 5094 -5102 0
5108 -4874 -5109 0
-5108 4874 0
-5108 5109 0
5109 -5110 -5111 0
-5109 5110 0
-5109 5111 0
-5110 4816 4845 0
-5110 -4816 -4845 0
5110 -4816 4845 0
5110 4816 -4845 0
-5111 4848 4872 0
-5111 -4848 -4872 0
5111 -4848 4872 0
5111 4848 -4872 0
-5112 5113 5172 0
-5112 -5113 -5172 0
5112 -5113 5172 0
5112 5113 -5172 0
-5113 5114 5143 0
-5113 -5114 -5143 0
5113 -5114 5143 0
5113 5114 -5143 0
-5114 -5115 -5137 0
-5114 5115 5137 0
5114 5115 -5137 0
5114 -5115 5137 0
5115 5116 -5117 0
5115 -5116 5117 0
-5115 -5116 -5117 0
-5115 5116 5117 0
-5116 -3391 3401 0
-5116 3401 3402 0
-5116 -3391 3402 0
5116 3391 -3402 0
5116 -3401 -3402 0
5116 3391 -3401 0
5117 5118 -5130 0
5117 -5118 5130 0
-5117 -5118 -5130 0
-5117 5118 5130 0
-5118 5119 5129 0
-5118 -5119 -5129 0
5118 -5119 5129 0
5118 5119 -5129 0
-5119 5120 5121 0
-5119 -5120 -5121 0
5119 -5120 5121 0
5119 5120 -5121 0
-5120 -5501 3397 0
-5120 3397 3399 0
-5120 -5501 3399 0
5120 5501 -3399 0
5120 -3397 -3399 0
5120 5501 -3397 0
-5121 5122 5127 0
-5121 -5122 -5127 0
5121 -5122 5127 0
5121 5122 -5127 0
-5122 5123 5125 0
-5122 -5123 -5125 0
5122 -5123 5125 0
5122 5123 -5125 0
-5123 -5511 -5124 0
-5123 5511 5124 0
5123 5511 -5124 0
5123 -5511 5124 0
5124 -5516 -3310 0
-5124 5516 0
-5124 3310 0
-5125 5517 5126 0
-5125 -5517 -5126 0
5125 -5517 5126 0
5125 5517 -5126 0
-5126 3313 3314 0
-5126 5434 5504 0
-5126 5504 3314 0
-5126 5434 3313 0
5126 -5504 -3313 0
5126 -5434 -3314 0
-5127 5508 5128 0
-5127 -5508 -5128 0
5127 -5508 5128 0
5127 5508 -5128 0
-5128 3319 3320 0
-5128 5435 5519 0
-5128 5435 3320 0
-5128 5519 3319 0
5128 -5435 -3319 0
5128 -5519 -3320 0
-5129 3404 3406 0
-5129 3405 3403 0
-5129 3405 3406 0
-5129 3404 3403 0
5129 -3404 -3405 0
5129 -3403 -3406 0
5130 -5131 5134 0
5130 5131 -5134 0
-5130 5131 5134 0
-5130 -5131 -5134 0
-5131 5132 5133 0
-5131 -5132 -5133 0
5131 -5132 5133 0
5131 5132 -5133 0
-5132 2094 3408 0
-5132 3408 3410 0
-5132 2094 3410 0
5132 -3408 -3410 0
5132 -2094 -3408 0
5132 -2094 -3410 0
-5133 3393 3394 0
-5133 3394 -3395 0
-5133 3393 -3395 0
5133 -3393 3395 0
5133 -3394 3395 0
5133 -3393 -3394 0
-5134 2089 5135 0
-5134 -2089 -5135 0
5134 -2089 5135 0
5134 2089 -5135 0
-5135 5446 5136 0
-5135 -5446 -5136 0
5135 -5446 5136 0
5135 5446 -5136 0
-5136 3323 3324 0
-5136 5520 5522 0
-5136 5520 3324 0
-5136 5522 3323 0
5136 -5520 -3323 0
5136 -5522 -3324 0
5137 3666 -5140 0
5137 3670 -5140 0
5137 5138 -5140 0
-5137 5140 0
-5137 -3666 -3670 -5138 0
5138 -3901 5139 0
-5138 3901 0
-5138 -5139 0
-5139 3299 3451 0
5139 -3299 0
5139 -3451 0
5140 3527 5141 -5142 0
5140 5141 -5142 5138 0
-5140 -5141 0
-5140 5142 0
-5140 -3527 -5138 0
-5141 3300 -3389 0
-5141 -3389 3413 0
-5141 3300 3413 0
5141 3389 -3413 0
5141 -3300 3389 0
5141 -3300 -3413 0
-5142 3453 5139 0
5142 -3453 0
5142 -5139 0
-5143 -5144 -5166 0
-5143 5144 5166 0
5143 5144 -5166 0
5143 -5144 5166 0
5144 5145 -5146 0
5144 -5145 5146 0
-5144 -5145 -5146 0
-5144 5145 5146 0
-5145 -3995 4005 0
-5145 4005 4006 0
-5145 -3995 4006 0
5145 3995 -4006 0
5145 -4005 -4006 0
5145 3995 -4005 0
5146 5147 -5159 0
5146 -5147 5159 0
-5146 -5147 -5159 0
-5146 5147 5159 0
-5147 5148 5158 0
-5147 -5148 -5158 0
5147 -5148 5158 0
5147 5148 -5158 0
-5148 5149 5150 0
-5148 -5149 -5150 0
5148 -5149 5150 0
5148 5149 -5150 0
-5149 -5485 4001 0
-5149 4001 4003 0
-5149 -5485 4003 0
5149 5485 -4003 0
5149 -4001 -4003 0
5149 5485 -4001 0
-5150 5151 5156 0
-5150 -5151 -5156 0
5150 -5151 5156 0
5150 5151 -5156 0
-5151 5152 5154 0
-5151 -5152 -5154 0
5151 -5152 5154 0
5151 5152 -5154 0
-5152 -5479 -5153 0
-5152 5479 5153 0
5152 5479 -5153 0
5152 -5479 5153 0
5153 -5440 -3916 0
-5153 5440 0
-5153 3916 0
-5154 5491 5155 0
-5154 -5491 -5155 0
5154 -5491 5155 0
5154 5491 -5155 0
-5155 3919 3920 0
-5155 5488 5490 0
-5155 5488 3920 0
-5155 5490 3919 0
5155 -5488 -3919 0
5155 -5490 -3920 0
-5156 5510 5157 0
-5156 -5510 -5157 0
5156 -5510 5157 0
5156 5510 -5157 0
-5157 3925 3926 0
-5157 5441 5481 0
-5157 5481 3926 0
-5157 5441 3925 0
5157 -5481 -3925 0
5157 -5441 -3926 0
-5158 4008 4010 0
-5158 4008 4009 0
-5158 4009 4010 0
5158 -4009 -4010 0
5158 -4008 -4010 0
5158 -4008 -4009 0
5159 -5160 5163 0
5159 5160 -5163 0
-5159 5160 5163 0
-5159 -5160 -5163 0
-5160 5161 5162 0
-5160 -5161 -5162 0
5160 -5161 5162 0
5160 5161 -5162 0
-5161 1090 4012 0
-5161 4012 4014 0
-5161 1090 4014 0
5161 -4012 -4014 0
5161 -1090 -4012 0
5161 -1090 -4014 0
-5162 3997 3998 0
-5162 3998 -3999 0
-5162 3997 -3999 0
5162 -3997 3999 0
5162 -3998 3999 0
5162 -3997 -3998 0
-5163 1085 5164 0
-5163 -1085 -5164 0
5163 -1085 5164 0
5163 1085 -5164 0
-5164 5487 5165 0
-5164 -5487 -5165 0
5164 -5487 5165 0
5164 5487 -5165 0
-5165 3929 3930 0
-5165 5493 5495 0
-5165 5493 3930 0
-5165 5495 3929 0
5165 -5493 -3929 0
5165 -5495 -3930 0
5166 4273 -5169 0
5166 4277 -5169 0
5166 5167 -5169 0
-5166 5169 0
-5166 -4273 -4277 -5167 0
5167 -4130 5168 0
-5167 4130 0
-5167 -5168 0
-5168 3905 4054 0
5168 -3905 0
5168 -4054 0
5169 4134 5170 -5171 0
5169 5170 -5171 5167 0
-5169 -5170 0
-5169 5171 0
-5169 -4134 -5167 0
-5170 3906 -3993 0
-5170 -3993 4017 0
-5170 3906 4017 0
5170 3993 -4017 0
5170 -3906 3993 0
5170 -3906 -4017 0
-5171 4056 5168 0
5171 -4056 0
5171 -5168 0
-5172 -5173 -5195 0
-5172 5173 5195 0
5172 5173 -5195 0
5172 -5173 5195 0
5173 5174 -5175 0
5173 -5174 5175 0
-5173 -5174 -5175 0
-5173 5174 5175 0
-5174 -4599 4609 0
-5174 4609 4610 0
-5174 -4599 4610 0
5174 4599 -4610 0
5174 -4609 -4610 0
5174 4599 -4609 0
5175 5176 -5188 0
5175 -5176 5188 0
-5175 -5176 -5188 0
-5175 5176 5188 0
-5176 5177 5187 0
-5176 -5177 -5187 0
5176 -5177 5187 0
5176 5177 -5187 0
-5177 5178 5179 0
-5177 -5178 -5179 0
5177 -5178 5179 0
5177 5178 -5179 0
-5178 -5466 4605 0
-5178 4605 4607 0
-5178 -5466 4607 0
5178 5466 -4607 0
5178 -4605 -4607 0
5178 5466 -4605 0
-5179 5180 5185 0
-5179 -5180 -5185 0
5179 -5180 5185 0
5179 5180 -5185 0
-5180 5181 5183 0
-5180 -5181 -5183 0
5180 -5181 5183 0
5180 5181 -5183 0
-5181 -5461 -5182 0
-5181 5461 5182 0
5181 5461 -5182 0
5181 -5461 5182 0
5182 -5460 -4520 0
-5182 5460 0
-5182 4520 0
-5183 5456 5184 0
-5183 -5456 -5184 0
5183 -5456 5184 0
5183 5456 -5184 0
-5184 4523 4524 0
-5184 5457 5459 0
-5184 5459 4524 0
-5184 5457 4523 0
5184 -5459 -4523 0
5184 -5457 -4524 0
-5185 5451 5186 0
-5185 -5451 -5186 0
5185 -5451 5186 0
5185 5451 -5186 0
-5186 4529 4530 0
-5186 5455 5502 0
-5186 5502 4530 0
-5186 5455 4529 0
5186 -5502 -4529 0
5186 -5455 -4530 0
-5187 4612 4614 0
-5187 4613 4611 0
-5187 4613 4614 0
-5187 4612 4611 0
5187 -4612 -4613 0
5187 -4611 -4614 0
5188 -5189 5192 0
5188 5189 -5192 0
-5188 5189 5192 0
-5188 -5189 -5192 0
-5189 5190 5191 0
-5189 -5190 -5191 0
5189 -5190 5191 0
5189 5190 -5191 0
-5190 5474 4618 0
-5190 4616 4618 0
-5190 5474 4616 0
-5190 5477 4618 0
-5190 5477 4616 0
5190 -4616 -4618 0
5190 -5474 -5477 -4618 0
5190 -5474 -5477 -4616 0
-5191 4601 4602 0
-5191 4602 -4603 0
-5191 4601 -4603 0
5191 -4601 4603 0
5191 -4602 4603 0
5191 -4601 -4602 0
-5192 79 5193 0
-5192 -79 -5193 0
5192 -79 5193 0
5192 79 -5193 0
-5193 5474 5194 0
-5193 -5474 -5194 0
5193 -5474 5194 0
5193 5474 -5194 0
-5194 4533 4534 0
-5194 5448 5480 0
-5194 5480 4534 0
-5194 5448 4533 0
5194 -5480 -4533 0
5194 -5448 -4534 0
5195 5108 -5198 0
5195 5196 -5198 0
5195 4877 -5198 0
-5195 5198 0
-5195 -4877 -5108 -5196 0
5196 -4734 5197 0
-5196 4734 0
-5196 -5197 0
-5197 4509 4658 0
5197 -4509 0
5197 -4658 0
5198 4738 5199 -5200 0
5198 5199 -5200 5196 0
-5198 -5199 0
-5198 5200 0
-5198 -4738 -5196 0
-5199 4510 -4597 0
-5199 -4597 4621 0
-5199 4510 4621 0
5199 4597 -4621 0
5199 -4510 4597 0
5199 -4510 -4621 0
-5200 4660 5197 0
5200 -4660 0
5200 -5197 0
-5201 5202 5239 0
-5201 5239 5283 0
-5201 5239 5429 0
5201 -5239 0
5201 -5202 -5283 -5429 0
5202 -5203 -5220 -5228 5238 0
5202 -5203 -5220 5228 -5238 0
-5202 5220 0
-5202 -5228 -5238 0
-5202 5203 0
-5202 5228 5238 0
5203 -5204 5211 -5216 0
5203 5204 -5211 -5216 0
-5203 5216 0
-5203 -5204 -5211 0
-5203 5204 5211 0
-5204 5205 5207 0
-5204 5207 5209 0
-5204 5205 5209 0
5204 -5205 -5209 0
5204 -5207 -5209 0
5204 -5205 -5207 0
-5205 3902 5206 0
-5205 -3902 -5206 0
5205 -3902 5206 0
5205 3902 -5206 0
-5206 3490 3526 0
-5206 3490 3903 0
5206 -3490 0
5206 -3526 -3903 0
-5207 4131 5208 0
-5207 -4131 -5208 0
5207 -4131 5208 0
5207 4131 -5208 0
-5208 4093 4132 0
-5208 4093 4133 0
5208 -4093 0
5208 -4132 -4133 0
-5209 4735 5210 0
-5209 -4735 -5210 0
5209 -4735 5210 0
5209 4735 -5210 0
-5210 4697 4736 0
-5210 4697 4737 0
5210 -4697 0
5210 -4736 -4737 0
-5211 5212 5213 0
-5211 -5212 -5213 0
5211 -5212 5213 0
5211 5212 -5213 0
-5212 -4658 -4659 0
-5212 4658 4659 0
5212 4658 -4659 0
5212 -4658 4659 0
-5213 5214 5215 0
-5213 -5214 -5215 0
5213 -5214 5215 0
5213 5214 -5215 0
-5214 -3451 -3452 0
-5214 3451 3452 0
5214 3451 -3452 0
5214 -3451 3452 0
-5215 -4054 -4055 0
-5215 4054 4055 0
5215 4054 -4055 0
5215 -4054 4055 0
-5216 5217 5218 0
-5216 -5217 -5218 0
5216 -5217 5218 0
5216 5217 -5218 0
-5217 5214 5215 0
-5217 5215 5212 0
-5217 5214 5212 0
5217 -5214 -5212 0
5217 -5215 -5212 0
5217 -5214 -5215 0
-5218 4508 5219 0
-5218 -4508 -5219 0
5218 -4508 5219 0
5218 4508 -5219 0
-5219 3298 3904 0
-5219 -3298 -3904 0
5219 -3298 3904 0
5219 3298 -3904 0
-5220 5221 5226 0
-5220 -5221 -5226 0
5220 -5221 5226 0
5220 5221 -5226 0
-5221 5223 5224 0
-5221 5222 5225 0
-5221 5222 5224 0
-5221 5223 5225 0
5221 -5224 -5225 0
5221 -5222 -5223 0
-5222 3526 3903 0
-5222 -3526 -3903 0
5222 -3526 3903 0
5222 3526 -3903 0
-5223 4132 4133 0
-5223 -4132 -4133 0
5223 -4132 4133 0
5223 4132 -4133 0
-5224 4736 4737 0
-5224 -4736 -4737 0
5224 -4736 4737 0
5224 4736 -4737 0
-5225 5222 5223 0
-5225 -5222 -5223 0
5225 -5222 5223 0
5225 5222 -5223 0
-5226 5209 5227 0
-5226 -5209 -5227 0
5226 -5209 5227 0
5226 5209 -5227 0
-5227 5205 5207 0
-5227 -5205 -5207 0
5227 -5205 5207 0
5227 5205 -5207 0
-5228 5229 5232 0
-5228 5232 5235 0
-5228 5229 5235 0
5228 -5229 -5235 0
5228 -5232 -5235 0
5228 -5229 -5232 0
-5229 3605 5230 0
-5229 -3605 -5230 0
5229 -3605 5230 0
5229 3605 -5230 0
-5230 3569 3606 0
-5230 3569 5231 0
5230 -3569 0
5230 -3606 -5231 0
-5231 3607 3670 0
-5231 3607 3667 0
5231 -3607 0
5231 -3667 -3670 0
-5232 4212 5233 0
-5232 -4212 -5233 0
5232 -4212 5233 0
5232 4212 -5233 0
-5233 4176 4213 0
-5233 4176 5234 0
5233 -4176 0
5233 -4213 -5234 0
-5234 4214 4277 0
-5234 4214 4274 0
5234 -4214 0
5234 -4274 -4277 0
-5235 4875 5236 0
-5235 -4875 -5236 0
5235 -4875 5236 0
5235 4875 -5236 0
-5236 4780 4876 0
-5236 4780 5237 0
5236 -4780 0
5236 -4876 -5237 0
-5237 4815 4877 0
-5237 4815 5109 0
5237 -4815 0
5237 -4877 -5109 0
-5238 5224 5225 0
-5238 -5224 -5225 0
5238 -5224 5225 0
5238 5224 -5225 0
-5239 5240 5203 5242 0
-5239 5240 5241 5242 0
5239 -5240 0
5239 -5242 0
5239 -5203 -5241 0
-5240 5217 5218 0
-5240 5218 5211 0
-5240 5217 5211 0
-5240 5218 5204 0
-5240 5217 5204 0
5240 -5217 -5218 0
5240 -5217 -5204 -5211 0
5240 -5218 -5204 -5211 0
-5241 5221 5226 0
-5241 5226 5238 0
-5241 5221 5238 0
-5241 5226 5228 0
-5241 5221 5228 0
5241 -5221 -5226 0
5241 -5221 -5228 -5238 0
5241 -5226 -5228 -5238 0
5242 -5243 -5202 0
5242 -5259 -5261 -5202 0
-5242 5202 0
-5242 5243 5259 0
-5242 5243 5261 0
-5243 5244 5248 0
-5243 5248 5257 0
-5243 5244 5257 0
-5243 5248 5250 0
-5243 5244 5250 0
5243 -5244 -5248 0
5243 -5244 -5250 -5257 0
5243 -5248 -5250 -5257 0
-5244 5245 5246 0
-5244 5246 5247 0
-5244 5245 5247 0
5244 -5245 -5247 0
5244 -5246 -5247 0
5244 -5245 -5246 0
-5245 3606 5231 0
-5245 -3606 -5231 0
5245 -3606 5231 0
5245 3606 -5231 0
-5246 4213 5234 0
-5246 -4213 -5234 0
5246 -4213 5234 0
5246 4213 -5234 0
-5247 4876 5237 0
-5247 -4876 -5237 0
5247 -4876 5237 0
5247 4876 -5237 0
-5248 5235 5249 0
-5248 -5235 -5249 0
5248 -5235 5249 0
5248 5235 -5249 0
-5249 5229 5232 0
-5249 -5229 -5232 0
5249 -5229 5232 0
5249 5229 -5232 0
-5250 5251 5253 0
-5250 5253 5255 0
-5250 5251 5255 0
5250 -5251 -5255 0
5250 -5253 -5255 0
5250 -5251 -5253 0
-5251 3668 5252 0
-5251 -3668 -5252 0
5251 -3668 5252 0
5251 3668 -5252 0
-5252 3639 3669 0
-5252 3639 3670 0
5252 -3639 0
5252 -3669 -3670 0
-5253 4275 5254 0
-5253 -4275 -5254 0
5253 -4275 5254 0
5253 4275 -5254 0
-5254 4246 4276 0
-5254 4246 4277 0
5254 -4246 0
5254 -4276 -4277 0
-5255 5110 5256 0
-5255 -5110 -5256 0
5255 -5110 5256 0
5255 5110 -5256 0
-5256 4847 4877 0
-5256 4847 5111 0
5256 -4847 0
5256 -4877 -5111 0
-5257 5247 5258 0
-5257 -5247 -5258 0
5257 -5247 5258 0
5257 5247 -5258 0
-5258 5245 5246 0
-5258 -5245 -5246 0
5258 -5245 5246 0
5258 5245 -5246 0
5259 -5250 5257 -5260 0
5259 5250 -5257 -5260 0
-5259 5260 0
-5259 -5250 -5257 0
-5259 5250 5257 0
-5260 5244 5248 0
-5260 -5244 -5248 0
5260 -5244 5248 0
5260 5244 -5248 0
-5261 5262 5266 0
-5261 5266 5281 0
-5261 5262 5281 0
-5261 5266 5268 0
-5261 5262 5268 0
5261 -5262 -5266 0
5261 -5262 -5268 -5281 0
5261 -5266 -5268 -5281 0
-5262 5263 5264 0
-5262 5264 5265 0
-5262 5263 5265 0
5262 -5263 -5265 0
5262 -5264 -5265 0
5262 -5263 -5264 0
-5263 3669 3670 0
-5263 -3669 -3670 0
5263 -3669 3670 0
5263 3669 -3670 0
-5264 4276 4277 0
-5264 -4276 -4277 0
5264 -4276 4277 0
5264 4276 -4277 0
-5265 4877 5111 0
-5265 -4877 -5111 0
5265 -4877 5111 0
5265 4877 -5111 0
-5266 5255 5267 0
-5266 -5255 -5267 0
5266 -5255 5267 0
5266 5255 -5267 0
-5267 5251 5253 0
-5267 -5251 -5253 0
5267 -5251 5253 0
5267 5251 -5253 0
-5268 5269 5273 0
-5268 5273 5277 0
-5268 5269 5277 0
5268 -5269 -5277 0
5268 -5273 -5277 0
5268 -5269 -5273 0
-5269 3673 5270 0
-5269 -3673 -5270 0
5269 -3673 5270 0
5269 3673 -5270 0
-5270 3773 3701 0
-5270 3773 5271 0
5270 -3773 0
5270 -3701 -5271 0
-5271 3775 5272 0
-5271 3775 3723 0
5271 -3775 0
5271 -3723 -5272 0
-5272 3777 3848 0
-5272 3777 3844 0
5272 -3777 0
5272 -3844 -3848 0
-5273 4280 5274 0
-5273 -4280 -5274 0
5273 -4280 5274 0
5273 4280 -5274 0
-5274 4379 4308 0
-5274 4379 5275 0
5274 -4379 0
5274 -4308 -5275 0
-5275 4381 5276 0
-5275 4381 4330 0
5275 -4381 0
5275 -4330 -5276 0
-5276 4383 4455 0
-5276 4383 4451 0
5276 -4383 0
5276 -4451 -4455 0
-5277 4880 5278 0
-5277 -4880 -5278 0
5277 -4880 5278 0
5277 4880 -5278 0
-5278 4980 4908 0
-5278 4980 5279 0
5278 -4980 0
5278 -4908 -5279 0
-5279 4982 5280 0
-5279 4982 4930 0
5279 -4982 0
5279 -4930 -5280 0
-5280 4984 5055 0
-5280 4984 5051 0
5280 -4984 0
5280 -5051 -5055 0
-5281 5265 5282 0
-5281 -5265 -5282 0
5281 -5265 5282 0
5281 5265 -5282 0
-5282 5263 5264 0
-5282 -5263 -5264 0
5282 -5263 5264 0
5282 5263 -5264 0
-5283 5284 5321 0
-5283 5321 5362 0
-5283 5321 5427 0
5283 -5321 0
5283 -5284 -5362 -5427 0
5284 5285 -5295 -5300 -5310 0
5284 -5285 5295 -5300 -5310 0
-5284 5310 0
-5284 -5285 -5295 0
-5284 5300 0
-5284 5285 5295 0
-5285 5286 5289 0
-5285 5289 5292 0
-5285 5286 5292 0
5285 -5286 -5292 0
5285 -5289 -5292 0
5285 -5286 -5289 0
-5286 3815 5287 0
-5286 -3815 -5287 0
5286 -3815 5287 0
5286 3815 -5287 0
-5287 3798 3811 0
-5287 3811 5288 0
-5287 3798 5288 0
5287 -3811 -5288 0
5287 -3798 -3811 0
5287 -3798 -5288 0
-5288 3817 3848 0
-5288 3817 3845 0
5288 -3817 0
5288 -3845 -3848 0
-5289 4422 5290 0
-5289 -4422 -5290 0
5289 -4422 5290 0
5289 4422 -5290 0
-5290 4404 4423 0
-5290 4404 5291 0
5290 -4404 0
5290 -4423 -5291 0
-5291 4424 4455 0
-5291 4424 4452 0
5291 -4424 0
5291 -4452 -4455 0
-5292 5022 5293 0
-5292 -5022 -5293 0
5292 -5022 5293 0
5292 5022 -5293 0
-5293 5004 5023 0
-5293 5004 5294 0
5293 -5004 0
5293 -5023 -5294 0
-5294 5024 5055 0
-5294 5024 5052 0
5294 -5024 0
5294 -5052 -5055 0
-5295 5296 5297 0
-5295 -5296 -5297 0
5295 -5296 5297 0
5295 5296 -5297 0
-5296 4954 5280 0
-5296 -4954 -5280 0
5296 -4954 5280 0
5296 4954 -5280 0
-5297 5298 5299 0
-5297 -5298 -5299 0
5297 -5298 5299 0
5297 5298 -5299 0
-5298 3747 5272 0
-5298 -3747 -5272 0
5298 -3747 5272 0
5298 3747 -5272 0
-5299 4354 5276 0
-5299 -4354 -5276 0
5299 -4354 5276 0
5299 4354 -5276 0
-5300 5301 5302 0
-5300 -5301 -5302 0
5300 -5301 5302 0
5300 5301 -5302 0
-5301 5298 5299 0
-5301 5299 5296 0
-5301 5298 5296 0
5301 -5298 -5296 0
5301 -5299 -5296 0
5301 -5298 -5299 0
-5302 5303 5305 0
-5302 -5303 -5305 0
5302 -5303 5305 0
5302 5303 -5305 0
-5303 4931 5304 0
-5303 -4931 -5304 0
5303 -4931 5304 0
5303 4931 -5304 0
-5304 4983 4954 0
-5304 4983 5280 0
5304 -4983 0
5304 -4954 -5280 0
-5305 5306 5308 0
-5305 -5306 -5308 0
5305 -5306 5308 0
5305 5306 -5308 0
-5306 3724 5307 0
-5306 -3724 -5307 0
5306 -3724 5307 0
5306 3724 -5307 0
-5307 3776 3747 0
-5307 3776 5272 0
5307 -3776 0
5307 -3747 -5272 0
-5308 4331 5309 0
-5308 -4331 -5309 0
5308 -4331 5309 0
5308 4331 -5309 0
-5309 4382 4354 0
-5309 4382 5276 0
5309 -4382 0
5309 -4354 -5276 0
5310 -5311 5312 -5317 0
5310 5311 -5312 -5317 0
-5310 5317 0
-5310 -5311 -5312 0
-5310 5311 5312 0
-5311 5306 5308 0
-5311 5308 5303 0
-5311 5306 5303 0
5311 -5306 -5303 0
5311 -5308 -5303 0
5311 -5306 -5308 0
-5312 5313 5314 0
-5312 -5313 -5314 0
5312 -5313 5314 0
5312 5313 -5314 0
-5313 4908 5279 0
-5313 -4908 -5279 0
5313 -4908 5279 0
5313 4908 -5279 0
-5314 5315 5316 0
-5314 -5315 -5316 0
5314 -5315 5316 0
5314 5315 -5316 0
-5315 3701 5271 0
-5315 -3701 -5271 0
5315 -3701 5271 0
5315 3701 -5271 0
-5316 4308 5275 0
-5316 -4308 -5275 0
5316 -4308 5275 0
5316 4308 -5275 0
-5317 5318 5319 0
-5317 -5318 -5319 0
5317 -5318 5319 0
5317 5318 -5319 0
-5318 5315 5316 0
-5318 5316 5313 0
-5318 5315 5313 0
5318 -5315 -5313 0
5318 -5316 -5313 0
5318 -5315 -5316 0
-5319 5277 5320 0
-5319 -5277 -5320 0
5319 -5277 5320 0
5319 5277 -5320 0
-5320 5269 5273 0
-5320 -5269 -5273 0
5320 -5269 5273 0
5320 5269 -5273 0
-5321 5322 5323 5324 0
-5321 5322 5310 5324 0
5321 -5322 0
5321 -5324 0
5321 -5323 -5310 0
-5322 5318 5319 0
-5322 5319 5312 0
-5322 5318 5312 0
-5322 5319 5311 0
-5322 5318 5311 0
5322 -5318 -5319 0
5322 -5318 -5311 -5312 0
5322 -5319 -5311 -5312 0
-5323 5301 5302 0
-5323 5302 5295 0
-5323 5301 5295 0
-5323 5302 5285 0
-5323 5301 5285 0
5323 -5301 -5302 0
5323 -5301 -5285 -5295 0
5323 -5302 -5285 -5295 0
5324 -5325 -5284 0
5324 -5341 -5343 -5284 0
-5324 5284 0
-5324 5325 5341 0
-5324 5325 5343 0
-5325 5326 5331 0
-5325 5331 5340 0
-5325 5326 5340 0
-5325 5331 5333 0
-5325 5326 5333 0
5325 -5326 -5331 0
5325 -5326 -5333 -5340 0
5325 -5331 -5333 -5340 0
-5326 5328 5329 0
-5326 5327 5330 0
-5326 5327 5329 0
-5326 5328 5330 0
5326 -5329 -5330 0
5326 -5327 -5328 0
-5327 3816 5288 0
-5327 -3816 -5288 0
5327 -3816 5288 0
5327 3816 -5288 0
-5328 4423 5291 0
-5328 -4423 -5291 0
5328 -4423 5291 0
5328 4423 -5291 0
-5329 5023 5294 0
-5329 -5023 -5294 0
5329 -5023 5294 0
5329 5023 -5294 0
-5330 5327 5328 0
-5330 -5327 -5328 0
5330 -5327 5328 0
5330 5327 -5328 0
-5331 5292 5332 0
-5331 -5292 -5332 0
5331 -5292 5332 0
5331 5292 -5332 0
-5332 5286 5289 0
-5332 -5286 -5289 0
5332 -5286 5289 0
5332 5286 -5289 0
-5333 5334 5336 0
-5333 5336 5338 0
-5333 5334 5338 0
5333 -5334 -5338 0
5333 -5336 -5338 0
5333 -5334 -5336 0
-5334 3846 5335 0
-5334 -3846 -5335 0
5334 -3846 5335 0
5334 3846 -5335 0
-5335 3831 3847 0
-5335 3831 3848 0
5335 -3831 0
5335 -3847 -3848 0
-5336 4453 5337 0
-5336 -4453 -5337 0
5336 -4453 5337 0
5336 4453 -5337 0
-5337 4438 4454 0
-5337 4438 4455 0
5337 -4438 0
5337 -4454 -4455 0
-5338 5053 5339 0
-5338 -5053 -5339 0
5338 -5053 5339 0
5338 5053 -5339 0
-5339 5038 5054 0
-5339 5038 5055 0
5339 -5038 0
5339 -5054 -5055 0
-5340 5329 5330 0
-5340 -5329 -5330 0
5340 -5329 5330 0
5340 5329 -5330 0
5341 -5342 5333 -5340 0
5341 -5342 -5333 5340 0
-5341 5342 0
-5341 5333 5340 0
-5341 -5333 -5340 0
-5342 5326 5331 0
-5342 -5326 -5331 0
5342 -5326 5331 0
5342 5326 -5331 0
-5343 5344 5348 0
-5343 5348 5360 0
-5343 5344 5360 0
-5343 5348 5350 0
-5343 5344 5350 0
5343 -5344 -5348 0
5343 -5344 -5350 -5360 0
5343 -5348 -5350 -5360 0
-5344 5345 5346 0
-5344 5346 5347 0
-5344 5345 5347 0
5344 -5345 -5347 0
5344 -5346 -5347 0
5344 -5345 -5346 0
-5345 3847 3848 0
-5345 -3847 -3848 0
5345 -3847 3848 0
5345 3847 -3848 0
-5346 4454 4455 0
-5346 -4454 -4455 0
5346 -4454 4455 0
5346 4454 -4455 0
-5347 5054 5055 0
-5347 -5054 -5055 0
5347 -5054 5055 0
5347 5054 -5055 0
-5348 5338 5349 0
-5348 -5338 -5349 0
5348 -5338 5349 0
5348 5338 -5349 0
-5349 5334 5336 0
-5349 -5334 -5336 0
5349 -5334 5336 0
5349 5334 -5336 0
-5350 5351 5354 0
-5350 5354 5357 0
-5350 5351 5357 0
5350 -5351 -5357 0
5350 -5354 -5357 0
5350 -5351 -5354 0
-5351 3850 5352 0
-5351 -3850 -5352 0
5351 -3850 5352 0
5351 3850 -5352 0
-5352 3871 3862 0
-5352 3871 5353 0
5352 -3871 0
5352 -3862 -5353 0
-5353 3873 3893 0
-5353 3873 3890 0
5353 -3873 0
5353 -3890 -3893 0
-5354 4457 5355 0
-5354 -4457 -5355 0
5354 -4457 5355 0
5354 4457 -5355 0
-5355 4478 4469 0
-5355 4478 5356 0
5355 -4478 0
5355 -4469 -5356 0
-5356 4480 4500 0
-5356 4480 4498 0
5356 -4480 0
5356 -4498 -4500 0
-5357 5057 5358 0
-5357 -5057 -5358 0
5357 -5057 5358 0
5357 5057 -5358 0
-5358 5078 5069 0
-5358 5078 5359 0
5358 -5078 0
5358 -5069 -5359 0
-5359 5080 5100 0
-5359 5080 5097 0
5359 -5080 0
5359 -5097 -5100 0
-5360 5347 5361 0
-5360 -5347 -5361 0
5360 -5347 5361 0
5360 5347 -5361 0
-5361 5345 5346 0
-5361 -5345 -5346 0
5361 -5345 5346 0
5361 5345 -5346 0
-5362 5363 5379 5397 0
-5362 5363 5381 5397 0
5362 -5363 0
5362 -5397 0
5362 -5379 -5381 0
-5363 5364 5369 0
-5363 5369 5378 0
-5363 5364 5378 0
-5363 5369 5371 0
-5363 5364 5371 0
5363 -5364 -5369 0
5363 -5364 -5371 -5378 0
5363 -5369 -5371 -5378 0
-5364 5366 5367 0
-5364 5365 5368 0
-5364 5365 5367 0
-5364 5366 5368 0
5364 -5367 -5368 0
5364 -5365 -5366 0
-5365 3862 5353 0
-5365 -3862 -5353 0
5365 -3862 5353 0
5365 3862 -5353 0
-5366 4469 5356 0
-5366 -4469 -5356 0
5366 -4469 5356 0
5366 4469 -5356 0
-5367 5069 5359 0
-5367 -5069 -5359 0
5367 -5069 5359 0
5367 5069 -5359 0
-5368 5365 5366 0
-5368 -5365 -5366 0
5368 -5365 5366 0
5368 5365 -5366 0
-5369 5357 5370 0
-5369 -5357 -5370 0
5369 -5357 5370 0
5369 5357 -5370 0
-5370 5351 5354 0
-5370 -5351 -5354 0
5370 -5351 5354 0
5370 5351 -5354 0
-5371 5372 5374 0
-5371 5374 5376 0
-5371 5372 5376 0
5371 -5372 -5376 0
5371 -5374 -5376 0
5371 -5372 -5374 0
-5372 3891 5373 0
-5372 -3891 -5373 0
5372 -3891 5373 0
5372 3891 -5373 0
-5373 3880 3892 0
-5373 3880 3893 0
5373 -3880 0
5373 -3892 -3893 0
-5374 4497 5375 0
-5374 -4497 -5375 0
5374 -4497 5375 0
5374 4497 -5375 0
-5375 4487 4499 0
-5375 4487 4500 0
5375 -4487 0
5375 -4499 -4500 0
-5376 5098 5377 0
-5376 -5098 -5377 0
5376 -5098 5377 0
5376 5098 -5377 0
-5377 5087 5099 0
-5377 5087 5100 0
5377 -5087 0
5377 -5099 -5100 0
-5378 5367 5368 0
-5378 -5367 -5368 0
5378 -5367 5368 0
5378 5367 -5368 0
5379 -5371 5378 -5380 0
5379 5371 -5378 -5380 0
-5379 5380 0
-5379 -5371 -5378 0
-5379 5371 5378 0
-5380 5364 5369 0
-5380 -5364 -5369 0
5380 -5364 5369 0
5380 5364 -5369 0
-5381 5382 5387 0
-5381 5387 5396 0
-5381 5382 5396 0
-5381 5387 5389 0
-5381 5382 5389 0
5381 -5382 -5387 0
5381 -5382 -5389 -5396 0
5381 -5387 -5389 -5396 0
-5382 5384 5385 0
-5382 5383 5386 0
-5382 5383 5385 0
-5382 5384 5386 0
5382 -5385 -5386 0
5382 -5383 -5384 0
-5383 3892 3893 0
-5383 -3892 -3893 0
5383 -3892 3893 0
5383 3892 -3893 0
-5384 4499 4500 0
-5384 -4499 -4500 0
5384 -4499 4500 0
5384 4499 -4500 0
-5385 5099 5100 0
-5385 -5099 -5100 0
5385 -5099 5100 0
5385 5099 -5100 0
-5386 5383 5384 0
-5386 -5383 -5384 0
5386 -5383 5384 0
5386 5383 -5384 0
-5387 5376 5388 0
-5387 -5376 -5388 0
5387 -5376 5388 0
5387 5376 -5388 0
-5388 5372 5374 0
-5388 -5372 -5374 0
5388 -5372 5374 0
5388 5372 -5374 0
-5389 5390 5392 0
-5389 5392 5394 0
-5389 5390 5394 0
5389 -5390 -5394 0
5389 -5392 -5394 0
5389 -5390 -5392 0
-5390 3897 5391 0
-5390 -3897 -5391 0
5390 -3897 5391 0
5390 3897 -5391 0
-5391 3895 3899 0
-5391 3887 3899 0
-5391 3887 3895 0
5391 -3887 -3899 0
5391 -3887 -3895 0
5391 -3895 -3899 0
-5392 4504 5393 0
-5392 -4504 -5393 0
5392 -4504 5393 0
5392 4504 -5393 0
-5393 4502 4506 0
-5393 4494 4506 0
-5393 4494 4502 0
5393 -4494 -4506 0
5393 -4494 -4502 0
5393 -4502 -4506 0
-5394 5104 5395 0
-5394 -5104 -5395 0
5394 -5104 5395 0
5394 5104 -5395 0
-5395 5101 5106 0
-5395 5101 5107 0
5395 -5101 0
5395 -5106 -5107 0
-5396 5385 5386 0
-5396 -5385 -5386 0
5396 -5385 5386 0
5396 5385 -5386 0
5397 -5379 -5398 -5422 0
5397 -5379 -5398 -5400 0
-5397 5379 0
-5397 5398 0
-5397 5400 5422 0
5398 -5399 5389 -5396 0
5398 -5399 -5389 5396 0
-5398 5399 0
-5398 5389 5396 0
-5398 -5389 -5396 0
-5399 5382 5387 0
-5399 -5382 -5387 0
5399 -5382 5387 0
5399 5382 -5387 0
-5400 5401 5405 0
-5400 5405 5420 0
-5400 5401 5420 0
-5400 5405 5407 0
-5400 5401 5407 0
5400 -5401 -5405 0
5400 -5401 -5407 -5420 0
5400 -5405 -5407 -5420 0
-5401 5402 5403 0
-5401 5403 5404 0
-5401 5402 5404 0
5401 -5402 -5404 0
5401 -5403 -5404 0
5401 -5402 -5403 0
-5402 3899 3900 0
-5402 -3899 -3900 0
5402 -3899 3900 0
5402 3899 -3900 0
-5403 4506 4507 0
-5403 -4506 -4507 0
5403 -4506 4507 0
5403 4506 -4507 0
-5404 5106 5107 0
-5404 -5106 -5107 0
5404 -5106 5107 0
5404 5106 -5107 0
-5405 5394 5406 0
-5405 -5394 -5406 0
5405 -5394 5406 0
5405 5394 -5406 0
-5406 5390 5392 0
-5406 -5390 -5392 0
5406 -5390 5392 0
5406 5390 -5392 0
-5407 5408 5412 0
-5407 5412 5416 0
-5407 5408 5416 0
5407 -5408 -5416 0
5407 -5412 -5416 0
5407 -5408 -5412 0
-5408 -5409 -5411 0
-5408 5409 5411 0
5408 5409 -5411 0
5408 -5409 5411 0
-5409 5442 5410 0
-5409 -5442 -5410 0
5409 -5442 5410 0
5409 5442 -5410 0
-5410 3018 3536 0
-5410 5431 3018 0
5410 -3018 0
5410 -5431 -3536 0
5411 -5442 3162 0
-5411 5442 0
-5411 -3162 0
-5412 -5413 -5415 0
-5412 5413 5415 0
5412 5413 -5415 0
5412 -5413 5415 0
-5413 5483 5414 0
-5413 -5483 -5414 0
5413 -5483 5414 0
5413 5483 -5414 0
-5414 2014 4143 0
-5414 5500 2014 0
5414 -2014 0
5414 -5500 -4143 0
5415 -5483 3161 0
-5415 5483 0
-5415 -3161 0
-5416 -5417 -5419 0
-5416 5417 5419 0
5416 5417 -5419 0
5416 -5417 5419 0
-5417 5454 5418 0
-5417 -5454 -5418 0
5417 -5454 5418 0
5417 5454 -5418 0
-5418 1008 4747 0
-5418 5445 1008 0
5418 -1008 0
5418 -5445 -4747 0
5419 -5454 3294 0
-5419 5454 0
-5419 -3294 0
-5420 5404 5421 0
-5420 -5404 -5421 0
5420 -5404 5421 0
5420 5404 -5421 0
-5421 5402 5403 0
-5421 -5402 -5403 0
5421 -5402 5403 0
5421 5402 -5403 0
5422 -5423 5407 -5420 -5424 0
5422 -5423 -5407 5420 -5424 0
-5422 5424 0
-5422 5407 5420 0
-5422 5423 0
-5422 -5407 -5420 0
-5423 5401 5405 0
-5423 -5401 -5405 0
5423 -5401 5405 0
5423 5401 -5405 0
5424 -5416 5425 -5426 0
5424 5416 -5425 -5426 0
-5424 5426 0
-5424 -5416 -5425 0
-5424 5416 5425 0
-5425 5408 5412 0
-5425 -5408 -5412 0
5425 -5408 5412 0
5425 5408 -5412 0
-5426 5509 3162 0
-5426 5445 3161 0
-5426 3161 3162 0
-5426 5509 3161 0
-5426 5445 3162 0
5426 -3161 -3162 0
5426 -5445 -5509 -3162 0
5426 -5445 -5509 -3161 0
5427 -5341 -5350 5360 -5428 0
5427 -5341 5350 -5360 -5428 0
-5427 5428 0
-5427 5350 5360 0
-5427 5341 0
-5427 -5350 -5360 0
-5428 5344 5348 0
-5428 -5344 -5348 0
5428 -5344 5348 0
5428 5344 -5348 0
5429 -5259 -5430 -5268 5281 0
5429 -5259 -5430 5268 -5281 0
-5429 5430 0
-5429 -5268 -5281 0
-5429 5259 0
-5429 5268 5281 0
-5430 5262 5266 0
-5430 -5262 -5266 0
5430 -5262 5266 0
5430 5262 -5266 0
-5527 0
2 0
-3385 0

