c Result of efficient AIG-to-CNF conversion using package CNF
p cnf 738 2819
-2 3 382 0
-2 -3 -382 0
2 -3 382 0
2 3 -382 0
-3 4 354 0
-3 -4 -354 0
3 -4 354 0
3 4 -354 0
-4 5 111 0
-4 -5 -111 0
4 -5 111 0
4 5 -111 0
-5 -6 -97 0
-5 6 97 0
5 6 -97 0
5 -6 97 0
-6 -7 -81 0
-6 7 81 0
6 7 -81 0
6 -7 81 0
-7 -8 -64 0
-7 8 64 0
7 8 -64 0
7 -8 64 0
-8 -9 -63 0
-8 9 63 0
8 9 -63 0
8 -9 63 0
-9 10 45 0
-9 -10 -45 0
9 -10 45 0
9 10 -45 0
-10 11 40 0
-10 -11 -40 0
10 -11 40 0
10 11 -40 0
-11 12 28 0
-11 -12 -28 0
11 -12 28 0
11 12 -28 0
-12 13 23 0
-12 -13 -23 0
12 -13 23 0
12 13 -23 0
-13 14 19 0
-13 -14 -19 0
13 -14 19 0
13 14 -19 0
-14 -15 -18 0
-14 15 18 0
14 15 -18 0
14 -15 18 0
-15 -16 -17 0
-15 16 17 0
15 16 -17 0
15 -16 17 0
16 -711 -713 0
-16 711 0
-16 713 0
17 -700 -705 0
-17 700 0
-17 705 0
18 -702 -709 0
-18 702 0
-18 709 0
-19 20 22 0
-19 21 22 0
-19 20 21 0
19 -20 -21 0
19 -21 -22 0
19 -20 -22 0
20 -705 -711 0
-20 705 0
-20 711 0
21 -700 -702 0
-21 700 0
-21 702 0
22 -699 -709 0
-22 699 0
-22 709 0
-23 -24 -27 0
-23 24 27 0
23 24 -27 0
23 -24 27 0
-24 -25 -26 0
-24 25 26 0
24 25 -26 0
24 -25 26 0
25 -699 -715 0
-25 699 0
-25 715 0
26 -675 -722 0
-26 675 0
-26 722 0
27 -710 -734 0
-27 710 0
-27 734 0
-28 29 31 0
-28 31 35 0
-28 29 35 0
28 -29 -35 0
28 -31 -35 0
28 -29 -31 0
-29 22 30 0
-29 -22 -30 0
29 -22 30 0
29 22 -30 0
-30 -20 -21 0
-30 20 21 0
30 20 -21 0
30 -20 21 0
-31 32 34 0
-31 33 34 0
-31 32 33 0
31 -32 -33 0
31 -33 -34 0
31 -32 -34 0
32 -702 -711 0
-32 702 0
-32 711 0
33 -699 -700 0
-33 699 0
-33 700 0
34 -709 -722 0
-34 709 0
-34 722 0
-35 -36 -39 0
-35 36 39 0
35 36 -39 0
35 -36 39 0
-36 -37 -38 0
-36 37 38 0
36 37 -38 0
36 -37 38 0
37 -715 -722 0
-37 715 0
-37 722 0
38 -675 -734 0
-38 675 0
-38 734 0
39 -694 -710 0
-39 694 0
-39 710 0
-40 41 42 0
-40 -41 -42 0
40 -41 42 0
40 41 -42 0
-41 37 39 0
-41 38 39 0
-41 37 38 0
41 -37 -38 0
41 -38 -39 0
41 -37 -39 0
-42 -43 -44 0
-42 43 44 0
42 43 -44 0
42 -43 44 0
43 -694 -696 0
-43 694 0
-43 696 0
44 -691 -698 0
-44 691 0
-44 698 0
-45 46 48 0
-45 48 60 0
-45 46 60 0
45 -46 -60 0
45 -48 -60 0
45 -46 -48 0
-46 35 47 0
-46 -35 -47 0
46 -35 47 0
46 35 -47 0
-47 29 31 0
-47 -29 -31 0
47 -29 31 0
47 29 -31 0
-48 49 51 0
-48 51 55 0
-48 49 55 0
48 -49 -55 0
48 -51 -55 0
48 -49 -51 0
-49 34 50 0
-49 -34 -50 0
49 -34 50 0
49 34 -50 0
-50 -32 -33 0
-50 32 33 0
50 32 -33 0
50 -32 33 0
-51 52 54 0
-51 53 54 0
-51 52 53 0
51 -52 -53 0
51 -53 -54 0
51 -52 -54 0
52 -699 -711 0
-52 699 0
-52 711 0
53 -700 -722 0
-53 700 0
-53 722 0
54 -709 -734 0
-54 709 0
-54 734 0
-55 -56 -59 0
-55 56 59 0
55 56 -59 0
55 -56 59 0
-56 -57 -58 0
-56 57 58 0
56 57 -58 0
56 -57 58 0
57 -715 -734 0
-57 715 0
-57 734 0
58 -675 -694 0
-58 675 0
-58 694 0
59 -691 -710 0
-59 691 0
-59 710 0
-60 61 62 0
-60 -61 -62 0
60 -61 62 0
60 61 -62 0
61 -691 -696 0
-61 691 0
-61 696 0
-62 57 59 0
-62 58 59 0
-62 57 58 0
62 -57 -58 0
62 -58 -59 0
62 -57 -59 0
63 -691 -696 -62 0
-63 691 0
-63 696 0
-63 62 0
64 -65 -67 0
-64 65 0
-64 67 0
-65 60 66 0
-65 -60 -66 0
65 -60 66 0
65 60 -66 0
-66 46 48 0
-66 -46 -48 0
66 -46 48 0
66 46 -48 0
-67 68 70 0
-67 70 80 0
-67 68 80 0
67 -70 -80 0
67 -68 -70 0
67 -68 -80 0
-68 55 69 0
-68 -55 -69 0
68 -55 69 0
68 55 -69 0
-69 49 51 0
-69 -49 -51 0
69 -49 51 0
69 49 -51 0
-70 71 73 0
-70 73 77 0
-70 71 77 0
70 -71 -77 0
70 -73 -77 0
70 -71 -73 0
-71 54 72 0
-71 -54 -72 0
71 -54 72 0
71 54 -72 0
-72 -52 -53 0
-72 52 53 0
72 52 -53 0
72 -52 53 0
-73 74 76 0
-73 75 76 0
-73 74 75 0
73 -74 -75 0
73 -75 -76 0
73 -74 -76 0
74 -711 -722 0
-74 711 0
-74 722 0
75 -700 -734 0
-75 700 0
-75 734 0
76 -694 -709 0
-76 694 0
-76 709 0
-77 -78 -79 0
-77 78 79 0
77 78 -79 0
77 -78 79 0
78 -694 -715 0
-78 694 0
-78 715 0
79 -675 -691 0
-79 675 0
-79 691 0
80 -675 -691 -694 -715 0
-80 715 0
-80 675 0
-80 694 0
-80 691 0
81 -82 -83 0
-81 82 0
-81 83 0
-82 65 67 0
-82 -65 -67 0
82 -65 67 0
82 65 -67 0
83 -84 -86 0
-83 84 0
-83 86 0
-84 80 85 0
-84 -80 -85 0
84 -80 85 0
84 80 -85 0
-85 68 70 0
-85 -68 -70 0
85 -68 70 0
85 68 -70 0
86 -87 -89 0
-86 87 0
-86 89 0
-87 77 88 0
-87 -77 -88 0
87 -77 88 0
87 77 -88 0
-88 71 73 0
-88 -71 -73 0
88 -71 73 0
88 71 -73 0
-89 90 92 0
-89 92 96 0
-89 90 96 0
89 -92 -96 0
89 -90 -92 0
89 -90 -96 0
-90 76 91 0
-90 -76 -91 0
90 -76 91 0
90 76 -91 0
-91 -74 -75 0
-91 74 75 0
91 74 -75 0
91 -74 75 0
-92 93 95 0
-92 94 95 0
-92 93 94 0
92 -93 -94 0
92 -94 -95 0
92 -93 -95 0
93 -711 -734 0
-93 711 0
-93 734 0
94 -694 -700 0
-94 694 0
-94 700 0
95 -691 -709 0
-95 691 0
-95 709 0
96 -691 -715 0
-96 691 0
-96 715 0
97 -98 -99 0
-97 98 0
-97 99 0
-98 -82 -83 0
-98 82 83 0
98 82 -83 0
98 -82 83 0
99 -100 -101 0
-99 100 0
-99 101 0
-100 -84 -86 0
-100 84 86 0
100 84 -86 0
100 -84 86 0
101 -102 -103 0
-101 102 0
-101 103 0
-102 87 89 0
-102 -87 -89 0
102 -87 89 0
102 87 -89 0
103 -104 -106 0
-103 104 0
-103 106 0
-104 96 105 0
-104 -96 -105 0
104 -96 105 0
104 96 -105 0
-105 90 92 0
-105 -90 -92 0
105 -90 92 0
105 90 -92 0
106 -107 -109 0
-106 107 0
-106 109 0
-107 95 108 0
-107 -95 -108 0
107 -95 108 0
107 95 -108 0
-108 -93 -94 0
-108 93 94 0
108 93 -94 0
108 -93 94 0
109 -691 -700 -110 0
-109 691 0
-109 700 0
-109 110 0
110 -694 -711 0
-110 694 0
-110 711 0
-111 112 325 0
-111 -112 -325 0
111 -112 325 0
111 112 -325 0
-112 113 219 0
-112 -113 -219 0
112 -113 219 0
112 113 -219 0
-113 -114 -205 0
-113 114 205 0
113 114 -205 0
113 -114 205 0
-114 -115 -189 0
-114 115 189 0
114 115 -189 0
114 -115 189 0
-115 -116 -172 0
-115 116 172 0
115 116 -172 0
115 -116 172 0
-116 -117 -171 0
-116 117 171 0
116 117 -171 0
116 -117 171 0
-117 118 153 0
-117 -118 -153 0
117 -118 153 0
117 118 -153 0
-118 119 148 0
-118 -119 -148 0
118 -119 148 0
118 119 -148 0
-119 120 136 0
-119 -120 -136 0
119 -120 136 0
119 120 -136 0
-120 121 131 0
-120 -121 -131 0
120 -121 131 0
120 121 -131 0
-121 122 127 0
-121 -122 -127 0
121 -122 127 0
121 122 -127 0
-122 -123 -126 0
-122 123 126 0
122 123 -126 0
122 -123 126 0
-123 -124 -125 0
-123 124 125 0
123 124 -125 0
123 -124 125 0
124 -684 -719 0
-124 684 0
-124 719 0
125 -693 -712 0
-125 693 0
-125 712 0
126 -682 -683 0
-126 682 0
-126 683 0
-127 128 130 0
-127 129 130 0
-127 128 129 0
127 -128 -129 0
127 -129 -130 0
127 -128 -130 0
128 -712 -719 0
-128 712 0
-128 719 0
129 -683 -693 0
-129 683 0
-129 693 0
130 -682 -688 0
-130 682 0
-130 688 0
-131 -132 -135 0
-131 132 135 0
131 132 -135 0
131 -132 135 0
-132 -133 -134 0
-132 133 134 0
132 133 -134 0
132 -133 134 0
133 -688 -692 0
-133 688 0
-133 692 0
134 -681 -703 0
-134 681 0
-134 703 0
135 -680 -720 0
-135 680 0
-135 720 0
-136 137 139 0
-136 139 143 0
-136 137 143 0
136 -137 -143 0
136 -139 -143 0
136 -137 -139 0
-137 130 138 0
-137 -130 -138 0
137 -130 138 0
137 130 -138 0
-138 -128 -129 0
-138 128 129 0
138 128 -129 0
138 -128 129 0
-139 140 142 0
-139 141 142 0
-139 140 141 0
139 -140 -141 0
139 -141 -142 0
139 -140 -142 0
140 -683 -719 0
-140 683 0
-140 719 0
141 -688 -693 0
-141 688 0
-141 693 0
142 -682 -703 0
-142 682 0
-142 703 0
-143 -144 -147 0
-143 144 147 0
143 144 -147 0
143 -144 147 0
-144 -145 -146 0
-144 145 146 0
144 145 -146 0
144 -145 146 0
145 -692 -703 0
-145 692 0
-145 703 0
146 -681 -720 0
-146 681 0
-146 720 0
147 -679 -680 0
-147 679 0
-147 680 0
-148 149 150 0
-148 -149 -150 0
148 -149 150 0
148 149 -150 0
-149 145 147 0
-149 146 147 0
-149 145 146 0
149 -145 -146 0
149 -146 -147 0
149 -145 -147 0
-150 -151 -152 0
-150 151 152 0
150 151 -152 0
150 -151 152 0
151 -678 -679 0
-151 678 0
-151 679 0
152 -701 -708 0
-152 701 0
-152 708 0
-153 154 156 0
-153 156 168 0
-153 154 168 0
153 -154 -168 0
153 -156 -168 0
153 -154 -156 0
-154 143 155 0
-154 -143 -155 0
154 -143 155 0
154 143 -155 0
-155 137 139 0
-155 -137 -139 0
155 -137 139 0
155 137 -139 0
-156 157 159 0
-156 159 163 0
-156 157 163 0
156 -157 -163 0
156 -159 -163 0
156 -157 -159 0
-157 142 158 0
-157 -142 -158 0
157 -142 158 0
157 142 -158 0
-158 -140 -141 0
-158 140 141 0
158 140 -141 0
158 -140 141 0
-159 160 162 0
-159 161 162 0
-159 160 161 0
159 -160 -161 0
159 -161 -162 0
159 -160 -162 0
160 -688 -719 0
-160 688 0
-160 719 0
161 -693 -703 0
-161 693 0
-161 703 0
162 -682 -720 0
-162 682 0
-162 720 0
-163 -164 -167 0
-163 164 167 0
163 164 -167 0
163 -164 167 0
-164 -165 -166 0
-164 165 166 0
164 165 -166 0
164 -165 166 0
165 -692 -720 0
-165 692 0
-165 720 0
166 -679 -681 0
-166 679 0
-166 681 0
167 -680 -701 0
-167 680 0
-167 701 0
-168 169 170 0
-168 -169 -170 0
168 -169 170 0
168 169 -170 0
169 -678 -701 0
-169 678 0
-169 701 0
-170 165 167 0
-170 166 167 0
-170 165 166 0
170 -165 -166 0
170 -166 -167 0
170 -165 -167 0
171 -678 -701 -170 0
-171 678 0
-171 701 0
-171 170 0
172 -173 -175 0
-172 173 0
-172 175 0
-173 168 174 0
-173 -168 -174 0
173 -168 174 0
173 168 -174 0
-174 154 156 0
-174 -154 -156 0
174 -154 156 0
174 154 -156 0
-175 176 178 0
-175 178 188 0
-175 176 188 0
175 -178 -188 0
175 -176 -178 0
175 -176 -188 0
-176 163 177 0
-176 -163 -177 0
176 -163 177 0
176 163 -177 0
-177 157 159 0
-177 -157 -159 0
177 -157 159 0
177 157 -159 0
-178 179 181 0
-178 181 185 0
-178 179 185 0
178 -179 -185 0
178 -181 -185 0
178 -179 -181 0
-179 162 180 0
-179 -162 -180 0
179 -162 180 0
179 162 -180 0
-180 -160 -161 0
-180 160 161 0
180 160 -161 0
180 -160 161 0
-181 182 184 0
-181 183 184 0
-181 182 183 0
181 -182 -183 0
181 -183 -184 0
181 -182 -184 0
182 -703 -719 0
-182 703 0
-182 719 0
183 -693 -720 0
-183 693 0
-183 720 0
184 -679 -682 0
-184 679 0
-184 682 0
-185 -186 -187 0
-185 186 187 0
185 186 -187 0
185 -186 187 0
186 -679 -692 0
-186 679 0
-186 692 0
187 -681 -701 0
-187 681 0
-187 701 0
188 -679 -681 -692 -701 0
-188 701 0
-188 679 0
-188 692 0
-188 681 0
189 -190 -191 0
-189 190 0
-189 191 0
-190 173 175 0
-190 -173 -175 0
190 -173 175 0
190 173 -175 0
191 -192 -194 0
-191 192 0
-191 194 0
-192 188 193 0
-192 -188 -193 0
192 -188 193 0
192 188 -193 0
-193 176 178 0
-193 -176 -178 0
193 -176 178 0
193 176 -178 0
194 -195 -197 0
-194 195 0
-194 197 0
-195 185 196 0
-195 -185 -196 0
195 -185 196 0
195 185 -196 0
-196 179 181 0
-196 -179 -181 0
196 -179 181 0
196 179 -181 0
-197 198 200 0
-197 200 204 0
-197 198 204 0
197 -200 -204 0
197 -198 -200 0
197 -198 -204 0
-198 184 199 0
-198 -184 -199 0
198 -184 199 0
198 184 -199 0
-199 -182 -183 0
-199 182 183 0
199 182 -183 0
199 -182 183 0
-200 201 203 0
-200 202 203 0
-200 201 202 0
200 -201 -202 0
200 -202 -203 0
200 -201 -203 0
201 -719 -720 0
-201 719 0
-201 720 0
202 -679 -693 0
-202 679 0
-202 693 0
203 -682 -701 0
-203 682 0
-203 701 0
204 -692 -701 0
-204 692 0
-204 701 0
205 -206 -207 0
-205 206 0
-205 207 0
-206 -190 -191 0
-206 190 191 0
206 190 -191 0
206 -190 191 0
207 -208 -209 0
-207 208 0
-207 209 0
-208 -192 -194 0
-208 192 194 0
208 192 -194 0
208 -192 194 0
209 -210 -211 0
-209 210 0
-209 211 0
-210 195 197 0
-210 -195 -197 0
210 -195 197 0
210 195 -197 0
211 -212 -214 0
-211 212 0
-211 214 0
-212 204 213 0
-212 -204 -213 0
212 -204 213 0
212 204 -213 0
-213 198 200 0
-213 -198 -200 0
213 -198 200 0
213 198 -200 0
214 -215 -217 0
-214 215 0
-214 217 0
-215 203 216 0
-215 -203 -216 0
215 -203 216 0
215 203 -216 0
-216 -201 -202 0
-216 201 202 0
216 201 -202 0
216 -201 202 0
217 -693 -701 -218 0
-217 693 0
-217 701 0
-217 218 0
218 -679 -719 0
-218 679 0
-218 719 0
-219 -220 -311 0
-219 220 311 0
219 220 -311 0
219 -220 311 0
-220 -221 -295 0
-220 221 295 0
220 221 -295 0
220 -221 295 0
-221 -222 -278 0
-221 222 278 0
221 222 -278 0
221 -222 278 0
-222 -223 -277 0
-222 223 277 0
222 223 -277 0
222 -223 277 0
-223 224 259 0
-223 -224 -259 0
223 -224 259 0
223 224 -259 0
-224 225 254 0
-224 -225 -254 0
224 -225 254 0
224 225 -254 0
-225 226 242 0
-225 -226 -242 0
225 -226 242 0
225 226 -242 0
-226 227 237 0
-226 -227 -237 0
226 -227 237 0
226 227 -237 0
-227 228 233 0
-227 -228 -233 0
227 -228 233 0
227 228 -233 0
-228 -229 -232 0
-228 229 232 0
228 229 -232 0
228 -229 232 0
-229 -230 -231 0
-229 230 231 0
229 230 -231 0
229 -230 231 0
230 -723 -724 0
-230 723 0
-230 724 0
231 -725 -726 0
-231 725 0
-231 726 0
232 -695 -727 0
-232 695 0
-232 727 0
-233 234 236 0
-233 235 236 0
-233 234 235 0
233 -234 -235 0
233 -235 -236 0
233 -234 -236 0
234 -724 -725 0
-234 724 0
-234 725 0
235 -695 -726 0
-235 695 0
-235 726 0
236 -727 -728 0
-236 727 0
-236 728 0
-237 -238 -241 0
-237 238 241 0
237 238 -241 0
237 -238 241 0
-238 -239 -240 0
-238 239 240 0
238 239 -240 0
238 -239 240 0
239 -728 -729 0
-239 728 0
-239 729 0
240 -716 -730 0
-240 716 0
-240 730 0
241 -731 -732 0
-241 731 0
-241 732 0
-242 243 245 0
-242 245 249 0
-242 243 249 0
242 -243 -249 0
242 -245 -249 0
242 -243 -245 0
-243 236 244 0
-243 -236 -244 0
243 -236 244 0
243 236 -244 0
-244 -234 -235 0
-244 234 235 0
244 234 -235 0
244 -234 235 0
-245 246 248 0
-245 247 248 0
-245 246 247 0
245 -246 -247 0
245 -247 -248 0
245 -246 -248 0
246 -695 -724 0
-246 695 0
-246 724 0
247 -726 -728 0
-247 726 0
-247 728 0
248 -727 -730 0
-248 727 0
-248 730 0
-249 -250 -253 0
-249 250 253 0
249 250 -253 0
249 -250 253 0
-250 -251 -252 0
-250 251 252 0
250 251 -252 0
250 -251 252 0
251 -729 -730 0
-251 729 0
-251 730 0
252 -716 -731 0
-252 716 0
-252 731 0
253 -690 -732 0
-253 690 0
-253 732 0
-254 255 256 0
-254 -255 -256 0
254 -255 256 0
254 255 -256 0
-255 251 253 0
-255 252 253 0
-255 251 252 0
255 -251 -252 0
255 -252 -253 0
255 -251 -253 0
-256 -257 -258 0
-256 257 258 0
256 257 -258 0
256 -257 258 0
257 -676 -690 0
-257 676 0
-257 690 0
258 -733 -737 0
-258 733 0
-258 737 0
-259 260 262 0
-259 262 274 0
-259 260 274 0
259 -260 -274 0
259 -262 -274 0
259 -260 -262 0
-260 249 261 0
-260 -249 -261 0
260 -249 261 0
260 249 -261 0
-261 243 245 0
-261 -243 -245 0
261 -243 245 0
261 243 -245 0
-262 263 265 0
-262 265 269 0
-262 263 269 0
262 -263 -269 0
262 -265 -269 0
262 -263 -265 0
-263 248 264 0
-263 -248 -264 0
263 -248 264 0
263 248 -264 0
-264 -246 -247 0
-264 246 247 0
264 246 -247 0
264 -246 247 0
-265 266 268 0
-265 267 268 0
-265 266 267 0
265 -266 -267 0
265 -267 -268 0
265 -266 -268 0
266 -724 -728 0
-266 724 0
-266 728 0
267 -726 -730 0
-267 726 0
-267 730 0
268 -727 -731 0
-268 727 0
-268 731 0
-269 -270 -273 0
-269 270 273 0
269 270 -273 0
269 -270 273 0
-270 -271 -272 0
-270 271 272 0
270 271 -272 0
270 -271 272 0
271 -729 -731 0
-271 729 0
-271 731 0
272 -690 -716 0
-272 690 0
-272 716 0
273 -732 -733 0
-273 732 0
-273 733 0
-274 275 276 0
-274 -275 -276 0
274 -275 276 0
274 275 -276 0
275 -676 -733 0
-275 676 0
-275 733 0
-276 271 273 0
-276 272 273 0
-276 271 272 0
276 -271 -272 0
276 -272 -273 0
276 -271 -273 0
277 -676 -733 -276 0
-277 676 0
-277 733 0
-277 276 0
278 -279 -281 0
-278 279 0
-278 281 0
-279 274 280 0
-279 -274 -280 0
279 -274 280 0
279 274 -280 0
-280 260 262 0
-280 -260 -262 0
280 -260 262 0
280 260 -262 0
-281 282 284 0
-281 284 294 0
-281 282 294 0
281 -284 -294 0
281 -282 -284 0
281 -282 -294 0
-282 269 283 0
-282 -269 -283 0
282 -269 283 0
282 269 -283 0
-283 263 265 0
-283 -263 -265 0
283 -263 265 0
283 263 -265 0
-284 285 287 0
-284 287 291 0
-284 285 291 0
284 -285 -291 0
284 -287 -291 0
284 -285 -287 0
-285 268 286 0
-285 -268 -286 0
285 -268 286 0
285 268 -286 0
-286 -266 -267 0
-286 266 267 0
286 266 -267 0
286 -266 267 0
-287 288 290 0
-287 289 290 0
-287 288 289 0
287 -288 -289 0
287 -289 -290 0
287 -288 -290 0
288 -724 -730 0
-288 724 0
-288 730 0
289 -726 -731 0
-289 726 0
-289 731 0
290 -690 -727 0
-290 690 0
-290 727 0
-291 -292 -293 0
-291 292 293 0
291 292 -293 0
291 -292 293 0
292 -690 -729 0
-292 690 0
-292 729 0
293 -716 -733 0
-293 716 0
-293 733 0
294 -690 -716 -729 -733 0
-294 733 0
-294 690 0
-294 729 0
-294 716 0
295 -296 -297 0
-295 296 0
-295 297 0
-296 279 281 0
-296 -279 -281 0
296 -279 281 0
296 279 -281 0
297 -298 -300 0
-297 298 0
-297 300 0
-298 294 299 0
-298 -294 -299 0
298 -294 299 0
298 294 -299 0
-299 282 284 0
-299 -282 -284 0
299 -282 284 0
299 282 -284 0
300 -301 -303 0
-300 301 0
-300 303 0
-301 291 302 0
-301 -291 -302 0
301 -291 302 0
301 291 -302 0
-302 285 287 0
-302 -285 -287 0
302 -285 287 0
302 285 -287 0
-303 304 306 0
-303 306 310 0
-303 304 310 0
303 -306 -310 0
303 -304 -306 0
303 -304 -310 0
-304 290 305 0
-304 -290 -305 0
304 -290 305 0
304 290 -305 0
-305 -288 -289 0
-305 288 289 0
305 288 -289 0
305 -288 289 0
-306 307 309 0
-306 308 309 0
-306 307 308 0
306 -307 -308 0
306 -308 -309 0
306 -307 -309 0
307 -724 -731 0
-307 724 0
-307 731 0
308 -690 -726 0
-308 690 0
-308 726 0
309 -727 -733 0
-309 727 0
-309 733 0
310 -729 -733 0
-310 729 0
-310 733 0
311 -312 -313 0
-311 312 0
-311 313 0
-312 -296 -297 0
-312 296 297 0
312 296 -297 0
312 -296 297 0
313 -314 -315 0
-313 314 0
-313 315 0
-314 -298 -300 0
-314 298 300 0
314 298 -300 0
314 -298 300 0
315 -316 -317 0
-315 316 0
-315 317 0
-316 301 303 0
-316 -301 -303 0
316 -301 303 0
316 301 -303 0
317 -318 -320 0
-317 318 0
-317 320 0
-318 310 319 0
-318 -310 -319 0
318 -310 319 0
318 310 -319 0
-319 304 306 0
-319 -304 -306 0
319 -304 306 0
319 304 -306 0
320 -321 -323 0
-320 321 0
-320 323 0
-321 309 322 0
-321 -309 -322 0
321 -309 322 0
321 309 -322 0
-322 -307 -308 0
-322 307 308 0
322 307 -308 0
322 -307 308 0
323 -726 -733 -324 0
-323 726 0
-323 733 0
-323 324 0
324 -690 -724 0
-324 690 0
-324 724 0
-325 326 327 0
-325 327 328 0
-325 326 328 0
325 -326 -328 0
325 -327 -328 0
325 -326 -327 0
-326 -206 -207 0
-326 206 207 0
326 206 -207 0
326 -206 207 0
-327 -312 -313 0
-327 312 313 0
327 312 -313 0
327 -312 313 0
-328 329 332 0
-328 332 336 0
-328 332 337 0
328 -332 0
328 -329 -336 -337 0
-329 330 331 0
-329 -330 -331 0
329 -330 331 0
329 330 -331 0
-330 -208 -209 0
-330 208 209 0
330 208 -209 0
330 -208 209 0
-331 -314 -315 0
-331 314 315 0
331 314 -315 0
331 -314 315 0
-332 330 331 0
-332 331 333 0
-332 330 333 0
332 -331 -333 0
332 -330 -331 0
332 -330 -333 0
333 -334 -335 0
-333 334 0
-333 335 0
-334 -210 -211 0
-334 210 211 0
334 210 -211 0
334 -210 211 0
-335 -316 -317 0
-335 316 317 0
335 316 -317 0
335 -316 317 0
-336 334 335 0
-336 -334 -335 0
336 -334 335 0
336 334 -335 0
-337 338 341 0
-337 341 345 0
-337 341 346 0
337 -341 0
337 -338 -345 -346 0
-338 339 340 0
-338 -339 -340 0
338 -339 340 0
338 339 -340 0
-339 -212 -214 0
-339 212 214 0
339 212 -214 0
339 -212 214 0
-340 -318 -320 0
-340 318 320 0
340 318 -320 0
340 -318 320 0
-341 339 340 0
-341 340 342 0
-341 339 342 0
341 -340 -342 0
341 -339 -340 0
341 -339 -342 0
342 -343 -344 0
-342 343 0
-342 344 0
-343 -215 -217 0
-343 215 217 0
343 215 -217 0
343 -215 217 0
-344 -321 -323 0
-344 321 323 0
344 321 -323 0
344 -321 323 0
-345 343 344 0
-345 -343 -344 0
345 -343 344 0
345 343 -344 0
-346 347 349 0
-346 349 351 0
-346 347 351 0
346 -349 -351 0
346 -347 -349 0
346 -347 -351 0
-347 -218 -348 0
-347 218 348 0
347 218 -348 0
347 -218 348 0
348 -693 -701 0
-348 693 0
-348 701 0
-349 -324 -350 0
-349 324 350 0
349 324 -350 0
349 -324 350 0
350 -726 -733 0
-350 726 0
-350 733 0
351 -352 -353 0
-351 352 0
-351 353 0
352 -701 -719 0
-352 701 0
-352 719 0
353 -724 -733 0
-353 724 0
-353 733 0
-354 355 356 0
-354 355 358 364 0
-354 356 358 364 0
354 -356 -364 0
354 -355 -358 0
354 -355 -364 0
354 -356 -358 0
354 -355 -356 0
-355 -98 -99 0
-355 98 99 0
355 98 -99 0
355 -98 99 0
-356 357 328 0
-356 -357 -328 0
356 -357 328 0
356 357 -328 0
-357 326 327 0
-357 -326 -327 0
357 -326 327 0
357 326 -327 0
-358 359 360 0
-358 360 363 0
-358 359 363 0
-358 360 362 0
-358 359 362 0
358 -359 -360 0
358 -359 -362 -363 0
358 -360 -362 -363 0
-359 -100 -101 0
-359 100 101 0
359 100 -101 0
359 -100 101 0
-360 329 361 0
-360 -329 -361 0
360 -329 361 0
360 329 -361 0
-361 333 336 0
-361 333 337 0
361 -333 0
361 -336 -337 0
-362 -102 -103 0
-362 102 103 0
362 102 -103 0
362 -102 103 0
-363 336 337 0
-363 -336 -337 0
363 -336 337 0
363 336 -337 0
364 -365 -362 363 -366 0
364 -365 362 -363 -366 0
-364 366 0
-364 362 363 0
-364 365 0
-364 -362 -363 0
-365 359 360 0
-365 -359 -360 0
365 -359 360 0
365 359 -360 0
-366 367 368 373 0
-366 367 370 373 0
-366 368 370 373 0
366 -368 -370 0
366 -367 -368 0
366 -373 0
366 -367 -370 0
-367 -104 -106 0
-367 104 106 0
367 104 -106 0
367 -104 106 0
-368 338 369 0
-368 -338 -369 0
368 -338 369 0
368 338 -369 0
-369 342 345 0
-369 342 346 0
369 -342 0
369 -345 -346 0
370 -371 -372 0
-370 371 0
-370 372 0
-371 -107 -109 0
-371 107 109 0
371 107 -109 0
371 -107 109 0
-372 345 346 0
-372 -345 -346 0
372 -345 346 0
372 345 -346 0
373 -374 -371 372 -375 0
373 -374 371 -372 -375 0
-373 375 0
-373 371 372 0
-373 374 0
-373 -371 -372 0
-374 367 368 0
-374 -367 -368 0
374 -367 368 0
374 367 -368 0
-375 376 378 0
-375 378 380 0
-375 376 380 0
375 -378 -380 0
375 -376 -378 0
375 -376 -380 0
-376 -110 -377 0
-376 110 377 0
376 110 -377 0
376 -110 377 0
377 -691 -700 0
-377 691 0
-377 700 0
-378 -379 -351 0
-378 379 351 0
378 379 -351 0
378 -379 351 0
-379 347 349 0
-379 -347 -349 0
379 -347 349 0
379 347 -349 0
380 352 -353 -381 0
380 -352 353 -381 0
-380 381 0
-380 352 353 0
-380 -352 -353 0
381 -691 -711 0
-381 691 0
-381 711 0
-382 383 618 0
-382 -383 -618 0
382 -383 618 0
382 383 -618 0
-383 384 556 0
-383 -384 -556 0
383 -384 556 0
383 384 -556 0
-384 385 442 0
-384 442 499 0
-384 385 499 0
384 -385 -499 0
384 -442 -499 0
384 -385 -442 0
-385 386 414 0
-385 -386 -414 0
385 -386 414 0
385 386 -414 0
-386 387 402 0
-386 -387 -402 0
386 -387 402 0
386 387 -402 0
387 -388 -391 0
-387 388 0
-387 391 0
388 -732 389 0
-388 732 0
-388 -389 0
389 -733 -390 0
-389 733 0
-389 390 0
390 716 -729 0
390 -716 729 0
-390 -716 -729 0
-390 716 729 0
-391 392 399 0
-391 -392 -399 0
391 -392 399 0
391 392 -399 0
-392 393 395 0
-392 -393 -395 0
392 -393 395 0
392 393 -395 0
-393 726 394 0
-393 -726 -394 0
393 -726 394 0
393 726 -394 0
-394 724 728 0
-394 695 -724 0
-394 724 726 0
394 -695 -724 0
394 724 -726 -728 0
-395 729 396 0
-395 -729 -396 0
395 -729 396 0
395 729 -396 0
-396 397 398 0
-396 730 731 0
-396 730 398 0
-396 731 397 0
396 -730 -397 0
396 -731 -398 0
397 726 -727 0
397 -726 727 0
-397 -726 -727 0
-397 726 727 0
-398 -726 -729 0
-398 727 729 0
-398 726 -727 0
398 -726 -727 729 0
398 726 727 -729 0
-399 732 400 0
-399 -732 -400 0
399 -732 400 0
399 732 -400 0
-400 390 401 0
-400 690 733 0
-400 690 401 0
-400 733 390 0
400 -690 -390 0
400 -733 -401 0
-401 -716 -732 0
-401 729 732 0
-401 716 -729 0
401 -716 -729 732 0
401 716 729 -732 0
-402 403 406 0
-402 -403 -406 0
402 -403 406 0
402 403 -406 0
-403 404 405 0
-403 -404 -405 0
403 -404 405 0
403 404 -405 0
404 676 -732 -733 0
404 -676 732 -733 0
-404 733 0
-404 676 732 0
-404 -676 -732 0
-405 393 395 0
-405 395 399 0
-405 393 399 0
405 -393 -399 0
405 -395 -399 0
405 -393 -395 0
-406 407 412 0
-406 -407 -412 0
406 -407 412 0
406 407 -412 0
-407 408 410 0
-407 -408 -410 0
407 -408 410 0
407 408 -410 0
-408 726 409 0
-408 -726 -409 0
408 -726 409 0
408 726 -409 0
-409 724 726 0
-409 -724 725 0
-409 695 724 0
409 -724 -725 0
409 -695 724 -726 0
-410 729 411 0
-410 -729 -411 0
410 -729 411 0
410 729 -411 0
-411 397 398 0
-411 728 730 0
-411 728 398 0
-411 730 397 0
411 -728 -397 0
411 -730 -398 0
-412 732 413 0
-412 -732 -413 0
412 -732 413 0
412 732 -413 0
-413 390 401 0
-413 690 731 0
-413 731 401 0
-413 690 390 0
413 -731 -390 0
413 -690 -401 0
-414 415 422 0
-414 422 432 0
-414 422 441 0
414 -422 0
414 -415 -432 -441 0
-415 416 421 0
-415 -416 -421 0
415 -416 421 0
415 416 -421 0
-416 733 419 0
-416 417 419 0
-416 733 417 0
-416 390 419 0
-416 390 417 0
416 -417 -419 0
416 -733 -390 -419 0
416 -733 -390 -417 0
-417 726 418 0
-417 -726 -418 0
417 -726 418 0
417 726 -418 0
-418 -724 728 0
-418 724 726 0
-418 724 730 0
418 -724 -728 0
418 724 -726 -730 0
-419 729 420 0
-419 -729 -420 0
419 -729 420 0
419 729 -420 0
-420 397 398 0
-420 690 731 0
-420 731 398 0
-420 690 397 0
420 -731 -397 0
420 -690 -398 0
-421 388 391 0
-421 -388 -391 0
421 -388 391 0
421 388 -391 0
-422 416 415 0
-422 421 423 0
-422 416 423 0
-422 421 415 0
422 -416 -421 0
422 -423 -415 0
423 -424 -430 0
-423 424 0
-423 430 0
-424 729 425 0
-424 425 427 0
-424 729 427 0
-424 427 -429 0
-424 425 -429 0
424 -425 -427 0
424 -729 -425 429 0
424 -729 -427 429 0
-425 726 426 0
-425 -726 -426 0
425 -726 426 0
425 726 -426 0
-426 -724 730 0
-426 724 726 0
-426 724 731 0
426 -724 -730 0
426 724 -726 -731 0
-427 729 428 0
-427 -729 -428 0
427 -729 428 0
427 729 -428 0
-428 397 398 0
-428 690 733 0
-428 690 398 0
-428 733 397 0
428 -690 -397 0
428 -733 -398 0
429 -733 -397 0
-429 733 0
-429 397 0
-430 389 431 0
-430 -389 -431 0
430 -389 431 0
430 389 -431 0
-431 417 419 0
-431 -417 -419 0
431 -417 419 0
431 417 -419 0
-432 436 0
-432 433 440 0
-432 433 439 0
432 -433 -436 0
432 -436 -439 -440 0
433 -429 -434 0
-433 429 0
-433 434 0
-434 726 435 0
-434 -726 -435 0
434 -726 435 0
434 726 -435 0
-435 724 726 0
-435 -724 731 0
-435 690 724 0
435 -724 -731 0
435 -690 724 -726 0
-436 437 438 0
-436 -437 -438 0
436 -437 438 0
436 437 -438 0
437 -729 429 0
-437 729 0
-437 -429 0
-438 425 427 0
-438 -425 -427 0
438 -425 427 0
438 425 -427 0
439 -726 733 324 0
-439 726 0
-439 -324 0
-439 -733 0
-440 429 434 0
-440 -429 -434 0
440 -429 434 0
440 429 -434 0
-441 424 430 0
-441 -424 -430 0
441 -424 430 0
441 424 -430 0
-442 443 471 0
-442 -443 -471 0
442 -443 471 0
442 443 -471 0
-443 444 459 0
-443 -444 -459 0
443 -444 459 0
443 444 -459 0
444 -445 -448 0
-444 445 0
-444 448 0
445 -680 446 0
-445 680 0
-445 -446 0
446 -701 -447 0
-446 701 0
-446 447 0
447 681 -692 0
447 -681 692 0
-447 -681 -692 0
-447 681 692 0
-448 449 456 0
-448 -449 -456 0
448 -449 456 0
448 449 -456 0
-449 450 452 0
-449 -450 -452 0
449 -450 452 0
449 450 -452 0
-450 693 451 0
-450 -693 -451 0
450 -693 451 0
450 693 -451 0
-451 688 719 0
-451 683 -719 0
-451 693 719 0
451 -683 -719 0
451 -688 -693 719 0
-452 692 453 0
-452 -692 -453 0
452 -692 453 0
452 692 -453 0
-453 454 455 0
-453 703 720 0
-453 703 455 0
-453 720 454 0
453 -703 -454 0
453 -720 -455 0
454 682 -693 0
454 -682 693 0
-454 -682 -693 0
-454 682 693 0
-455 -682 -692 0
-455 692 693 0
-455 682 -693 0
455 682 -692 693 0
455 -682 692 -693 0
-456 680 457 0
-456 -680 -457 0
456 -680 457 0
456 680 -457 0
-457 447 458 0
-457 679 701 0
-457 679 458 0
-457 701 447 0
457 -679 -447 0
457 -701 -458 0
-458 -681 692 0
-458 -680 -692 0
-458 680 681 0
458 680 -681 -692 0
458 -680 681 692 0
-459 460 463 0
-459 -460 -463 0
459 -460 463 0
459 460 -463 0
-460 461 462 0
-460 -461 -462 0
460 -461 462 0
460 461 -462 0
461 678 -680 -701 0
461 -678 680 -701 0
-461 701 0
-461 678 680 0
-461 -678 -680 0
-462 450 452 0
-462 452 456 0
-462 450 456 0
462 -450 -456 0
462 -452 -456 0
462 -450 -452 0
-463 464 469 0
-463 -464 -469 0
463 -464 469 0
463 464 -469 0
-464 465 467 0
-464 -465 -467 0
464 -465 467 0
464 465 -467 0
-465 693 466 0
-465 -693 -466 0
465 -693 466 0
465 693 -466 0
-466 693 719 0
-466 712 -719 0
-466 683 719 0
466 -712 -719 0
466 -683 -693 719 0
-467 692 468 0
-467 -692 -468 0
467 -692 468 0
467 692 -468 0
-468 454 455 0
-468 688 703 0
-468 688 455 0
-468 703 454 0
468 -688 -454 0
468 -703 -455 0
-469 680 470 0
-469 -680 -470 0
469 -680 470 0
469 680 -470 0
-470 447 458 0
-470 679 720 0
-470 720 458 0
-470 679 447 0
470 -720 -447 0
470 -679 -458 0
-471 472 479 0
-471 479 489 0
-471 479 490 0
471 -479 0
471 -472 -489 -490 0
-472 473 478 0
-472 -473 -478 0
472 -473 478 0
472 473 -478 0
-473 446 474 0
-473 474 476 0
-473 446 476 0
473 -474 -476 0
473 -446 -474 0
473 -446 -476 0
-474 693 475 0
-474 -693 -475 0
474 -693 475 0
474 693 -475 0
-475 693 719 0
-475 688 -719 0
-475 703 719 0
475 -688 -719 0
475 -693 -703 719 0
-476 692 477 0
-476 -692 -477 0
476 -692 477 0
476 692 -477 0
-477 454 455 0
-477 679 720 0
-477 720 455 0
-477 679 454 0
477 -720 -454 0
477 -679 -455 0
-478 445 448 0
-478 -445 -448 0
478 -445 448 0
478 445 -448 0
-479 473 472 0
-479 478 480 0
-479 473 480 0
-479 478 472 0
479 -473 -478 0
479 -480 -472 0
480 -481 -487 0
-480 481 0
-480 487 0
-481 692 482 0
-481 482 484 0
-481 692 484 0
-481 484 -486 0
-481 482 -486 0
481 -482 -484 0
481 -692 -482 486 0
481 -692 -484 486 0
-482 693 483 0
-482 -693 -483 0
482 -693 483 0
482 693 -483 0
-483 719 720 0
-483 703 -719 0
-483 693 719 0
483 -703 -719 0
483 -693 719 -720 0
-484 692 485 0
-484 -692 -485 0
484 -692 485 0
484 692 -485 0
-485 454 455 0
-485 679 701 0
-485 679 455 0
-485 701 454 0
485 -679 -454 0
485 -701 -455 0
486 -701 -454 0
-486 701 0
-486 454 0
-487 446 488 0
-487 -446 -488 0
487 -446 488 0
487 446 -488 0
-488 474 476 0
-488 -474 -476 0
488 -474 476 0
488 474 -476 0
-489 481 487 0
-489 -481 -487 0
489 -481 487 0
489 481 -487 0
-490 491 0
-490 494 498 0
-490 494 497 0
490 -491 -494 0
490 -491 -497 -498 0
-491 492 493 0
-491 -492 -493 0
491 -492 493 0
491 492 -493 0
492 -692 486 0
-492 692 0
-492 -486 0
-493 482 484 0
-493 -482 -484 0
493 -482 484 0
493 482 -484 0
494 -486 -495 0
-494 486 0
-494 495 0
-495 693 496 0
-495 -693 -496 0
495 -693 496 0
495 693 -496 0
-496 679 719 0
-496 -719 720 0
-496 693 719 0
496 -719 -720 0
496 -679 -693 719 0
497 -693 701 218 0
-497 693 0
-497 -218 0
-497 -701 0
-498 486 495 0
-498 -486 -495 0
498 -486 495 0
498 486 -495 0
-499 500 528 0
-499 -500 -528 0
499 -500 528 0
499 500 -528 0
-500 501 516 0
-500 -501 -516 0
500 -501 516 0
500 501 -516 0
501 -502 -505 0
-501 502 0
-501 505 0
502 -710 503 0
-502 710 0
-502 -503 0
503 -691 -504 0
-503 691 0
-503 504 0
504 675 -715 0
504 -675 715 0
-504 -675 -715 0
-504 675 715 0
-505 506 513 0
-505 -506 -513 0
505 -506 513 0
505 506 -513 0
-506 507 509 0
-506 -507 -509 0
506 -507 509 0
506 507 -509 0
-507 700 508 0
-507 -700 -508 0
507 -700 508 0
507 700 -508 0
-508 700 711 0
-508 702 -711 0
-508 699 711 0
508 -702 -711 0
508 -699 -700 711 0
-509 715 510 0
-509 -715 -510 0
509 -715 510 0
509 715 -510 0
-510 511 512 0
-510 722 734 0
-510 722 512 0
-510 734 511 0
510 -722 -511 0
510 -734 -512 0
511 700 -709 0
511 -700 709 0
-511 -700 -709 0
-511 700 709 0
-512 -700 -715 0
-512 709 715 0
-512 700 -709 0
512 -700 -709 715 0
512 700 709 -715 0
-513 710 514 0
-513 -710 -514 0
513 -710 514 0
513 710 -514 0
-514 504 515 0
-514 691 694 0
-514 694 515 0
-514 691 504 0
514 -694 -504 0
514 -691 -515 0
-515 -675 -710 0
-515 710 715 0
-515 675 -715 0
515 675 -710 715 0
515 -675 710 -715 0
-516 517 520 0
-516 -517 -520 0
516 -517 520 0
516 517 -520 0
-517 518 519 0
-517 -518 -519 0
517 -518 519 0
517 518 -519 0
518 -691 696 -710 0
518 -691 -696 710 0
-518 691 0
-518 -696 -710 0
-518 696 710 0
-519 507 509 0
-519 509 513 0
-519 507 513 0
519 -507 -513 0
519 -509 -513 0
519 -507 -509 0
-520 521 526 0
-520 -521 -526 0
520 -521 526 0
520 521 -526 0
-521 522 524 0
-521 -522 -524 0
521 -522 524 0
521 522 -524 0
-522 700 523 0
-522 -700 -523 0
522 -700 523 0
522 700 -523 0
-523 702 711 0
-523 705 -711 0
-523 700 711 0
523 -705 -711 0
523 -700 -702 711 0
-524 715 525 0
-524 -715 -525 0
524 -715 525 0
524 715 -525 0
-525 511 512 0
-525 699 722 0
-525 699 512 0
-525 722 511 0
525 -699 -511 0
525 -722 -512 0
-526 710 527 0
-526 -710 -527 0
526 -710 527 0
526 710 -527 0
-527 504 515 0
-527 694 734 0
-527 734 515 0
-527 694 504 0
527 -734 -504 0
527 -694 -515 0
-528 529 536 0
-528 536 546 0
-528 536 547 0
528 -536 0
528 -529 -546 -547 0
-529 530 535 0
-529 -530 -535 0
529 -530 535 0
529 530 -535 0
-530 691 533 0
-530 531 533 0
-530 691 531 0
-530 504 533 0
-530 504 531 0
530 -531 -533 0
530 -691 -504 -533 0
530 -691 -504 -531 0
-531 700 532 0
-531 -700 -532 0
531 -700 532 0
531 700 -532 0
-532 711 722 0
-532 699 -711 0
-532 700 711 0
532 -699 -711 0
532 -700 711 -722 0
-533 715 534 0
-533 -715 -534 0
533 -715 534 0
533 715 -534 0
-534 511 512 0
-534 694 734 0
-534 734 512 0
-534 694 511 0
534 -734 -511 0
534 -694 -512 0
-535 502 505 0
-535 -502 -505 0
535 -502 505 0
535 502 -505 0
-536 530 529 0
-536 535 537 0
-536 530 537 0
-536 535 529 0
536 -530 -535 0
536 -537 -529 0
537 -538 -544 0
-537 538 0
-537 544 0
-538 715 539 0
-538 539 541 0
-538 715 541 0
-538 541 -543 0
-538 539 -543 0
538 -539 -541 0
538 -715 -539 543 0
538 -715 -541 543 0
-539 700 540 0
-539 -700 -540 0
539 -700 540 0
539 700 -540 0
-540 711 734 0
-540 -711 722 0
-540 700 711 0
540 -711 -722 0
540 -700 711 -734 0
-541 715 542 0
-541 -715 -542 0
541 -715 542 0
541 715 -542 0
-542 511 512 0
-542 691 694 0
-542 694 512 0
-542 691 511 0
542 -694 -511 0
542 -691 -512 0
543 -691 -511 0
-543 691 0
-543 511 0
-544 503 545 0
-544 -503 -545 0
544 -503 545 0
544 503 -545 0
-545 531 533 0
-545 -531 -533 0
545 -531 533 0
545 531 -533 0
-546 538 544 0
-546 -538 -544 0
546 -538 544 0
546 538 -544 0
-547 548 0
-547 551 555 0
-547 551 554 0
547 -548 -551 0
547 -548 -554 -555 0
-548 549 550 0
-548 -549 -550 0
548 -549 550 0
548 549 -550 0
549 -715 543 0
-549 715 0
-549 -543 0
-550 539 541 0
-550 -539 -541 0
550 -539 541 0
550 539 -541 0
551 -543 -552 0
-551 543 0
-551 552 0
-552 700 553 0
-552 -700 -553 0
552 -700 553 0
552 700 -553 0
-553 694 711 0
-553 -711 734 0
-553 700 711 0
553 -711 -734 0
553 -694 -700 711 0
554 691 -700 110 0
-554 -691 0
-554 700 0
-554 -110 0
-555 543 552 0
-555 -543 -552 0
555 -543 552 0
555 543 -552 0
-556 557 598 0
-556 -557 -598 0
556 -557 598 0
556 557 -598 0
-557 558 578 0
-557 -558 -578 0
557 -558 578 0
557 558 -578 0
-558 559 577 0
-558 -559 -577 0
558 -559 577 0
558 559 -577 0
-559 560 561 0
-559 -560 -561 0
559 -560 561 0
559 560 -561 0
-560 404 405 0
-560 405 406 0
-560 404 406 0
560 -405 -406 0
560 -404 -405 0
560 -404 -406 0
-561 562 563 0
-561 -562 -563 0
561 -562 563 0
561 562 -563 0
-562 408 410 0
-562 410 412 0
-562 408 412 0
562 -408 -412 0
562 -410 -412 0
562 -408 -410 0
-563 564 569 0
-563 -564 -569 0
563 -564 569 0
563 564 -569 0
-564 -565 -568 0
-564 565 568 0
564 565 -568 0
564 -565 568 0
-565 737 566 0
-565 -737 -566 0
565 -737 566 0
565 737 -566 0
-566 690 567 0
-566 -676 -732 567 0
-566 676 732 567 0
566 -567 0
566 676 -690 -732 0
566 -676 -690 732 0
567 676 732 -733 -737 0
567 -676 -732 -733 737 0
-567 732 737 0
-567 676 -732 0
-567 733 0
-567 -676 -737 0
568 -737 404 0
-568 737 0
-568 -404 0
-569 570 575 0
-569 -570 -575 0
569 -570 575 0
569 570 -575 0
-570 571 573 0
-570 -571 -573 0
570 -571 573 0
570 571 -573 0
-571 726 572 0
-571 -726 -572 0
571 -726 572 0
571 726 -572 0
-572 724 726 0
-572 723 -724 0
-572 724 725 0
572 -723 -724 0
572 724 -725 -726 0
-573 729 574 0
-573 -729 -574 0
573 -729 574 0
573 729 -574 0
-574 397 398 0
-574 695 728 0
-574 695 398 0
-574 728 397 0
574 -695 -397 0
574 -728 -398 0
-575 732 576 0
-575 -732 -576 0
575 -732 576 0
575 732 -576 0
-576 390 401 0
-576 730 731 0
-576 730 401 0
-576 731 390 0
576 -730 -390 0
576 -731 -401 0
-577 387 402 0
-577 402 414 0
-577 387 414 0
577 -402 -414 0
577 -387 -402 0
577 -387 -414 0
-578 579 597 0
-578 -579 -597 0
578 -579 597 0
578 579 -597 0
-579 580 581 0
-579 -580 -581 0
579 -580 581 0
579 580 -581 0
-580 461 462 0
-580 462 463 0
-580 461 463 0
580 -462 -463 0
580 -461 -462 0
580 -461 -463 0
-581 582 583 0
-581 -582 -583 0
581 -582 583 0
581 582 -583 0
-582 465 467 0
-582 467 469 0
-582 465 469 0
582 -465 -469 0
582 -467 -469 0
582 -465 -467 0
-583 584 589 0
-583 -584 -589 0
583 -584 589 0
583 584 -589 0
-584 -585 -588 0
-584 585 588 0
584 585 -588 0
584 -585 588 0
-585 708 586 0
-585 -708 -586 0
585 -708 586 0
585 708 -586 0
-586 679 587 0
-586 -678 -680 587 0
-586 678 680 587 0
586 -587 0
586 678 -679 -680 0
586 -678 -679 680 0
587 678 680 -701 -708 0
587 -678 -680 -701 708 0
-587 680 708 0
-587 678 -680 0
-587 701 0
-587 -678 -708 0
588 -708 461 0
-588 708 0
-588 -461 0
-589 590 595 0
-589 -590 -595 0
589 -590 595 0
589 590 -595 0
-590 591 593 0
-590 -591 -593 0
590 -591 593 0
590 591 -593 0
-591 693 592 0
-591 -693 -592 0
591 -693 592 0
591 693 -592 0
-592 693 719 0
-592 684 -719 0
-592 712 719 0
592 -684 -719 0
592 -693 -712 719 0
-593 692 594 0
-593 -692 -594 0
593 -692 594 0
593 692 -594 0
-594 454 455 0
-594 683 688 0
-594 683 455 0
-594 688 454 0
594 -683 -454 0
594 -688 -455 0
-595 680 596 0
-595 -680 -596 0
595 -680 596 0
595 680 -596 0
-596 447 458 0
-596 703 720 0
-596 703 458 0
-596 720 447 0
596 -703 -447 0
596 -720 -458 0
-597 444 459 0
-597 459 471 0
-597 444 471 0
597 -459 -471 0
597 -444 -459 0
597 -444 -471 0
-598 599 617 0
-598 -599 -617 0
598 -599 617 0
598 599 -617 0
-599 600 601 0
-599 -600 -601 0
599 -600 601 0
599 600 -601 0
-600 518 519 0
-600 519 520 0
-600 518 520 0
600 -519 -520 0
600 -518 -519 0
600 -518 -520 0
-601 602 603 0
-601 -602 -603 0
601 -602 603 0
601 602 -603 0
-602 522 524 0
-602 524 526 0
-602 522 526 0
602 -522 -526 0
602 -524 -526 0
602 -522 -524 0
-603 604 609 0
-603 -604 -609 0
603 -604 609 0
603 604 -609 0
-604 -605 -608 0
-604 605 608 0
604 605 -608 0
604 -605 608 0
-605 698 606 0
-605 -698 -606 0
605 -698 606 0
605 698 -606 0
-606 694 607 0
-606 -696 -710 607 0
-606 696 710 607 0
606 -607 0
606 -694 696 -710 0
606 -694 -696 710 0
607 -691 696 -698 710 0
607 -691 -696 698 -710 0
-607 696 -710 0
-607 698 710 0
-607 691 0
-607 -696 -698 0
608 -698 518 0
-608 698 0
-608 -518 0
-609 610 615 0
-609 -610 -615 0
609 -610 615 0
609 610 -615 0
-610 611 613 0
-610 -611 -613 0
610 -611 613 0
610 611 -613 0
-611 700 612 0
-611 -700 -612 0
611 -700 612 0
611 700 -612 0
-612 700 711 0
-612 -711 713 0
-612 705 711 0
612 -711 -713 0
612 -700 -705 711 0
-613 715 614 0
-613 -715 -614 0
613 -715 614 0
613 715 -614 0
-614 511 512 0
-614 699 702 0
-614 702 512 0
-614 699 511 0
614 -702 -511 0
614 -699 -512 0
-615 710 616 0
-615 -710 -616 0
615 -710 616 0
615 710 -616 0
-616 504 515 0
-616 722 734 0
-616 722 515 0
-616 734 504 0
616 -722 -504 0
616 -734 -515 0
-617 501 516 0
-617 516 528 0
-617 501 528 0
617 -516 -528 0
617 -501 -516 0
617 -501 -528 0
-618 619 626 0
-618 619 628 644 0
-618 626 628 644 0
618 -626 -644 0
618 -619 -628 0
618 -619 -644 0
618 -626 -628 0
618 -619 -626 0
-619 620 622 0
-619 622 624 0
-619 620 624 0
619 -620 -624 0
619 -622 -624 0
619 -620 -622 0
-620 415 621 0
-620 -415 -621 0
620 -415 621 0
620 415 -621 0
-621 423 432 0
-621 423 441 0
621 -423 0
621 -432 -441 0
-622 472 623 0
-622 -472 -623 0
622 -472 623 0
622 472 -623 0
-623 480 489 0
-623 480 490 0
623 -480 0
623 -489 -490 0
-624 529 625 0
-624 -529 -625 0
624 -529 625 0
624 529 -625 0
-625 537 546 0
-625 537 547 0
625 -537 0
625 -546 -547 0
-626 499 627 0
-626 -499 -627 0
626 -499 627 0
626 499 -627 0
-627 385 442 0
-627 -385 -442 0
627 -385 442 0
627 385 -442 0
-628 629 634 0
-628 634 643 0
-628 629 643 0
-628 634 636 0
-628 629 636 0
628 -629 -634 0
628 -629 -636 -643 0
628 -634 -636 -643 0
-629 631 632 0
-629 630 633 0
-629 630 632 0
-629 631 633 0
629 -632 -633 0
629 -630 -631 0
-630 432 441 0
-630 -432 -441 0
630 -432 441 0
630 432 -441 0
-631 489 490 0
-631 -489 -490 0
631 -489 490 0
631 489 -490 0
-632 546 547 0
-632 -546 -547 0
632 -546 547 0
632 546 -547 0
-633 630 631 0
-633 -630 -631 0
633 -630 631 0
633 630 -631 0
-634 624 635 0
-634 -624 -635 0
634 -624 635 0
634 624 -635 0
-635 620 622 0
-635 -620 -622 0
635 -620 622 0
635 620 -622 0
-636 637 639 0
-636 639 641 0
-636 637 641 0
636 -637 -641 0
636 -639 -641 0
636 -637 -639 0
-637 436 638 0
-637 -436 -638 0
637 -436 638 0
637 436 -638 0
-638 433 439 0
-638 433 440 0
638 -433 0
638 -439 -440 0
-639 491 640 0
-639 -491 -640 0
639 -491 640 0
639 491 -640 0
-640 495 497 0
-640 486 497 0
-640 486 495 0
640 -486 -497 0
640 -486 -495 0
640 -495 -497 0
-641 548 642 0
-641 -548 -642 0
641 -548 642 0
641 548 -642 0
-642 551 554 0
-642 551 555 0
642 -551 0
642 -554 -555 0
-643 632 633 0
-643 -632 -633 0
643 -632 633 0
643 632 -633 0
644 -645 -636 643 -646 0
644 -645 636 -643 -646 0
-644 646 0
-644 636 643 0
-644 645 0
-644 -636 -643 0
-645 629 634 0
-645 -629 -634 0
645 -629 634 0
645 629 -634 0
-646 647 651 669 0
-646 647 653 669 0
-646 651 653 669 0
646 -651 -653 0
646 -647 -651 0
646 -669 0
646 -647 -653 0
-647 648 649 0
-647 649 650 0
-647 648 650 0
647 -648 -650 0
647 -649 -650 0
647 -648 -649 0
-648 439 440 0
-648 -439 -440 0
648 -439 440 0
648 439 -440 0
-649 497 498 0
-649 -497 -498 0
649 -497 498 0
649 497 -498 0
-650 554 555 0
-650 -554 -555 0
650 -554 555 0
650 554 -555 0
-651 641 652 0
-651 -641 -652 0
651 -641 652 0
651 641 -652 0
-652 637 639 0
-652 -637 -639 0
652 -637 639 0
652 637 -639 0
653 -654 -667 0
-653 654 0
-653 667 0
-654 655 659 0
-654 659 663 0
-654 655 663 0
654 -655 -663 0
654 -659 -663 0
654 -655 -659 0
-655 -656 -658 0
-655 656 658 0
655 656 -658 0
655 -656 658 0
-656 726 657 0
-656 -726 -657 0
656 -726 657 0
656 726 -657 0
-657 724 733 0
-657 690 -724 0
-657 724 726 0
657 -690 -724 0
657 724 -726 -733 0
658 -726 353 0
-658 726 0
-658 -353 0
-659 -660 -662 0
-659 660 662 0
659 660 -662 0
659 -660 662 0
-660 693 661 0
-660 -693 -661 0
660 -693 661 0
660 693 -661 0
-661 693 719 0
-661 679 -719 0
-661 701 719 0
661 -679 -719 0
661 -693 -701 719 0
662 -693 352 0
-662 693 0
-662 -352 0
-663 -664 -666 0
-663 664 666 0
663 664 -666 0
663 -664 666 0
-664 700 665 0
-664 -700 -665 0
664 -700 665 0
664 700 -665 0
-665 694 -711 0
-665 700 711 0
-665 691 711 0
665 -694 -711 0
665 -691 -700 711 0
666 -700 381 0
-666 700 0
-666 -381 0
-667 650 668 0
-667 -650 -668 0
667 -650 668 0
667 650 -668 0
-668 648 649 0
-668 -648 -649 0
668 -648 649 0
668 648 -649 0
669 -670 654 -667 -671 0
669 -670 -654 667 -671 0
-669 671 0
-669 654 667 0
-669 670 0
-669 -654 -667 0
-670 647 651 0
-670 -647 -651 0
670 -647 651 0
670 647 -651 0
671 -663 672 -673 0
671 663 -672 -673 0
-671 673 0
-671 -663 -672 0
-671 663 672 0
-672 655 659 0
-672 -655 -659 0
672 -655 659 0
672 655 -659 0
-673 711 353 0
-673 691 352 0
-673 352 353 0
-673 711 352 0
-673 691 353 0
673 -352 -353 0
673 -691 -711 -353 0
673 -691 -711 -352 0
674 695 -229 0
674 727 -229 0
-674 229 0
-674 -695 -727 0
-738 0
2 0
-674 0

