c Result of efficient AIG-to-CNF conversion using package CNF
p cnf 576 2124
-2 3 286 0
-2 -3 -286 0
2 -3 286 0
2 3 -286 0
-3 4 260 0
-3 -4 -260 0
3 -4 260 0
3 4 -260 0
-4 5 81 0
-4 -5 -81 0
4 -5 81 0
4 5 -81 0
-5 -6 -69 0
-5 6 69 0
5 6 -69 0
5 -6 69 0
-6 -7 -55 0
-6 7 55 0
6 7 -55 0
6 -7 55 0
-7 8 41 0
-7 -8 -41 0
7 -8 41 0
7 8 -41 0
-8 9 38 0
-8 -9 -38 0
8 -9 38 0
8 9 -38 0
-9 10 26 0
-9 -10 -26 0
9 -10 26 0
9 10 -26 0
-10 11 21 0
-10 -11 -21 0
10 -11 21 0
10 11 -21 0
-11 12 17 0
-11 -12 -17 0
11 -12 17 0
11 12 -17 0
-12 -13 -16 0
-12 13 16 0
12 13 -16 0
12 -13 16 0
-13 -14 -15 0
-13 14 15 0
13 14 -15 0
13 -14 15 0
14 -532 -536 0
-14 532 0
-14 536 0
15 -545 -574 0
-15 545 0
-15 574 0
16 -538 -543 0
-16 538 0
-16 543 0
-17 18 20 0
-17 19 20 0
-17 18 19 0
17 -18 -19 0
17 -19 -20 0
17 -18 -20 0
18 -532 -574 0
-18 532 0
-18 574 0
19 -543 -545 0
-19 543 0
-19 545 0
20 -538 -542 0
-20 538 0
-20 542 0
-21 -22 -25 0
-21 22 25 0
21 22 -25 0
21 -22 25 0
-22 -23 -24 0
-22 23 24 0
22 23 -24 0
22 -23 24 0
23 -542 -544 0
-23 542 0
-23 544 0
24 -541 -549 0
-24 541 0
-24 549 0
25 -540 -550 0
-25 540 0
-25 550 0
-26 27 29 0
-26 29 33 0
-26 27 33 0
26 -27 -33 0
26 -29 -33 0
26 -27 -29 0
-27 20 28 0
-27 -20 -28 0
27 -20 28 0
27 20 -28 0
-28 -18 -19 0
-28 18 19 0
28 18 -19 0
28 -18 19 0
-29 30 32 0
-29 31 32 0
-29 30 31 0
29 -30 -31 0
29 -31 -32 0
29 -30 -32 0
30 -532 -543 0
-30 532 0
-30 543 0
31 -542 -545 0
-31 542 0
-31 545 0
32 -538 -549 0
-32 538 0
-32 549 0
-33 -34 -37 0
-33 34 37 0
33 34 -37 0
33 -34 37 0
-34 -35 -36 0
-34 35 36 0
34 35 -36 0
34 -35 36 0
35 -544 -549 0
-35 544 0
-35 549 0
36 -541 -550 0
-36 541 0
-36 550 0
37 -530 -540 0
-37 530 0
-37 540 0
-38 -39 -40 0
-38 39 40 0
38 39 -40 0
38 -39 40 0
-39 35 37 0
-39 36 37 0
-39 35 36 0
39 -35 -36 0
39 -36 -37 0
39 -35 -37 0
40 -530 -546 0
-40 530 0
-40 546 0
-41 42 44 0
-41 44 54 0
-41 42 54 0
41 -44 -54 0
41 -42 -44 0
41 -42 -54 0
-42 33 43 0
-42 -33 -43 0
42 -33 43 0
42 33 -43 0
-43 27 29 0
-43 -27 -29 0
43 -27 29 0
43 27 -29 0
-44 45 47 0
-44 47 51 0
-44 45 51 0
44 -45 -51 0
44 -47 -51 0
44 -45 -47 0
-45 32 46 0
-45 -32 -46 0
45 -32 46 0
45 32 -46 0
-46 -30 -31 0
-46 30 31 0
46 30 -31 0
46 -30 31 0
-47 48 50 0
-47 49 50 0
-47 48 49 0
47 -48 -49 0
47 -49 -50 0
47 -48 -50 0
48 -532 -542 0
-48 532 0
-48 542 0
49 -545 -549 0
-49 545 0
-49 549 0
50 -538 -550 0
-50 538 0
-50 550 0
-51 -52 -53 0
-51 52 53 0
51 52 -53 0
51 -52 53 0
52 -544 -550 0
-52 544 0
-52 550 0
53 -530 -541 0
-53 530 0
-53 541 0
54 -530 -541 -544 -550 0
-54 550 0
-54 530 0
-54 544 0
-54 541 0
55 -56 -58 0
-55 56 0
-55 58 0
-56 54 57 0
-56 -54 -57 0
56 -54 57 0
56 54 -57 0
-57 42 44 0
-57 -42 -44 0
57 -42 44 0
57 42 -44 0
58 -59 -61 0
-58 59 0
-58 61 0
-59 51 60 0
-59 -51 -60 0
59 -51 60 0
59 51 -60 0
-60 45 47 0
-60 -45 -47 0
60 -45 47 0
60 45 -47 0
-61 62 64 0
-61 64 68 0
-61 62 68 0
61 -64 -68 0
61 -62 -64 0
61 -62 -68 0
-62 50 63 0
-62 -50 -63 0
62 -50 63 0
62 50 -63 0
-63 -48 -49 0
-63 48 49 0
63 48 -49 0
63 -48 49 0
-64 65 67 0
-64 66 67 0
-64 65 66 0
64 -65 -66 0
64 -66 -67 0
64 -65 -67 0
65 -532 -549 0
-65 532 0
-65 549 0
66 -545 -550 0
-66 545 0
-66 550 0
67 -530 -538 0
-67 530 0
-67 538 0
68 -530 -544 0
-68 530 0
-68 544 0
69 -70 -71 0
-69 70 0
-69 71 0
-70 -56 -58 0
-70 56 58 0
70 56 -58 0
70 -56 58 0
71 -72 -73 0
-71 72 0
-71 73 0
-72 59 61 0
-72 -59 -61 0
72 -59 61 0
72 59 -61 0
73 -74 -76 0
-73 74 0
-73 76 0
-74 68 75 0
-74 -68 -75 0
74 -68 75 0
74 68 -75 0
-75 62 64 0
-75 -62 -64 0
75 -62 64 0
75 62 -64 0
76 -77 -79 0
-76 77 0
-76 79 0
-77 67 78 0
-77 -67 -78 0
77 -67 78 0
77 67 -78 0
-78 -65 -66 0
-78 65 66 0
78 65 -66 0
78 -65 66 0
79 -530 -545 -80 0
-79 530 0
-79 545 0
-79 80 0
80 -532 -550 0
-80 532 0
-80 550 0
-81 82 235 0
-81 -82 -235 0
81 -82 235 0
81 82 -235 0
-82 83 159 0
-82 -83 -159 0
82 -83 159 0
82 83 -159 0
-83 -84 -147 0
-83 84 147 0
83 84 -147 0
83 -84 147 0
-84 -85 -133 0
-84 85 133 0
84 85 -133 0
84 -85 133 0
-85 86 119 0
-85 -86 -119 0
85 -86 119 0
85 86 -119 0
-86 87 116 0
-86 -87 -116 0
86 -87 116 0
86 87 -116 0
-87 88 104 0
-87 -88 -104 0
87 -88 104 0
87 88 -104 0
-88 89 99 0
-88 -89 -99 0
88 -89 99 0
88 89 -99 0
-89 90 95 0
-89 -90 -95 0
89 -90 95 0
89 90 -95 0
-90 -91 -94 0
-90 91 94 0
90 91 -94 0
90 -91 94 0
-91 -92 -93 0
-91 92 93 0
91 92 -93 0
91 -92 93 0
92 -558 -572 0
-92 558 0
-92 572 0
93 -551 -559 0
-93 551 0
-93 559 0
94 -555 -560 0
-94 555 0
-94 560 0
-95 96 98 0
-95 97 98 0
-95 96 97 0
95 -96 -97 0
95 -97 -98 0
95 -96 -98 0
96 -558 -559 0
-96 558 0
-96 559 0
97 -551 -555 0
-97 551 0
-97 555 0
98 -560 -561 0
-98 560 0
-98 561 0
-99 -100 -103 0
-99 100 103 0
99 100 -103 0
99 -100 103 0
-100 -101 -102 0
-100 101 102 0
100 101 -102 0
100 -101 102 0
101 -561 -562 0
-101 561 0
-101 562 0
102 -553 -563 0
-102 553 0
-102 563 0
103 -564 -565 0
-103 564 0
-103 565 0
-104 105 107 0
-104 107 111 0
-104 105 111 0
104 -105 -111 0
104 -107 -111 0
104 -105 -107 0
-105 98 106 0
-105 -98 -106 0
105 -98 106 0
105 98 -106 0
-106 -96 -97 0
-106 96 97 0
106 96 -97 0
106 -96 97 0
-107 108 110 0
-107 109 110 0
-107 108 109 0
107 -108 -109 0
107 -109 -110 0
107 -108 -110 0
108 -555 -558 0
-108 555 0
-108 558 0
109 -551 -561 0
-109 551 0
-109 561 0
110 -553 -560 0
-110 553 0
-110 560 0
-111 -112 -115 0
-111 112 115 0
111 112 -115 0
111 -112 115 0
-112 -113 -114 0
-112 113 114 0
112 113 -114 0
112 -113 114 0
113 -553 -562 0
-113 553 0
-113 562 0
114 -563 -564 0
-114 563 0
-114 564 0
115 -565 -566 0
-115 565 0
-115 566 0
-116 -117 -118 0
-116 117 118 0
116 117 -118 0
116 -117 118 0
-117 113 115 0
-117 114 115 0
-117 113 114 0
117 -113 -114 0
117 -114 -115 0
117 -113 -115 0
118 -566 -567 0
-118 566 0
-118 567 0
-119 120 122 0
-119 122 132 0
-119 120 132 0
119 -122 -132 0
119 -120 -122 0
119 -120 -132 0
-120 111 121 0
-120 -111 -121 0
120 -111 121 0
120 111 -121 0
-121 105 107 0
-121 -105 -107 0
121 -105 107 0
121 105 -107 0
-122 123 125 0
-122 125 129 0
-122 123 129 0
122 -123 -129 0
122 -125 -129 0
122 -123 -125 0
-123 110 124 0
-123 -110 -124 0
123 -110 124 0
123 110 -124 0
-124 -108 -109 0
-124 108 109 0
124 108 -109 0
124 -108 109 0
-125 126 128 0
-125 127 128 0
-125 126 127 0
125 -126 -127 0
125 -127 -128 0
125 -126 -128 0
126 -558 -561 0
-126 558 0
-126 561 0
127 -551 -553 0
-127 551 0
-127 553 0
128 -560 -564 0
-128 560 0
-128 564 0
-129 -130 -131 0
-129 130 131 0
129 130 -131 0
129 -130 131 0
130 -562 -564 0
-130 562 0
-130 564 0
131 -563 -566 0
-131 563 0
-131 566 0
132 -562 -563 -564 -566 0
-132 566 0
-132 562 0
-132 564 0
-132 563 0
133 -134 -136 0
-133 134 0
-133 136 0
-134 132 135 0
-134 -132 -135 0
134 -132 135 0
134 132 -135 0
-135 120 122 0
-135 -120 -122 0
135 -120 122 0
135 120 -122 0
136 -137 -139 0
-136 137 0
-136 139 0
-137 129 138 0
-137 -129 -138 0
137 -129 138 0
137 129 -138 0
-138 123 125 0
-138 -123 -125 0
138 -123 125 0
138 123 -125 0
-139 140 142 0
-139 142 146 0
-139 140 146 0
139 -142 -146 0
139 -140 -142 0
139 -140 -146 0
-140 128 141 0
-140 -128 -141 0
140 -128 141 0
140 128 -141 0
-141 -126 -127 0
-141 126 127 0
141 126 -127 0
141 -126 127 0
-142 143 145 0
-142 144 145 0
-142 143 144 0
142 -143 -144 0
142 -144 -145 0
142 -143 -145 0
143 -553 -558 0
-143 553 0
-143 558 0
144 -551 -564 0
-144 551 0
-144 564 0
145 -560 -566 0
-145 560 0
-145 566 0
146 -562 -566 0
-146 562 0
-146 566 0
147 -148 -149 0
-147 148 0
-147 149 0
-148 -134 -136 0
-148 134 136 0
148 134 -136 0
148 -134 136 0
149 -150 -151 0
-149 150 0
-149 151 0
-150 137 139 0
-150 -137 -139 0
150 -137 139 0
150 137 -139 0
151 -152 -154 0
-151 152 0
-151 154 0
-152 146 153 0
-152 -146 -153 0
152 -146 153 0
152 146 -153 0
-153 140 142 0
-153 -140 -142 0
153 -140 142 0
153 140 -142 0
154 -155 -157 0
-154 155 0
-154 157 0
-155 145 156 0
-155 -145 -156 0
155 -145 156 0
155 145 -156 0
-156 -143 -144 0
-156 143 144 0
156 143 -144 0
156 -143 144 0
157 -551 -566 -158 0
-157 551 0
-157 566 0
-157 158 0
158 -558 -564 0
-158 558 0
-158 564 0
-159 -160 -223 0
-159 160 223 0
159 160 -223 0
159 -160 223 0
-160 -161 -209 0
-160 161 209 0
160 161 -209 0
160 -161 209 0
-161 162 195 0
-161 -162 -195 0
161 -162 195 0
161 162 -195 0
-162 163 192 0
-162 -163 -192 0
162 -163 192 0
162 163 -192 0
-163 164 180 0
-163 -164 -180 0
163 -164 180 0
163 164 -180 0
-164 165 175 0
-164 -165 -175 0
164 -165 175 0
164 165 -175 0
-165 166 171 0
-165 -166 -171 0
165 -166 171 0
165 166 -171 0
-166 -167 -170 0
-166 167 170 0
166 167 -170 0
166 -167 170 0
-167 -168 -169 0
-167 168 169 0
167 168 -169 0
167 -168 169 0
168 -527 -528 0
-168 527 0
-168 528 0
169 -526 -552 0
-169 526 0
-169 552 0
170 -524 -525 0
-170 524 0
-170 525 0
-171 172 174 0
-171 173 174 0
-171 172 173 0
171 -172 -173 0
171 -173 -174 0
171 -172 -174 0
172 -527 -552 0
-172 527 0
-172 552 0
173 -525 -526 0
-173 525 0
-173 526 0
174 -523 -524 0
-174 523 0
-174 524 0
-175 -176 -179 0
-175 176 179 0
175 176 -179 0
175 -176 179 0
-176 -177 -178 0
-176 177 178 0
176 177 -178 0
176 -177 178 0
177 -522 -523 0
-177 522 0
-177 523 0
178 -521 -533 0
-178 521 0
-178 533 0
179 -520 -535 0
-179 520 0
-179 535 0
-180 181 183 0
-180 183 187 0
-180 181 187 0
180 -181 -187 0
180 -183 -187 0
180 -181 -183 0
-181 174 182 0
-181 -174 -182 0
181 -174 182 0
181 174 -182 0
-182 -172 -173 0
-182 172 173 0
182 172 -173 0
182 -172 173 0
-183 184 186 0
-183 185 186 0
-183 184 185 0
183 -184 -185 0
183 -185 -186 0
183 -184 -186 0
184 -525 -527 0
-184 525 0
-184 527 0
185 -523 -526 0
-185 523 0
-185 526 0
186 -521 -524 0
-186 521 0
-186 524 0
-187 -188 -191 0
-187 188 191 0
187 188 -191 0
187 -188 191 0
-188 -189 -190 0
-188 189 190 0
188 189 -190 0
188 -189 190 0
189 -521 -522 0
-189 521 0
-189 522 0
190 -533 -535 0
-190 533 0
-190 535 0
191 -519 -520 0
-191 519 0
-191 520 0
-192 -193 -194 0
-192 193 194 0
192 193 -194 0
192 -193 194 0
-193 189 191 0
-193 190 191 0
-193 189 190 0
193 -189 -190 0
193 -190 -191 0
193 -189 -191 0
194 -519 -569 0
-194 519 0
-194 569 0
-195 196 198 0
-195 198 208 0
-195 196 208 0
195 -198 -208 0
195 -196 -198 0
195 -196 -208 0
-196 187 197 0
-196 -187 -197 0
196 -187 197 0
196 187 -197 0
-197 181 183 0
-197 -181 -183 0
197 -181 183 0
197 181 -183 0
-198 199 201 0
-198 201 205 0
-198 199 205 0
198 -199 -205 0
198 -201 -205 0
198 -199 -201 0
-199 186 200 0
-199 -186 -200 0
199 -186 200 0
199 186 -200 0
-200 -184 -185 0
-200 184 185 0
200 184 -185 0
200 -184 185 0
-201 202 204 0
-201 203 204 0
-201 202 203 0
201 -202 -203 0
201 -203 -204 0
201 -202 -204 0
202 -523 -527 0
-202 523 0
-202 527 0
203 -521 -526 0
-203 521 0
-203 526 0
204 -524 -535 0
-204 524 0
-204 535 0
-205 -206 -207 0
-205 206 207 0
205 206 -207 0
205 -206 207 0
206 -522 -535 0
-206 522 0
-206 535 0
207 -519 -533 0
-207 519 0
-207 533 0
208 -519 -522 -533 -535 0
-208 535 0
-208 519 0
-208 533 0
-208 522 0
209 -210 -212 0
-209 210 0
-209 212 0
-210 208 211 0
-210 -208 -211 0
210 -208 211 0
210 208 -211 0
-211 196 198 0
-211 -196 -198 0
211 -196 198 0
211 196 -198 0
212 -213 -215 0
-212 213 0
-212 215 0
-213 205 214 0
-213 -205 -214 0
213 -205 214 0
213 205 -214 0
-214 199 201 0
-214 -199 -201 0
214 -199 201 0
214 199 -201 0
-215 216 218 0
-215 218 222 0
-215 216 222 0
215 -218 -222 0
215 -216 -218 0
215 -216 -222 0
-216 204 217 0
-216 -204 -217 0
216 -204 217 0
216 204 -217 0
-217 -202 -203 0
-217 202 203 0
217 202 -203 0
217 -202 203 0
-218 219 221 0
-218 220 221 0
-218 219 220 0
218 -219 -220 0
218 -220 -221 0
218 -219 -221 0
219 -521 -527 0
-219 521 0
-219 527 0
220 -526 -535 0
-220 526 0
-220 535 0
221 -519 -524 0
-221 519 0
-221 524 0
222 -519 -522 0
-222 519 0
-222 522 0
223 -224 -225 0
-223 224 0
-223 225 0
-224 -210 -212 0
-224 210 212 0
224 210 -212 0
224 -210 212 0
225 -226 -227 0
-225 226 0
-225 227 0
-226 213 215 0
-226 -213 -215 0
226 -213 215 0
226 213 -215 0
227 -228 -230 0
-227 228 0
-227 230 0
-228 222 229 0
-228 -222 -229 0
228 -222 229 0
228 222 -229 0
-229 216 218 0
-229 -216 -218 0
229 -216 218 0
229 216 -218 0
230 -231 -233 0
-230 231 0
-230 233 0
-231 221 232 0
-231 -221 -232 0
231 -221 232 0
231 221 -232 0
-232 -219 -220 0
-232 219 220 0
232 219 -220 0
232 -219 220 0
233 -519 -526 -234 0
-233 519 0
-233 526 0
-233 234 0
234 -527 -535 0
-234 527 0
-234 535 0
-235 236 239 0
-235 239 243 0
-235 239 244 0
235 -239 0
235 -236 -243 -244 0
-236 237 238 0
-236 -237 -238 0
236 -237 238 0
236 237 -238 0
-237 -148 -149 0
-237 148 149 0
237 148 -149 0
237 -148 149 0
-238 -224 -225 0
-238 224 225 0
238 224 -225 0
238 -224 225 0
-239 237 238 0
-239 238 240 0
-239 237 240 0
239 -238 -240 0
239 -237 -238 0
239 -237 -240 0
240 -241 -242 0
-240 241 0
-240 242 0
-241 -150 -151 0
-241 150 151 0
241 150 -151 0
241 -150 151 0
-242 -226 -227 0
-242 226 227 0
242 226 -227 0
242 -226 227 0
-243 241 242 0
-243 -241 -242 0
243 -241 242 0
243 241 -242 0
-244 245 248 0
-244 248 252 0
-244 248 253 0
244 -248 0
244 -245 -252 -253 0
-245 246 247 0
-245 -246 -247 0
245 -246 247 0
245 246 -247 0
-246 -152 -154 0
-246 152 154 0
246 152 -154 0
246 -152 154 0
-247 -228 -230 0
-247 228 230 0
247 228 -230 0
247 -228 230 0
-248 246 247 0
-248 247 249 0
-248 246 249 0
248 -247 -249 0
248 -246 -247 0
248 -246 -249 0
249 -250 -251 0
-249 250 0
-249 251 0
-250 -155 -157 0
-250 155 157 0
250 155 -157 0
250 -155 157 0
-251 -231 -233 0
-251 231 233 0
251 231 -233 0
251 -231 233 0
-252 250 251 0
-252 -250 -251 0
252 -250 251 0
252 250 -251 0
-253 254 256 0
-253 256 258 0
-253 254 258 0
-253 254 259 0
-253 256 259 0
253 -254 -256 0
253 -254 -258 -259 0
253 -256 -258 -259 0
-254 -158 -255 0
-254 158 255 0
254 158 -255 0
254 -158 255 0
255 -551 -566 0
-255 551 0
-255 566 0
-256 -234 -257 0
-256 234 257 0
256 234 -257 0
256 -234 257 0
257 -519 -526 0
-257 519 0
-257 526 0
258 -558 -566 0
-258 558 0
-258 566 0
259 -519 -527 0
-259 519 0
-259 527 0
-260 261 265 0
-260 265 268 0
-260 265 269 0
260 -265 0
260 -261 -268 -269 0
-261 262 263 0
-261 -262 -263 0
261 -262 263 0
261 262 -263 0
-262 -70 -71 0
-262 70 71 0
262 70 -71 0
262 -70 71 0
-263 236 264 0
-263 -236 -264 0
263 -236 264 0
263 236 -264 0
-264 240 243 0
-264 240 244 0
264 -240 0
264 -243 -244 0
-265 262 263 0
-265 263 267 0
-265 262 267 0
-265 263 266 0
-265 262 266 0
265 -262 -263 0
265 -262 -266 -267 0
265 -263 -266 -267 0
-266 -72 -73 0
-266 72 73 0
266 72 -73 0
266 -72 73 0
-267 243 244 0
-267 -243 -244 0
267 -243 244 0
267 243 -244 0
-268 266 267 0
-268 -266 -267 0
268 -266 267 0
268 266 -267 0
-269 270 271 276 0
-269 270 273 276 0
-269 271 273 276 0
269 -271 -273 0
269 -270 -271 0
269 -276 0
269 -270 -273 0
-270 -74 -76 0
-270 74 76 0
270 74 -76 0
270 -74 76 0
-271 245 272 0
-271 -245 -272 0
271 -245 272 0
271 245 -272 0
-272 249 252 0
-272 249 253 0
272 -249 0
272 -252 -253 0
273 -274 -275 0
-273 274 0
-273 275 0
-274 -77 -79 0
-274 77 79 0
274 77 -79 0
274 -77 79 0
-275 252 253 0
-275 -252 -253 0
275 -252 253 0
275 252 -253 0
276 -277 -274 275 -278 0
276 -277 274 -275 -278 0
-276 278 0
-276 274 275 0
-276 277 0
-276 -274 -275 0
-277 270 271 0
-277 -270 -271 0
277 -270 271 0
277 270 -271 0
-278 279 281 0
-278 281 284 0
-278 279 284 0
278 -281 -284 0
278 -279 -281 0
278 -279 -284 0
-279 -80 -280 0
-279 80 280 0
279 80 -280 0
279 -80 280 0
280 -530 -545 0
-280 530 0
-280 545 0
-281 -282 -283 0
-281 282 283 0
281 282 -283 0
281 -282 283 0
-282 254 256 0
-282 -254 -256 0
282 -254 256 0
282 254 -256 0
283 -258 -259 0
-283 258 0
-283 259 0
284 258 -259 -285 0
284 -258 259 -285 0
-284 285 0
-284 258 259 0
-284 -258 -259 0
285 -530 -532 0
-285 530 0
-285 532 0
-286 287 468 0
-286 -287 -468 0
286 -287 468 0
286 287 -468 0
-287 288 415 0
-287 -288 -415 0
287 -288 415 0
287 288 -415 0
-288 289 331 0
-288 331 373 0
-288 289 373 0
288 -289 -373 0
288 -331 -373 0
288 -289 -331 0
-289 290 311 0
-289 -290 -311 0
289 -290 311 0
289 290 -311 0
-290 291 300 0
-290 -291 -300 0
290 -291 300 0
290 291 -300 0
-291 292 294 0
-291 294 298 0
-291 292 298 0
291 -294 -298 0
291 -292 -294 0
291 -292 -298 0
-292 526 293 0
-292 -526 -293 0
292 -526 293 0
292 526 -293 0
-293 525 -527 0
-293 526 527 0
-293 523 527 0
293 -525 -527 0
293 -523 -526 527 0
-294 522 295 0
-294 -522 -295 0
294 -522 295 0
294 522 -295 0
-295 296 297 0
-295 521 535 0
-295 521 297 0
-295 535 296 0
295 -521 -296 0
295 -535 -297 0
296 524 -526 0
296 -524 526 0
-296 -524 -526 0
-296 524 526 0
-297 -524 526 0
-297 -522 -526 0
-297 522 524 0
297 522 -524 -526 0
297 -522 524 526 0
298 -519 -299 0
-298 519 0
-298 299 0
299 522 -533 0
299 -522 533 0
-299 -522 -533 0
-299 522 533 0
-300 301 302 0
-300 -301 -302 0
300 -301 302 0
300 301 -302 0
301 -520 298 0
-301 520 0
-301 -298 0
-302 303 308 0
-302 -303 -308 0
302 -303 308 0
302 303 -308 0
-303 304 306 0
-303 -304 -306 0
303 -304 306 0
303 304 -306 0
-304 526 305 0
-304 -526 -305 0
304 -526 305 0
304 526 -305 0
-305 525 527 0
-305 -527 552 0
-305 526 527 0
305 -527 -552 0
305 -525 -526 527 0
-306 522 307 0
-306 -522 -307 0
306 -522 307 0
306 522 -307 0
-307 296 297 0
-307 521 523 0
-307 523 297 0
-307 521 296 0
307 -523 -296 0
307 -521 -297 0
-308 520 309 0
-308 -520 -309 0
308 -520 309 0
308 520 -309 0
-309 299 310 0
-309 519 535 0
-309 535 310 0
-309 519 299 0
309 -535 -299 0
309 -519 -310 0
-310 -522 533 0
-310 -520 -533 0
-310 520 522 0
310 520 -522 -533 0
310 -520 522 533 0
-311 312 322 0
-311 312 323 0
311 -312 0
311 -322 -323 0
312 -313 -320 0
-312 313 0
-312 320 0
-313 314 316 0
-313 316 318 0
-313 314 318 0
313 -316 -318 0
313 -314 -316 0
313 -314 -318 0
-314 526 315 0
-314 -526 -315 0
314 -526 315 0
314 526 -315 0
-315 523 -527 0
-315 526 527 0
-315 521 527 0
315 -523 -527 0
315 -521 -526 527 0
-316 522 317 0
-316 -522 -317 0
316 -522 317 0
316 522 -317 0
-317 296 297 0
-317 519 535 0
-317 535 297 0
-317 519 296 0
317 -535 -296 0
317 -519 -297 0
318 -522 319 0
-318 522 0
-318 -319 0
319 -519 -296 0
-319 519 0
-319 296 0
-320 298 321 0
-320 -298 -321 0
320 -298 321 0
320 298 -321 0
-321 292 294 0
-321 -292 -294 0
321 -292 294 0
321 292 -294 0
-322 313 320 0
-322 -313 -320 0
322 -313 320 0
322 313 -320 0
-323 327 0
-323 324 330 0
-323 324 329 0
323 -324 -327 0
323 -327 -329 -330 0
324 -319 -325 0
-324 319 0
-324 325 0
-325 526 326 0
-325 -526 -326 0
325 -526 326 0
325 526 -326 0
-326 527 535 0
-326 521 -527 0
-326 526 527 0
326 -521 -527 0
326 -526 527 -535 0
-327 318 328 0
-327 -318 -328 0
327 -318 328 0
327 318 -328 0
-328 314 316 0
-328 -314 -316 0
328 -314 316 0
328 314 -316 0
329 519 -526 234 0
-329 -519 0
-329 526 0
-329 -234 0
-330 319 325 0
-330 -319 -325 0
330 -319 325 0
330 319 -325 0
-331 332 353 0
-331 -332 -353 0
331 -332 353 0
331 332 -353 0
-332 333 342 0
-332 -333 -342 0
332 -333 342 0
332 333 -342 0
-333 334 336 0
-333 336 340 0
-333 334 340 0
333 -336 -340 0
333 -334 -336 0
333 -334 -340 0
-334 551 335 0
-334 -551 -335 0
334 -551 335 0
334 551 -335 0
-335 558 561 0
-335 555 -558 0
-335 551 558 0
335 -555 -558 0
335 -551 558 -561 0
-336 562 337 0
-336 -562 -337 0
336 -562 337 0
336 562 -337 0
-337 338 339 0
-337 553 564 0
-337 553 339 0
-337 564 338 0
337 -553 -338 0
337 -564 -339 0
338 551 -560 0
338 -551 560 0
-338 -551 -560 0
-338 551 560 0
-339 -551 -562 0
-339 560 562 0
-339 551 -560 0
339 -551 -560 562 0
339 551 560 -562 0
340 -566 -341 0
-340 566 0
-340 341 0
341 562 -563 0
341 -562 563 0
-341 -562 -563 0
-341 562 563 0
-342 343 344 0
-342 -343 -344 0
342 -343 344 0
342 343 -344 0
343 -565 340 0
-343 565 0
-343 -340 0
-344 345 350 0
-344 -345 -350 0
344 -345 350 0
344 345 -350 0
-345 346 348 0
-345 -346 -348 0
345 -346 348 0
345 346 -348 0
-346 551 347 0
-346 -551 -347 0
346 -551 347 0
346 551 -347 0
-347 551 558 0
-347 -558 559 0
-347 555 558 0
347 -558 -559 0
347 -551 -555 558 0
-348 562 349 0
-348 -562 -349 0
348 -562 349 0
348 562 -349 0
-349 338 339 0
-349 553 561 0
-349 561 339 0
-349 553 338 0
349 -561 -338 0
349 -553 -339 0
-350 565 351 0
-350 -565 -351 0
350 -565 351 0
350 565 -351 0
-351 341 352 0
-351 564 566 0
-351 564 352 0
-351 566 341 0
351 -564 -341 0
351 -566 -352 0
-352 -562 -565 0
-352 563 565 0
-352 562 -563 0
352 -562 -563 565 0
352 562 563 -565 0
-353 354 363 0
-353 354 364 0
353 -354 0
353 -363 -364 0
354 -355 -361 0
-354 355 0
-354 361 0
-355 562 356 0
-355 356 358 0
-355 562 358 0
-355 358 -360 0
-355 356 -360 0
355 -356 -358 0
355 -562 -356 360 0
355 -562 -358 360 0
-356 551 357 0
-356 -551 -357 0
356 -551 357 0
356 551 -357 0
-357 551 558 0
-357 -558 561 0
-357 553 558 0
357 -558 -561 0
357 -551 -553 558 0
-358 562 359 0
-358 -562 -359 0
358 -562 359 0
358 562 -359 0
-359 338 339 0
-359 564 566 0
-359 564 339 0
-359 566 338 0
359 -564 -338 0
359 -566 -339 0
360 -566 -338 0
-360 566 0
-360 338 0
-361 340 362 0
-361 -340 -362 0
361 -340 362 0
361 340 -362 0
-362 334 336 0
-362 -334 -336 0
362 -334 336 0
362 334 -336 0
-363 355 361 0
-363 -355 -361 0
363 -355 361 0
363 355 -361 0
-364 365 0
-364 368 372 0
-364 368 371 0
364 -365 -368 0
364 -365 -371 -372 0
-365 366 367 0
-365 -366 -367 0
365 -366 367 0
365 366 -367 0
366 -562 360 0
-366 562 0
-366 -360 0
-367 356 358 0
-367 -356 -358 0
367 -356 358 0
367 356 -358 0
368 -360 -369 0
-368 360 0
-368 369 0
-369 551 370 0
-369 -551 -370 0
369 -551 370 0
369 551 -370 0
-370 558 564 0
-370 553 -558 0
-370 551 558 0
370 -553 -558 0
370 -551 558 -564 0
371 -551 566 158 0
-371 551 0
-371 -158 0
-371 -566 0
-372 360 369 0
-372 -360 -369 0
372 -360 369 0
372 360 -369 0
-373 374 395 0
-373 -374 -395 0
373 -374 395 0
373 374 -395 0
-374 375 384 0
-374 -375 -384 0
374 -375 384 0
374 375 -384 0
-375 376 378 0
-375 378 382 0
-375 376 382 0
375 -378 -382 0
375 -376 -378 0
375 -376 -382 0
-376 545 377 0
-376 -545 -377 0
376 -545 377 0
376 545 -377 0
-377 -532 543 0
-377 532 542 0
-377 532 545 0
377 -532 -543 0
377 532 -542 -545 0
-378 544 379 0
-378 -544 -379 0
378 -544 379 0
378 544 -379 0
-379 380 381 0
-379 549 550 0
-379 549 381 0
-379 550 380 0
379 -549 -380 0
379 -550 -381 0
380 538 -545 0
380 -538 545 0
-380 -538 -545 0
-380 538 545 0
-381 -538 -544 0
-381 544 545 0
-381 538 -545 0
381 538 -544 545 0
381 -538 544 -545 0
382 -530 -383 0
-382 530 0
-382 383 0
383 541 -544 0
383 -541 544 0
-383 -541 -544 0
-383 541 544 0
-384 385 386 0
-384 -385 -386 0
384 -385 386 0
384 385 -386 0
385 -540 382 0
-385 540 0
-385 -382 0
-386 387 392 0
-386 -387 -392 0
386 -387 392 0
386 387 -392 0
-387 388 390 0
-387 -388 -390 0
387 -388 390 0
387 388 -390 0
-388 545 389 0
-388 -545 -389 0
388 -545 389 0
388 545 -389 0
-389 -532 574 0
-389 532 545 0
-389 532 543 0
389 -532 -574 0
389 532 -543 -545 0
-390 544 391 0
-390 -544 -391 0
390 -544 391 0
390 544 -391 0
-391 380 381 0
-391 542 549 0
-391 542 381 0
-391 549 380 0
391 -542 -380 0
391 -549 -381 0
-392 540 393 0
-392 -540 -393 0
392 -540 393 0
392 540 -393 0
-393 383 394 0
-393 530 550 0
-393 550 394 0
-393 530 383 0
393 -550 -383 0
393 -530 -394 0
-394 -541 544 0
-394 -540 -544 0
-394 540 541 0
394 540 -541 -544 0
394 -540 541 544 0
-395 396 406 0
-395 396 407 0
395 -396 0
395 -406 -407 0
396 -397 -404 0
-396 397 0
-396 404 0
-397 398 400 0
-397 400 402 0
-397 398 402 0
397 -400 -402 0
397 -398 -400 0
397 -398 -402 0
-398 545 399 0
-398 -545 -399 0
398 -545 399 0
398 545 -399 0
-399 532 545 0
-399 -532 542 0
-399 532 549 0
399 -532 -542 0
399 532 -545 -549 0
-400 544 401 0
-400 -544 -401 0
400 -544 401 0
400 544 -401 0
-401 380 381 0
-401 530 550 0
-401 550 381 0
-401 530 380 0
401 -550 -380 0
401 -530 -381 0
402 -544 403 0
-402 544 0
-402 -403 0
403 -530 -380 0
-403 530 0
-403 380 0
-404 382 405 0
-404 -382 -405 0
404 -382 405 0
404 382 -405 0
-405 376 378 0
-405 -376 -378 0
405 -376 378 0
405 376 -378 0
-406 397 404 0
-406 -397 -404 0
406 -397 404 0
406 397 -404 0
-407 408 0
-407 410 414 0
-407 410 413 0
407 -408 -410 0
407 -408 -413 -414 0
-408 402 409 0
-408 -402 -409 0
408 -402 409 0
408 402 -409 0
-409 398 400 0
-409 -398 -400 0
409 -398 400 0
409 398 -400 0
410 -403 -411 0
-410 403 0
-410 411 0
-411 545 412 0
-411 -545 -412 0
411 -545 412 0
411 545 -412 0
-412 -532 549 0
-412 532 545 0
-412 532 550 0
412 -532 -549 0
412 532 -545 -550 0
413 530 -545 80 0
-413 -530 0
-413 545 0
-413 -80 0
-414 403 411 0
-414 -403 -411 0
414 -403 411 0
414 403 -411 0
-415 416 451 0
-415 -416 -451 0
415 -416 451 0
415 416 -451 0
-416 417 434 0
-416 -417 -434 0
416 -417 434 0
416 417 -434 0
-417 418 432 0
-417 -418 -432 0
417 -418 432 0
417 418 -432 0
-418 419 420 0
-418 -419 -420 0
418 -419 420 0
418 419 -420 0
419 -301 -302 0
-419 301 0
-419 302 0
-420 421 424 0
-420 -421 -424 0
420 -421 424 0
420 421 -424 0
-421 422 423 0
-421 -422 -423 0
421 -422 423 0
421 422 -423 0
422 -519 520 -569 0
422 -519 -520 569 0
-422 519 0
-422 -520 -569 0
-422 520 569 0
-423 304 306 0
-423 306 308 0
-423 304 308 0
423 -304 -308 0
423 -306 -308 0
423 -304 -306 0
-424 425 430 0
-424 -425 -430 0
424 -425 430 0
424 425 -430 0
-425 426 428 0
-425 -426 -428 0
425 -426 428 0
425 426 -428 0
-426 526 427 0
-426 -526 -427 0
426 -526 427 0
426 526 -427 0
-427 527 552 0
-427 -527 528 0
-427 526 527 0
427 -527 -528 0
427 -526 527 -552 0
-428 522 429 0
-428 -522 -429 0
428 -522 429 0
428 522 -429 0
-429 296 297 0
-429 523 525 0
-429 525 297 0
-429 523 296 0
429 -525 -296 0
429 -523 -297 0
-430 520 431 0
-430 -520 -431 0
430 -520 431 0
430 520 -431 0
-431 299 310 0
-431 521 535 0
-431 521 310 0
-431 535 299 0
431 -521 -299 0
431 -535 -310 0
-432 290 433 0
-432 322 433 0
-432 323 433 0
432 -433 0
432 -290 -322 -323 0
-433 300 290 0
-433 291 312 0
-433 291 290 0
-433 300 312 0
433 -290 -312 0
433 -291 -300 0
-434 435 449 0
-434 -435 -449 0
434 -435 449 0
434 435 -449 0
-435 436 437 0
-435 -436 -437 0
435 -436 437 0
435 436 -437 0
436 -343 -344 0
-436 343 0
-436 344 0
-437 438 441 0
-437 -438 -441 0
437 -438 441 0
437 438 -441 0
-438 439 440 0
-438 -439 -440 0
438 -439 440 0
438 439 -440 0
439 565 -566 -567 0
439 -565 -566 567 0
-439 566 0
-439 -565 -567 0
-439 565 567 0
-440 346 348 0
-440 348 350 0
-440 346 350 0
440 -346 -350 0
440 -348 -350 0
440 -346 -348 0
-441 442 447 0
-441 -442 -447 0
441 -442 447 0
441 442 -447 0
-442 443 445 0
-442 -443 -445 0
442 -443 445 0
442 443 -445 0
-443 551 444 0
-443 -551 -444 0
443 -551 444 0
443 551 -444 0
-444 558 559 0
-444 -558 572 0
-444 551 558 0
444 -558 -572 0
444 -551 558 -559 0
-445 562 446 0
-445 -562 -446 0
445 -562 446 0
445 562 -446 0
-446 338 339 0
-446 555 561 0
-446 555 339 0
-446 561 338 0
446 -555 -338 0
446 -561 -339 0
-447 565 448 0
-447 -565 -448 0
447 -565 448 0
447 565 -448 0
-448 341 352 0
-448 553 564 0
-448 553 352 0
-448 564 341 0
448 -553 -341 0
448 -564 -352 0
-449 332 450 0
-449 363 450 0
-449 364 450 0
449 -450 0
449 -332 -363 -364 0
-450 333 342 0
-450 342 354 0
-450 333 354 0
450 -342 -354 0
450 -333 -342 0
450 -333 -354 0
-451 452 466 0
-451 -452 -466 0
451 -452 466 0
451 452 -466 0
-452 453 454 0
-452 -453 -454 0
452 -453 454 0
452 453 -454 0
453 -385 -386 0
-453 385 0
-453 386 0
-454 455 458 0
-454 -455 -458 0
454 -455 458 0
454 455 -458 0
-455 456 457 0
-455 -456 -457 0
455 -456 457 0
455 456 -457 0
456 -530 540 -546 0
456 -530 -540 546 0
-456 530 0
-456 -540 -546 0
-456 540 546 0
-457 388 390 0
-457 390 392 0
-457 388 392 0
457 -388 -392 0
457 -390 -392 0
457 -388 -390 0
-458 459 464 0
-458 -459 -464 0
458 -459 464 0
458 459 -464 0
-459 460 462 0
-459 -460 -462 0
459 -460 462 0
459 460 -462 0
-460 545 461 0
-460 -545 -461 0
460 -545 461 0
460 545 -461 0
-461 532 545 0
-461 -532 536 0
-461 532 574 0
461 -532 -536 0
461 532 -545 -574 0
-462 544 463 0
-462 -544 -463 0
462 -544 463 0
462 544 -463 0
-463 380 381 0
-463 542 543 0
-463 543 381 0
-463 542 380 0
463 -543 -380 0
463 -542 -381 0
-464 540 465 0
-464 -540 -465 0
464 -540 465 0
464 540 -465 0
-465 383 394 0
-465 549 550 0
-465 549 394 0
-465 550 383 0
465 -549 -383 0
465 -550 -394 0
-466 374 467 0
-466 406 467 0
-466 407 467 0
466 -467 0
466 -374 -406 -407 0
-467 384 374 0
-467 375 396 0
-467 375 374 0
-467 384 396 0
467 -374 -396 0
467 -375 -384 0
-468 469 474 485 0
-468 469 476 485 0
-468 474 476 485 0
468 -474 -476 0
468 -469 -474 0
468 -485 0
468 -469 -476 0
-469 471 472 0
-469 470 473 0
-469 470 472 0
-469 471 473 0
469 -472 -473 0
469 -470 -471 0
-470 322 323 0
-470 -322 -323 0
470 -322 323 0
470 322 -323 0
-471 363 364 0
-471 -363 -364 0
471 -363 364 0
471 363 -364 0
-472 406 407 0
-472 -406 -407 0
472 -406 407 0
472 406 -407 0
-473 470 471 0
-473 -470 -471 0
473 -470 471 0
473 470 -471 0
-474 373 475 0
-474 -373 -475 0
474 -373 475 0
474 373 -475 0
-475 289 331 0
-475 -289 -331 0
475 -289 331 0
475 289 -331 0
476 -477 -484 0
-476 477 0
-476 484 0
-477 478 480 0
-477 480 482 0
-477 478 482 0
477 -478 -482 0
477 -480 -482 0
477 -478 -480 0
-478 327 479 0
-478 -327 -479 0
478 -327 479 0
478 327 -479 0
-479 324 329 0
-479 324 330 0
479 -324 0
479 -329 -330 0
-480 365 481 0
-480 -365 -481 0
480 -365 481 0
480 365 -481 0
-481 368 371 0
-481 368 372 0
481 -368 0
481 -371 -372 0
-482 408 483 0
-482 -408 -483 0
482 -408 483 0
482 408 -483 0
-483 410 413 0
-483 410 414 0
483 -410 0
483 -413 -414 0
-484 472 473 0
-484 -472 -473 0
484 -472 473 0
484 472 -473 0
485 -486 -477 484 -487 0
485 -486 477 -484 -487 0
-485 487 0
-485 477 484 0
-485 486 0
-485 -477 -484 0
-486 469 474 0
-486 -469 -474 0
486 -469 474 0
486 469 -474 0
-487 488 492 510 0
-487 488 494 510 0
-487 492 494 510 0
487 -492 -494 0
487 -488 -492 0
487 -510 0
487 -488 -494 0
-488 489 490 0
-488 490 491 0
-488 489 491 0
488 -489 -491 0
488 -490 -491 0
488 -489 -490 0
-489 329 330 0
-489 -329 -330 0
489 -329 330 0
489 329 -330 0
-490 371 372 0
-490 -371 -372 0
490 -371 372 0
490 371 -372 0
-491 413 414 0
-491 -413 -414 0
491 -413 414 0
491 413 -414 0
-492 482 493 0
-492 -482 -493 0
492 -482 493 0
492 482 -493 0
-493 478 480 0
-493 -478 -480 0
493 -478 480 0
493 478 -480 0
494 -495 -508 0
-494 495 0
-494 508 0
-495 496 500 0
-495 500 504 0
-495 496 504 0
495 -496 -504 0
495 -500 -504 0
495 -496 -500 0
-496 -497 -499 0
-496 497 499 0
496 497 -499 0
496 -497 499 0
-497 526 498 0
-497 -526 -498 0
497 -526 498 0
497 526 -498 0
-498 519 527 0
-498 -527 535 0
-498 526 527 0
498 -527 -535 0
498 -519 -526 527 0
499 -526 259 0
-499 526 0
-499 -259 0
-500 -501 -503 0
-500 501 503 0
500 501 -503 0
500 -501 503 0
-501 551 502 0
-501 -551 -502 0
501 -551 502 0
501 551 -502 0
-502 558 566 0
-502 -558 564 0
-502 551 558 0
502 -558 -564 0
502 -551 558 -566 0
503 -551 258 0
-503 551 0
-503 -258 0
-504 -505 -507 0
-504 505 507 0
504 505 -507 0
504 -505 507 0
-505 545 506 0
-505 -545 -506 0
505 -545 506 0
505 545 -506 0
-506 532 545 0
-506 -532 550 0
-506 530 532 0
506 -532 -550 0
506 -530 532 -545 0
507 -545 285 0
-507 545 0
-507 -285 0
-508 491 509 0
-508 -491 -509 0
508 -491 509 0
508 491 -509 0
-509 489 490 0
-509 -489 -490 0
509 -489 490 0
509 489 -490 0
510 -511 495 -508 -512 0
510 -511 -495 508 -512 0
-510 512 0
-510 495 508 0
-510 511 0
-510 -495 -508 0
-511 488 492 0
-511 -488 -492 0
511 -488 492 0
511 488 -492 0
512 -258 -285 -513 0
512 -258 -259 -513 0
512 -259 -285 -513 0
-512 258 285 0
-512 259 285 0
-512 513 0
-512 258 259 0
-513 504 514 0
-513 -504 -514 0
513 -504 514 0
513 504 -514 0
-514 496 500 0
-514 -496 -500 0
514 -496 500 0
514 496 -500 0
515 -208 -211 0
-515 208 0
-515 211 0
-576 0
2 0
515 0

