c Result of efficient AIG-to-CNF conversion using package CNF
p cnf 308 1030
-2 3 136 0
-2 -3 -136 0
2 -3 136 0
2 3 -136 0
-3 4 120 0
-3 -4 -120 0
3 -4 120 0
3 4 -120 0
-4 5 37 0
-4 -5 -37 0
4 -5 37 0
4 5 -37 0
-5 -6 -29 0
-5 6 29 0
5 6 -29 0
5 -6 29 0
-6 7 21 0
-6 -7 -21 0
6 -7 21 0
6 7 -21 0
-7 8 18 0
-7 -8 -18 0
7 -8 18 0
7 8 -18 0
-8 9 14 0
-8 -9 -14 0
8 -9 14 0
8 9 -14 0
-9 -10 -13 0
-9 10 13 0
9 10 -13 0
9 -10 13 0
-10 -11 -12 0
-10 11 12 0
10 11 -12 0
10 -11 12 0
11 -268 -301 0
-11 268 0
-11 301 0
12 -281 -286 0
-12 281 0
-12 286 0
13 -278 -280 0
-13 278 0
-13 280 0
-14 15 17 0
-14 16 17 0
-14 15 16 0
14 -15 -16 0
14 -16 -17 0
14 -15 -17 0
15 -268 -281 0
-15 268 0
-15 281 0
16 -280 -286 0
-16 280 0
-16 286 0
17 -273 -278 0
-17 273 0
-17 278 0
-18 -19 -20 0
-18 19 20 0
18 19 -20 0
18 -19 20 0
19 -273 -279 0
-19 273 0
-19 279 0
20 -271 -276 0
-20 271 0
-20 276 0
-21 22 24 0
-21 24 28 0
-21 22 28 0
21 -24 -28 0
21 -22 -24 0
21 -22 -28 0
-22 17 23 0
-22 -17 -23 0
22 -17 23 0
22 17 -23 0
-23 -15 -16 0
-23 15 16 0
23 15 -16 0
23 -15 16 0
-24 25 27 0
-24 26 27 0
-24 25 26 0
24 -25 -26 0
24 -26 -27 0
24 -25 -27 0
25 -268 -280 0
-25 268 0
-25 280 0
26 -273 -286 0
-26 273 0
-26 286 0
27 -271 -278 0
-27 271 0
-27 278 0
28 -271 -279 0
-28 271 0
-28 279 0
29 -30 -32 0
-29 30 0
-29 32 0
-30 28 31 0
-30 -28 -31 0
30 -28 31 0
30 28 -31 0
-31 22 24 0
-31 -22 -24 0
31 -22 24 0
31 22 -24 0
32 -33 -35 0
-32 33 0
-32 35 0
-33 27 34 0
-33 -27 -34 0
33 -27 34 0
33 27 -34 0
-34 -25 -26 0
-34 25 26 0
34 25 -26 0
34 -25 26 0
35 -271 -286 -36 0
-35 271 0
-35 286 0
-35 36 0
36 -268 -273 0
-36 268 0
-36 273 0
-37 38 103 0
-37 -38 -103 0
37 -38 103 0
37 38 -103 0
-38 39 71 0
-38 -39 -71 0
38 -39 71 0
38 39 -71 0
-39 -40 -63 0
-39 40 63 0
39 40 -63 0
39 -40 63 0
-40 41 55 0
-40 -41 -55 0
40 -41 55 0
40 41 -55 0
-41 42 52 0
-41 -42 -52 0
41 -42 52 0
41 42 -52 0
-42 43 48 0
-42 -43 -48 0
42 -43 48 0
42 43 -48 0
-43 -44 -47 0
-43 44 47 0
43 44 -47 0
43 -44 47 0
-44 -45 -46 0
-44 45 46 0
44 45 -46 0
44 -45 46 0
45 -274 -292 0
-45 274 0
-45 292 0
46 -293 -307 0
-46 293 0
-46 307 0
47 -282 -294 0
-47 282 0
-47 294 0
-48 49 51 0
-48 50 51 0
-48 49 50 0
48 -49 -50 0
48 -50 -51 0
48 -49 -51 0
49 -292 -307 0
-49 292 0
-49 307 0
50 -282 -293 0
-50 282 0
-50 293 0
51 -294 -295 0
-51 294 0
-51 295 0
-52 -53 -54 0
-52 53 54 0
52 53 -54 0
52 -53 54 0
53 -295 -296 0
-53 295 0
-53 296 0
54 -297 -306 0
-54 297 0
-54 306 0
-55 56 58 0
-55 58 62 0
-55 56 62 0
55 -58 -62 0
55 -56 -58 0
55 -56 -62 0
-56 51 57 0
-56 -51 -57 0
56 -51 57 0
56 51 -57 0
-57 -49 -50 0
-57 49 50 0
57 49 -50 0
57 -49 50 0
-58 59 61 0
-58 60 61 0
-58 59 60 0
58 -59 -60 0
58 -60 -61 0
58 -59 -61 0
59 -282 -292 0
-59 282 0
-59 292 0
60 -293 -295 0
-60 293 0
-60 295 0
61 -294 -306 0
-61 294 0
-61 306 0
62 -296 -306 0
-62 296 0
-62 306 0
63 -64 -66 0
-63 64 0
-63 66 0
-64 62 65 0
-64 -62 -65 0
64 -62 65 0
64 62 -65 0
-65 56 58 0
-65 -56 -58 0
65 -56 58 0
65 56 -58 0
66 -67 -69 0
-66 67 0
-66 69 0
-67 61 68 0
-67 -61 -68 0
67 -61 68 0
67 61 -68 0
-68 -59 -60 0
-68 59 60 0
68 59 -60 0
68 -59 60 0
69 -293 -306 -70 0
-69 293 0
-69 306 0
-69 70 0
70 -292 -295 0
-70 292 0
-70 295 0
-71 -72 -95 0
-71 72 95 0
71 72 -95 0
71 -72 95 0
-72 73 87 0
-72 -73 -87 0
72 -73 87 0
72 73 -87 0
-73 74 84 0
-73 -74 -84 0
73 -74 84 0
73 74 -84 0
-74 75 80 0
-74 -75 -80 0
74 -75 80 0
74 75 -80 0
-75 -76 -79 0
-75 76 79 0
75 76 -79 0
75 -76 79 0
-76 -77 -78 0
-76 77 78 0
76 77 -78 0
76 -77 78 0
77 -265 -266 0
-77 265 0
-77 266 0
78 -263 -264 0
-78 263 0
-78 264 0
79 -261 -262 0
-79 261 0
-79 262 0
-80 81 83 0
-80 82 83 0
-80 81 82 0
80 -81 -82 0
80 -82 -83 0
80 -81 -83 0
81 -264 -265 0
-81 264 0
-81 265 0
82 -262 -263 0
-82 262 0
-82 263 0
83 -261 -267 0
-83 261 0
-83 267 0
-84 -85 -86 0
-84 85 86 0
84 85 -86 0
84 -85 86 0
85 -260 -267 0
-85 260 0
-85 267 0
86 -259 -290 0
-86 259 0
-86 290 0
-87 88 90 0
-87 90 94 0
-87 88 94 0
87 -90 -94 0
87 -88 -90 0
87 -88 -94 0
-88 83 89 0
-88 -83 -89 0
88 -83 89 0
88 83 -89 0
-89 -81 -82 0
-89 81 82 0
89 81 -82 0
89 -81 82 0
-90 91 93 0
-90 92 93 0
-90 91 92 0
90 -91 -92 0
90 -92 -93 0
90 -91 -93 0
91 -262 -265 0
-91 262 0
-91 265 0
92 -263 -267 0
-92 263 0
-92 267 0
93 -259 -261 0
-93 259 0
-93 261 0
94 -259 -260 0
-94 259 0
-94 260 0
95 -96 -98 0
-95 96 0
-95 98 0
-96 94 97 0
-96 -94 -97 0
96 -94 97 0
96 94 -97 0
-97 88 90 0
-97 -88 -90 0
97 -88 90 0
97 88 -90 0
98 -99 -101 0
-98 99 0
-98 101 0
-99 93 100 0
-99 -93 -100 0
99 -93 100 0
99 93 -100 0
-100 -91 -92 0
-100 91 92 0
100 91 -92 0
100 -91 92 0
101 -259 -263 -102 0
-101 259 0
-101 263 0
-101 102 0
102 -265 -267 0
-102 265 0
-102 267 0
-103 104 107 0
-103 107 111 0
-103 107 112 0
103 -107 0
103 -104 -111 -112 0
-104 105 106 0
-104 -105 -106 0
104 -105 106 0
104 105 -106 0
-105 -64 -66 0
-105 64 66 0
105 64 -66 0
105 -64 66 0
-106 -96 -98 0
-106 96 98 0
106 96 -98 0
106 -96 98 0
-107 105 106 0
-107 106 108 0
-107 105 108 0
107 -106 -108 0
107 -105 -106 0
107 -105 -108 0
108 -109 -110 0
-108 109 0
-108 110 0
-109 -67 -69 0
-109 67 69 0
109 67 -69 0
109 -67 69 0
-110 -99 -101 0
-110 99 101 0
110 99 -101 0
110 -99 101 0
-111 109 110 0
-111 -109 -110 0
111 -109 110 0
111 109 -110 0
-112 113 115 0
-112 115 117 0
-112 113 117 0
112 -115 -117 0
112 -113 -115 0
112 -113 -117 0
-113 -70 -114 0
-113 70 114 0
113 70 -114 0
113 -70 114 0
114 -293 -306 0
-114 293 0
-114 306 0
-115 -102 -116 0
-115 102 116 0
115 102 -116 0
115 -102 116 0
116 -259 -263 0
-116 259 0
-116 263 0
117 -118 -119 0
-117 118 0
-117 119 0
118 -292 -306 0
-118 292 0
-118 306 0
119 -259 -265 0
-119 259 0
-119 265 0
-120 121 122 127 0
-120 121 124 127 0
-120 122 124 127 0
120 -122 -124 0
120 -121 -122 0
120 -127 0
120 -121 -124 0
-121 -30 -32 0
-121 30 32 0
121 30 -32 0
121 -30 32 0
-122 104 123 0
-122 -104 -123 0
122 -104 123 0
122 104 -123 0
-123 108 111 0
-123 108 112 0
123 -108 0
123 -111 -112 0
124 -125 -126 0
-124 125 0
-124 126 0
-125 -33 -35 0
-125 33 35 0
125 33 -35 0
125 -33 35 0
-126 111 112 0
-126 -111 -112 0
126 -111 112 0
126 111 -112 0
127 -128 -125 126 -129 0
127 -128 125 -126 -129 0
-127 129 0
-127 125 126 0
-127 128 0
-127 -125 -126 0
-128 121 122 0
-128 -121 -122 0
128 -121 122 0
128 121 -122 0
-129 130 132 0
-129 132 134 0
-129 130 134 0
129 -132 -134 0
129 -130 -132 0
129 -130 -134 0
-130 -36 -131 0
-130 36 131 0
130 36 -131 0
130 -36 131 0
131 -271 -286 0
-131 271 0
-131 286 0
-132 -133 -117 0
-132 133 117 0
132 133 -117 0
132 -133 117 0
-133 113 115 0
-133 -113 -115 0
133 -113 115 0
133 113 -115 0
134 118 -119 -135 0
134 -118 119 -135 0
-134 135 0
-134 118 119 0
-134 -118 -119 0
135 -268 -271 0
-135 268 0
-135 271 0
-136 137 225 0
-136 -137 -225 0
136 -137 225 0
136 137 -225 0
-137 138 190 0
-137 -138 -190 0
137 -138 190 0
137 138 -190 0
-138 139 156 0
-138 156 173 0
-138 139 173 0
138 -139 -173 0
138 -156 -173 0
138 -139 -156 0
-139 140 150 0
-139 -140 -150 0
139 -140 150 0
139 140 -150 0
-140 -141 -148 0
-140 141 148 0
140 141 -148 0
140 -141 148 0
-141 142 144 0
-141 -142 -144 0
141 -142 144 0
141 142 -144 0
-142 263 143 0
-142 -263 -143 0
142 -263 143 0
142 263 -143 0
-143 263 265 0
-143 264 -265 0
-143 262 265 0
143 -264 -265 0
143 -262 -263 265 0
-144 260 145 0
-144 -260 -145 0
144 -260 145 0
144 260 -145 0
-145 146 147 0
-145 259 267 0
-145 267 147 0
-145 259 146 0
145 -267 -146 0
145 -259 -147 0
146 261 -263 0
146 -261 263 0
-146 -261 -263 0
-146 261 263 0
-147 -261 263 0
-147 -260 -263 0
-147 260 261 0
147 260 -261 -263 0
147 -260 261 263 0
148 -260 149 0
-148 260 0
-148 -149 0
149 -259 -146 0
-149 259 0
-149 146 0
-150 151 154 0
-150 151 155 0
150 -151 0
150 -154 -155 0
151 -149 -152 0
-151 149 0
-151 152 0
-152 263 153 0
-152 -263 -153 0
152 -263 153 0
152 263 -153 0
-153 265 267 0
-153 262 -265 0
-153 263 265 0
153 -262 -265 0
153 -263 265 -267 0
-154 149 152 0
-154 -149 -152 0
154 -149 152 0
154 149 -152 0
155 259 -263 102 0
-155 -259 0
-155 263 0
-155 -102 0
-156 157 167 0
-156 -157 -167 0
156 -157 167 0
156 157 -167 0
-157 -158 -165 0
-157 158 165 0
157 158 -165 0
157 -158 165 0
-158 159 161 0
-158 -159 -161 0
158 -159 161 0
158 159 -161 0
-159 293 160 0
-159 -293 -160 0
159 -293 160 0
159 293 -160 0
-160 292 293 0
-160 -292 307 0
-160 282 292 0
160 -292 -307 0
160 -282 292 -293 0
-161 296 162 0
-161 -296 -162 0
161 -296 162 0
161 296 -162 0
-162 163 164 0
-162 295 306 0
-162 295 164 0
-162 306 163 0
162 -295 -163 0
162 -306 -164 0
163 293 -294 0
163 -293 294 0
-163 -293 -294 0
-163 293 294 0
-164 -293 -296 0
-164 294 296 0
-164 293 -294 0
164 -293 -294 296 0
164 293 294 -296 0
165 -296 166 0
-165 296 0
-165 -166 0
166 -306 -163 0
-166 306 0
-166 163 0
-167 168 171 0
-167 168 172 0
167 -168 0
167 -171 -172 0
168 -166 -169 0
-168 166 0
-168 169 0
-169 293 170 0
-169 -293 -170 0
169 -293 170 0
169 293 -170 0
-170 292 295 0
-170 282 -292 0
-170 292 293 0
170 -282 -292 0
170 292 -293 -295 0
-171 166 169 0
-171 -166 -169 0
171 -166 169 0
171 166 -169 0
172 -293 306 70 0
-172 293 0
-172 -70 0
-172 -306 0
-173 174 184 0
-173 -174 -184 0
173 -174 184 0
173 174 -184 0
-174 -175 -182 0
-174 175 182 0
174 175 -182 0
174 -175 182 0
-175 176 178 0
-175 -176 -178 0
175 -176 178 0
175 176 -178 0
-176 286 177 0
-176 -286 -177 0
176 -286 177 0
176 286 -177 0
-177 -268 281 0
-177 268 280 0
-177 268 286 0
177 -268 -281 0
177 268 -280 -286 0
-178 279 179 0
-178 -279 -179 0
178 -279 179 0
178 279 -179 0
-179 180 181 0
-179 271 273 0
-179 273 181 0
-179 271 180 0
179 -273 -180 0
179 -271 -181 0
180 278 -286 0
180 -278 286 0
-180 -278 -286 0
-180 278 286 0
-181 -278 -279 0
-181 279 286 0
-181 278 -286 0
181 278 -279 286 0
181 -278 279 -286 0
182 -279 183 0
-182 279 0
-182 -183 0
183 -271 -180 0
-183 271 0
-183 180 0
-184 185 188 0
-184 185 189 0
184 -185 0
184 -188 -189 0
185 -183 -186 0
-185 183 0
-185 186 0
-186 286 187 0
-186 -286 -187 0
186 -286 187 0
186 286 -187 0
-187 -268 280 0
-187 268 273 0
-187 268 286 0
187 -268 -280 0
187 268 -273 -286 0
-188 183 186 0
-188 -183 -186 0
188 -183 186 0
188 183 -186 0
189 271 -286 36 0
-189 -271 0
-189 286 0
-189 -36 0
-190 191 214 0
-190 -191 -214 0
190 -191 214 0
190 191 -214 0
-191 192 203 0
-191 -192 -203 0
191 -192 203 0
191 192 -203 0
-192 193 202 0
-192 -193 -202 0
192 -193 202 0
192 193 -202 0
-193 194 195 0
-193 -194 -195 0
193 -194 195 0
193 194 -195 0
-194 260 142 0
-194 142 144 0
-194 260 144 0
-194 144 -149 0
-194 142 -149 0
194 -142 -144 0
194 -260 -142 149 0
194 -260 -144 149 0
-195 -196 -201 0
-195 196 201 0
195 196 -201 0
195 -196 201 0
-196 197 199 0
-196 -197 -199 0
196 -197 199 0
196 197 -199 0
-197 263 198 0
-197 -263 -198 0
197 -263 198 0
197 263 -198 0
-198 263 265 0
-198 -265 266 0
-198 264 265 0
198 -265 -266 0
198 -263 -264 265 0
-199 260 200 0
-199 -260 -200 0
199 -260 200 0
199 260 -200 0
-200 146 147 0
-200 262 267 0
-200 262 147 0
-200 267 146 0
200 -262 -146 0
200 -267 -147 0
201 -259 260 -290 0
201 -259 -260 290 0
-201 259 0
-201 -260 -290 0
-201 260 290 0
-202 140 0
-202 151 155 0
-202 151 154 0
202 -140 -151 0
202 -140 -154 -155 0
-203 204 213 0
-203 -204 -213 0
203 -204 213 0
203 204 -213 0
-204 205 206 0
-204 -205 -206 0
204 -205 206 0
204 205 -206 0
-205 159 161 0
-205 161 165 0
-205 159 165 0
205 -161 -165 0
205 -159 -161 0
205 -159 -165 0
-206 -207 -212 0
-206 207 212 0
206 207 -212 0
206 -207 212 0
-207 208 210 0
-207 -208 -210 0
207 -208 210 0
207 208 -210 0
-208 293 209 0
-208 -293 -209 0
208 -293 209 0
208 293 -209 0
-209 292 307 0
-209 274 -292 0
-209 292 293 0
209 -274 -292 0
209 292 -293 -307 0
-210 296 211 0
-210 -296 -211 0
210 -296 211 0
210 296 -211 0
-211 163 164 0
-211 282 295 0
-211 282 164 0
-211 295 163 0
211 -282 -163 0
211 -295 -164 0
212 296 -297 -306 0
212 -296 297 -306 0
-212 306 0
-212 296 297 0
-212 -296 -297 0
-213 157 0
-213 168 172 0
-213 168 171 0
213 -157 -168 0
213 -157 -171 -172 0
-214 215 224 0
-214 -215 -224 0
214 -215 224 0
214 215 -224 0
-215 216 217 0
-215 -216 -217 0
215 -216 217 0
215 216 -217 0
-216 176 178 0
-216 178 182 0
-216 176 182 0
216 -178 -182 0
216 -176 -178 0
216 -176 -182 0
-217 -218 -223 0
-217 218 223 0
217 218 -223 0
217 -218 223 0
-218 219 221 0
-218 -219 -221 0
218 -219 221 0
218 219 -221 0
-219 286 220 0
-219 -286 -220 0
219 -286 220 0
219 286 -220 0
-220 -268 301 0
-220 268 286 0
-220 268 281 0
220 -268 -301 0
220 268 -281 -286 0
-221 279 222 0
-221 -279 -222 0
221 -279 222 0
221 279 -222 0
-222 180 181 0
-222 273 280 0
-222 280 181 0
-222 273 180 0
222 -280 -180 0
222 -273 -181 0
223 -271 276 -279 0
223 -271 -276 279 0
-223 271 0
-223 -276 -279 0
-223 276 279 0
-224 174 0
-224 185 189 0
-224 185 188 0
224 -174 -185 0
224 -174 -188 -189 0
-225 226 230 248 0
-225 226 232 248 0
-225 230 232 248 0
225 -230 -232 0
225 -226 -230 0
225 -248 0
225 -226 -232 0
-226 227 228 0
-226 228 229 0
-226 227 229 0
226 -227 -229 0
226 -228 -229 0
226 -227 -228 0
-227 -154 -155 0
-227 154 155 0
227 154 -155 0
227 -154 155 0
-228 -171 -172 0
-228 171 172 0
228 171 -172 0
228 -171 172 0
-229 -188 -189 0
-229 188 189 0
229 188 -189 0
229 -188 189 0
-230 173 231 0
-230 -173 -231 0
230 -173 231 0
230 173 -231 0
-231 139 156 0
-231 -139 -156 0
231 -139 156 0
231 139 -156 0
232 -233 -246 0
-232 233 0
-232 246 0
-233 234 238 0
-233 238 242 0
-233 234 242 0
233 -234 -242 0
233 -238 -242 0
233 -234 -238 0
-234 -235 -237 0
-234 235 237 0
234 235 -237 0
234 -235 237 0
-235 263 236 0
-235 -263 -236 0
235 -263 236 0
235 263 -236 0
-236 259 265 0
-236 -265 267 0
-236 263 265 0
236 -265 -267 0
236 -259 -263 265 0
237 -263 119 0
-237 263 0
-237 -119 0
-238 -239 -241 0
-238 239 241 0
238 239 -241 0
238 -239 241 0
-239 293 240 0
-239 -293 -240 0
239 -293 240 0
239 293 -240 0
-240 -292 295 0
-240 292 293 0
-240 292 306 0
240 -292 -295 0
240 292 -293 -306 0
241 -293 118 0
-241 293 0
-241 -118 0
-242 -243 -245 0
-242 243 245 0
242 243 -245 0
242 -243 245 0
-243 286 244 0
-243 -286 -244 0
243 -286 244 0
243 286 -244 0
-244 -268 273 0
-244 268 271 0
-244 268 286 0
244 -268 -273 0
244 268 -271 -286 0
245 -286 135 0
-245 286 0
-245 -135 0
-246 229 247 0
-246 -229 -247 0
246 -229 247 0
246 229 -247 0
-247 227 228 0
-247 -227 -228 0
247 -227 228 0
247 227 -228 0
248 -249 233 -246 -250 0
248 -249 -233 246 -250 0
-248 250 0
-248 233 246 0
-248 249 0
-248 -233 -246 0
-249 226 230 0
-249 -226 -230 0
249 -226 230 0
249 226 -230 0
250 -118 -135 -251 0
250 -118 -119 -251 0
250 -119 -135 -251 0
-250 118 135 0
-250 119 135 0
-250 251 0
-250 118 119 0
-251 242 252 0
-251 -242 -252 0
251 -242 252 0
251 242 -252 0
-252 234 238 0
-252 -234 -238 0
252 -234 238 0
252 234 -238 0
253 -263 -267 -91 0
-253 263 0
-253 267 0
-253 91 0
-308 0
2 0
-253 0

