c Result of efficient AIG-to-CNF conversion using package CNF
p cnf 977 3353
-2 3 0
2 -3 0
-3 4 936 -940 -943 0
-3 4 936 940 943 0
3 -936 0
3 940 -943 0
3 -4 0
3 -940 943 0
-4 5 931 -934 -935 0
-4 5 931 934 935 0
4 -931 0
4 934 -935 0
4 -5 0
4 -934 935 0
-5 6 926 -929 -930 0
-5 6 926 929 930 0
5 -926 0
5 929 -930 0
5 -6 0
5 -929 930 0
-6 7 921 -924 -925 0
-6 7 921 924 925 0
6 -921 0
6 924 -925 0
6 -7 0
6 -924 925 0
-7 8 316 -919 -920 0
-7 -8 -316 -919 -920 0
-7 8 316 919 920 0
-7 -8 -316 919 920 0
7 8 -316 0
7 -8 316 0
7 919 -920 0
7 -919 920 0
8 9 -312 0
8 -9 312 0
-8 -9 -312 0
-8 9 312 0
9 10 -261 0
9 -10 261 0
-9 -10 -261 0
-9 10 261 0
10 -11 -256 0
-10 11 0
-10 256 0
11 12 -211 0
11 -12 211 0
-11 -12 -211 0
-11 12 211 0
12 -13 -206 0
-12 13 0
-12 206 0
13 14 -167 0
13 -14 167 0
-13 -14 -167 0
-13 14 167 0
14 -15 -162 0
-14 15 0
-14 162 0
15 16 -129 0
15 -16 129 0
-15 -16 -129 0
-15 16 129 0
16 -17 -124 0
-16 17 0
-16 124 0
17 18 -97 0
17 -18 97 0
-17 -18 -97 0
-17 18 97 0
18 -19 -92 0
-18 19 0
-18 92 0
19 20 -71 0
19 -20 71 0
-19 -20 -71 0
-19 20 71 0
20 -21 -66 0
-20 21 0
-20 66 0
21 22 -51 0
21 -22 51 0
-21 -22 -51 0
-21 22 51 0
22 -23 -46 0
-22 23 0
-22 46 0
23 24 -37 0
23 -24 37 0
-23 -24 -37 0
-23 24 37 0
24 -947 -25 -34 0
-24 947 0
-24 25 0
-24 34 0
25 26 -31 0
25 -26 31 0
-25 -26 -31 0
-25 26 31 0
26 -944 -947 -27 -28 0
-26 28 0
-26 944 0
-26 27 0
-26 947 0
27 945 -946 0
27 -945 946 0
-27 -945 -946 0
-27 945 946 0
28 29 -30 0
28 -29 30 0
-28 -29 -30 0
-28 29 30 0
29 -945 -946 0
-29 945 0
-29 946 0
30 948 -949 0
30 -948 949 0
-30 -948 -949 0
-30 948 949 0
31 32 -33 0
31 -32 33 0
-31 -32 -33 0
-31 32 33 0
32 -950 -27 0
-32 950 0
-32 27 0
33 -944 -28 0
-33 944 0
-33 28 0
34 35 -36 0
34 -35 36 0
-34 -35 -36 0
-34 35 36 0
-35 948 29 0
-35 949 29 0
-35 948 949 0
35 -948 -949 0
35 -949 -29 0
35 -948 -29 0
36 951 -952 0
36 -951 952 0
-36 -951 -952 0
-36 951 952 0
37 38 -45 0
37 -38 45 0
-37 -38 -45 0
-37 38 45 0
38 39 -42 0
38 -39 42 0
-38 -39 -42 0
-38 39 42 0
-39 40 41 0
39 -40 0
39 -41 0
40 -944 -950 -27 -28 0
-40 28 0
-40 944 0
-40 27 0
-40 950 0
41 -26 -31 0
-41 26 0
-41 31 0
42 43 -44 0
42 -43 44 0
-42 -43 -44 0
-42 43 44 0
43 -953 -27 0
-43 953 0
-43 27 0
44 -950 -28 0
-44 950 0
-44 28 0
45 -944 -34 0
-45 944 0
-45 34 0
46 -947 -47 0
-46 947 0
-46 47 0
47 48 -50 0
47 -48 50 0
-47 -48 -50 0
-47 48 50 0
-48 951 49 0
-48 952 49 0
48 -49 0
48 -951 -952 0
49 951 -952 -35 0
49 -951 952 -35 0
-49 35 0
-49 951 952 0
-49 -951 -952 0
50 954 -955 0
50 -954 955 0
-50 -954 -955 0
-50 954 955 0
51 52 -65 0
51 -52 65 0
-51 -52 -65 0
-51 52 65 0
52 53 -56 0
52 -53 56 0
-52 -53 -56 0
-52 53 56 0
-53 54 55 0
53 -54 0
53 -55 0
54 -944 -34 -38 0
-54 944 0
-54 34 0
-54 38 0
55 -24 -37 0
-55 24 0
-55 37 0
56 57 -64 0
56 -57 64 0
-56 -57 -64 0
-56 57 64 0
57 58 -61 0
57 -58 61 0
-57 -58 -61 0
-57 58 61 0
-58 59 60 0
58 -59 0
58 -60 0
59 -950 -953 -27 -28 0
-59 28 0
-59 950 0
-59 27 0
-59 953 0
60 -39 -42 0
-60 39 0
-60 42 0
61 62 -63 0
61 -62 63 0
-61 -62 -63 0
-61 62 63 0
62 -956 -27 0
-62 956 0
-62 27 0
63 -953 -28 0
-63 953 0
-63 28 0
64 -950 -34 0
-64 950 0
-64 34 0
65 -944 -47 0
-65 944 0
-65 47 0
66 -947 -67 0
-66 947 0
-66 67 0
67 68 -70 0
67 -68 70 0
-67 -68 -70 0
-67 68 70 0
-68 954 69 0
-68 955 69 0
68 -69 0
68 -954 -955 0
69 954 -955 -48 0
69 -954 955 -48 0
-69 48 0
-69 954 955 0
-69 -954 -955 0
70 957 -958 0
70 -957 958 0
-70 -957 -958 0
-70 957 958 0
71 72 -91 0
71 -72 91 0
-71 -72 -91 0
-71 72 91 0
72 73 -76 0
72 -73 76 0
-72 -73 -76 0
-72 73 76 0
-73 74 75 0
73 -74 0
73 -75 0
74 -52 -65 0
-74 52 0
-74 65 0
75 -22 -51 0
-75 22 0
-75 51 0
76 77 -90 0
76 -77 90 0
-76 -77 -90 0
-76 77 90 0
77 78 -81 0
77 -78 81 0
-77 -78 -81 0
-77 78 81 0
-78 79 80 0
78 -79 0
78 -80 0
79 -950 -34 -57 0
-79 950 0
-79 34 0
-79 57 0
80 -53 -56 0
-80 53 0
-80 56 0
81 82 -89 0
81 -82 89 0
-81 -82 -89 0
-81 82 89 0
82 83 -86 0
82 -83 86 0
-82 -83 -86 0
-82 83 86 0
-83 84 85 0
83 -84 0
83 -85 0
84 -953 -956 -27 -28 0
-84 28 0
-84 953 0
-84 27 0
-84 956 0
85 -58 -61 0
-85 58 0
-85 61 0
86 87 -88 0
86 -87 88 0
-86 -87 -88 0
-86 87 88 0
87 -959 -27 0
-87 959 0
-87 27 0
88 -956 -28 0
-88 956 0
-88 28 0
89 -953 -34 0
-89 953 0
-89 34 0
90 -950 -47 0
-90 950 0
-90 47 0
91 -944 -67 0
-91 944 0
-91 67 0
92 -947 -93 0
-92 947 0
-92 93 0
93 94 -96 0
93 -94 96 0
-93 -94 -96 0
-93 94 96 0
-94 957 95 0
-94 958 95 0
94 -95 0
94 -957 -958 0
95 957 -958 -68 0
95 -957 958 -68 0
-95 68 0
-95 957 958 0
-95 -957 -958 0
96 960 -961 0
96 -960 961 0
-96 -960 -961 0
-96 960 961 0
97 98 -123 0
97 -98 123 0
-97 -98 -123 0
-97 98 123 0
98 99 -102 0
98 -99 102 0
-98 -99 -102 0
-98 99 102 0
-99 100 101 0
99 -100 0
99 -101 0
100 -72 -91 0
-100 72 0
-100 91 0
101 -20 -71 0
-101 20 0
-101 71 0
102 103 -122 0
102 -103 122 0
-102 -103 -122 0
-102 103 122 0
103 104 -107 0
103 -104 107 0
-103 -104 -107 0
-103 104 107 0
-104 105 106 0
104 -105 0
104 -106 0
105 -77 -90 0
-105 77 0
-105 90 0
106 -73 -76 0
-106 73 0
-106 76 0
107 108 -121 0
107 -108 121 0
-107 -108 -121 0
-107 108 121 0
108 109 -112 0
108 -109 112 0
-108 -109 -112 0
-108 109 112 0
-109 110 111 0
109 -110 0
109 -111 0
110 -953 -34 -82 0
-110 953 0
-110 34 0
-110 82 0
111 -78 -81 0
-111 78 0
-111 81 0
112 113 -120 0
112 -113 120 0
-112 -113 -120 0
-112 113 120 0
113 114 -117 0
113 -114 117 0
-113 -114 -117 0
-113 114 117 0
-114 115 116 0
114 -115 0
114 -116 0
115 -956 -959 -27 -28 0
-115 28 0
-115 956 0
-115 27 0
-115 959 0
116 -83 -86 0
-116 83 0
-116 86 0
117 118 -119 0
117 -118 119 0
-117 -118 -119 0
-117 118 119 0
118 -962 -27 0
-118 962 0
-118 27 0
119 -959 -28 0
-119 959 0
-119 28 0
120 -956 -34 0
-120 956 0
-120 34 0
121 -953 -47 0
-121 953 0
-121 47 0
122 -950 -67 0
-122 950 0
-122 67 0
123 -944 -93 0
-123 944 0
-123 93 0
124 -947 -125 0
-124 947 0
-124 125 0
125 126 -128 0
125 -126 128 0
-125 -126 -128 0
-125 126 128 0
-126 960 127 0
-126 961 127 0
126 -127 0
126 -960 -961 0
127 960 -961 -94 0
127 -960 961 -94 0
-127 94 0
-127 960 961 0
-127 -960 -961 0
128 963 -964 0
128 -963 964 0
-128 -963 -964 0
-128 963 964 0
129 130 -161 0
129 -130 161 0
-129 -130 -161 0
-129 130 161 0
130 131 -134 0
130 -131 134 0
-130 -131 -134 0
-130 131 134 0
-131 132 133 0
131 -132 0
131 -133 0
132 -98 -123 0
-132 98 0
-132 123 0
133 -18 -97 0
-133 18 0
-133 97 0
134 135 -160 0
134 -135 160 0
-134 -135 -160 0
-134 135 160 0
135 136 -139 0
135 -136 139 0
-135 -136 -139 0
-135 136 139 0
-136 137 138 0
136 -137 0
136 -138 0
137 -103 -122 0
-137 103 0
-137 122 0
138 -99 -102 0
-138 99 0
-138 102 0
139 140 -159 0
139 -140 159 0
-139 -140 -159 0
-139 140 159 0
140 141 -144 0
140 -141 144 0
-140 -141 -144 0
-140 141 144 0
-141 142 143 0
141 -142 0
141 -143 0
142 -108 -121 0
-142 108 0
-142 121 0
143 -104 -107 0
-143 104 0
-143 107 0
144 145 -158 0
144 -145 158 0
-144 -145 -158 0
-144 145 158 0
145 146 -149 0
145 -146 149 0
-145 -146 -149 0
-145 146 149 0
-146 147 148 0
146 -147 0
146 -148 0
147 -956 -34 -113 0
-147 956 0
-147 34 0
-147 113 0
148 -109 -112 0
-148 109 0
-148 112 0
149 150 -157 0
149 -150 157 0
-149 -150 -157 0
-149 150 157 0
150 151 -154 0
150 -151 154 0
-150 -151 -154 0
-150 151 154 0
-151 152 153 0
151 -152 0
151 -153 0
152 -959 -962 -27 -28 0
-152 28 0
-152 959 0
-152 27 0
-152 962 0
153 -114 -117 0
-153 114 0
-153 117 0
154 155 -156 0
154 -155 156 0
-154 -155 -156 0
-154 155 156 0
155 -965 -27 0
-155 965 0
-155 27 0
156 -962 -28 0
-156 962 0
-156 28 0
157 -959 -34 0
-157 959 0
-157 34 0
158 -956 -47 0
-158 956 0
-158 47 0
159 -953 -67 0
-159 953 0
-159 67 0
160 -950 -93 0
-160 950 0
-160 93 0
161 -944 -125 0
-161 944 0
-161 125 0
162 -947 -163 0
-162 947 0
-162 163 0
163 164 -166 0
163 -164 166 0
-163 -164 -166 0
-163 164 166 0
-164 963 165 0
-164 964 165 0
164 -165 0
164 -963 -964 0
165 963 -964 -126 0
165 -963 964 -126 0
-165 126 0
-165 963 964 0
-165 -963 -964 0
166 966 -967 0
166 -966 967 0
-166 -966 -967 0
-166 966 967 0
167 168 -205 0
167 -168 205 0
-167 -168 -205 0
-167 168 205 0
168 169 -172 0
168 -169 172 0
-168 -169 -172 0
-168 169 172 0
-169 170 171 0
169 -170 0
169 -171 0
170 -130 -161 0
-170 130 0
-170 161 0
171 -16 -129 0
-171 16 0
-171 129 0
172 173 -204 0
172 -173 204 0
-172 -173 -204 0
-172 173 204 0
173 174 -177 0
173 -174 177 0
-173 -174 -177 0
-173 174 177 0
-174 175 176 0
174 -175 0
174 -176 0
175 -135 -160 0
-175 135 0
-175 160 0
176 -131 -134 0
-176 131 0
-176 134 0
177 178 -203 0
177 -178 203 0
-177 -178 -203 0
-177 178 203 0
178 179 -182 0
178 -179 182 0
-178 -179 -182 0
-178 179 182 0
-179 180 181 0
179 -180 0
179 -181 0
180 -140 -159 0
-180 140 0
-180 159 0
181 -136 -139 0
-181 136 0
-181 139 0
182 183 -202 0
182 -183 202 0
-182 -183 -202 0
-182 183 202 0
183 184 -187 0
183 -184 187 0
-183 -184 -187 0
-183 184 187 0
-184 185 186 0
184 -185 0
184 -186 0
185 -145 -158 0
-185 145 0
-185 158 0
186 -141 -144 0
-186 141 0
-186 144 0
187 188 -201 0
187 -188 201 0
-187 -188 -201 0
-187 188 201 0
188 189 -192 0
188 -189 192 0
-188 -189 -192 0
-188 189 192 0
-189 190 191 0
189 -190 0
189 -191 0
190 -959 -34 -150 0
-190 959 0
-190 34 0
-190 150 0
191 -146 -149 0
-191 146 0
-191 149 0
192 193 -200 0
192 -193 200 0
-192 -193 -200 0
-192 193 200 0
193 194 -197 0
193 -194 197 0
-193 -194 -197 0
-193 194 197 0
-194 195 196 0
194 -195 0
194 -196 0
195 -962 -965 -27 -28 0
-195 28 0
-195 962 0
-195 27 0
-195 965 0
196 -151 -154 0
-196 151 0
-196 154 0
197 198 -199 0
197 -198 199 0
-197 -198 -199 0
-197 198 199 0
198 -968 -27 0
-198 968 0
-198 27 0
199 -965 -28 0
-199 965 0
-199 28 0
200 -962 -34 0
-200 962 0
-200 34 0
201 -959 -47 0
-201 959 0
-201 47 0
202 -956 -67 0
-202 956 0
-202 67 0
203 -953 -93 0
-203 953 0
-203 93 0
204 -950 -125 0
-204 950 0
-204 125 0
205 -944 -163 0
-205 944 0
-205 163 0
206 -947 -207 0
-206 947 0
-206 207 0
207 208 -210 0
207 -208 210 0
-207 -208 -210 0
-207 208 210 0
-208 966 209 0
-208 967 209 0
208 -209 0
208 -966 -967 0
209 966 -967 -164 0
209 -966 967 -164 0
-209 164 0
-209 966 967 0
-209 -966 -967 0
210 969 -970 0
210 -969 970 0
-210 -969 -970 0
-210 969 970 0
211 212 -255 0
211 -212 255 0
-211 -212 -255 0
-211 212 255 0
212 213 -216 0
212 -213 216 0
-212 -213 -216 0
-212 213 216 0
-213 214 215 0
213 -214 0
213 -215 0
214 -168 -205 0
-214 168 0
-214 205 0
215 -14 -167 0
-215 14 0
-215 167 0
216 217 -254 0
216 -217 254 0
-216 -217 -254 0
-216 217 254 0
217 218 -221 0
217 -218 221 0
-217 -218 -221 0
-217 218 221 0
-218 219 220 0
218 -219 0
218 -220 0
219 -173 -204 0
-219 173 0
-219 204 0
220 -169 -172 0
-220 169 0
-220 172 0
221 222 -253 0
221 -222 253 0
-221 -222 -253 0
-221 222 253 0
222 223 -226 0
222 -223 226 0
-222 -223 -226 0
-222 223 226 0
-223 224 225 0
223 -224 0
223 -225 0
224 -178 -203 0
-224 178 0
-224 203 0
225 -174 -177 0
-225 174 0
-225 177 0
226 227 -252 0
226 -227 252 0
-226 -227 -252 0
-226 227 252 0
227 228 -231 0
227 -228 231 0
-227 -228 -231 0
-227 228 231 0
-228 229 230 0
228 -229 0
228 -230 0
229 -183 -202 0
-229 183 0
-229 202 0
230 -179 -182 0
-230 179 0
-230 182 0
231 232 -251 0
231 -232 251 0
-231 -232 -251 0
-231 232 251 0
232 233 -236 0
232 -233 236 0
-232 -233 -236 0
-232 233 236 0
-233 234 235 0
233 -234 0
233 -235 0
234 -188 -201 0
-234 188 0
-234 201 0
235 -184 -187 0
-235 184 0
-235 187 0
236 237 -250 0
236 -237 250 0
-236 -237 -250 0
-236 237 250 0
237 238 -241 0
237 -238 241 0
-237 -238 -241 0
-237 238 241 0
-238 239 240 0
238 -239 0
238 -240 0
239 -962 -34 -193 0
-239 962 0
-239 34 0
-239 193 0
240 -189 -192 0
-240 189 0
-240 192 0
241 242 -249 0
241 -242 249 0
-241 -242 -249 0
-241 242 249 0
242 243 -246 0
242 -243 246 0
-242 -243 -246 0
-242 243 246 0
-243 244 245 0
243 -244 0
243 -245 0
244 -965 -968 -27 -28 0
-244 28 0
-244 965 0
-244 27 0
-244 968 0
245 -194 -197 0
-245 194 0
-245 197 0
246 247 -248 0
246 -247 248 0
-246 -247 -248 0
-246 247 248 0
247 -971 -27 0
-247 971 0
-247 27 0
248 -968 -28 0
-248 968 0
-248 28 0
249 -965 -34 0
-249 965 0
-249 34 0
250 -962 -47 0
-250 962 0
-250 47 0
251 -959 -67 0
-251 959 0
-251 67 0
252 -956 -93 0
-252 956 0
-252 93 0
253 -953 -125 0
-253 953 0
-253 125 0
254 -950 -163 0
-254 950 0
-254 163 0
255 -944 -207 0
-255 944 0
-255 207 0
256 -947 -257 0
-256 947 0
-256 257 0
257 258 -260 0
257 -258 260 0
-257 -258 -260 0
-257 258 260 0
-258 969 259 0
-258 970 259 0
258 -259 0
258 -969 -970 0
259 969 -970 -208 0
259 -969 970 -208 0
-259 208 0
-259 969 970 0
-259 -969 -970 0
260 972 -973 0
260 -972 973 0
-260 -972 -973 0
-260 972 973 0
261 262 -311 0
261 -262 311 0
-261 -262 -311 0
-261 262 311 0
262 263 -266 0
262 -263 266 0
-262 -263 -266 0
-262 263 266 0
-263 264 265 0
263 -264 0
263 -265 0
264 -212 -255 0
-264 212 0
-264 255 0
265 -12 -211 0
-265 12 0
-265 211 0
266 267 -310 0
266 -267 310 0
-266 -267 -310 0
-266 267 310 0
267 268 -271 0
267 -268 271 0
-267 -268 -271 0
-267 268 271 0
-268 269 270 0
268 -269 0
268 -270 0
269 -217 -254 0
-269 217 0
-269 254 0
270 -213 -216 0
-270 213 0
-270 216 0
271 272 -309 0
271 -272 309 0
-271 -272 -309 0
-271 272 309 0
272 273 -276 0
272 -273 276 0
-272 -273 -276 0
-272 273 276 0
-273 274 275 0
273 -274 0
273 -275 0
274 -222 -253 0
-274 222 0
-274 253 0
275 -218 -221 0
-275 218 0
-275 221 0
276 277 -308 0
276 -277 308 0
-276 -277 -308 0
-276 277 308 0
277 278 -281 0
277 -278 281 0
-277 -278 -281 0
-277 278 281 0
-278 279 280 0
278 -279 0
278 -280 0
279 -227 -252 0
-279 227 0
-279 252 0
280 -223 -226 0
-280 223 0
-280 226 0
281 282 -307 0
281 -282 307 0
-281 -282 -307 0
-281 282 307 0
282 283 -286 0
282 -283 286 0
-282 -283 -286 0
-282 283 286 0
-283 284 285 0
283 -284 0
283 -285 0
284 -232 -251 0
-284 232 0
-284 251 0
285 -228 -231 0
-285 228 0
-285 231 0
286 287 -306 0
286 -287 306 0
-286 -287 -306 0
-286 287 306 0
287 288 -291 0
287 -288 291 0
-287 -288 -291 0
-287 288 291 0
-288 289 290 0
288 -289 0
288 -290 0
289 -237 -250 0
-289 237 0
-289 250 0
290 -233 -236 0
-290 233 0
-290 236 0
291 292 -305 0
291 -292 305 0
-291 -292 -305 0
-291 292 305 0
292 293 -296 0
292 -293 296 0
-292 -293 -296 0
-292 293 296 0
-293 294 295 0
293 -294 0
293 -295 0
294 -965 -34 -242 0
-294 965 0
-294 34 0
-294 242 0
295 -238 -241 0
-295 238 0
-295 241 0
296 297 -304 0
296 -297 304 0
-296 -297 -304 0
-296 297 304 0
297 298 -301 0
297 -298 301 0
-297 -298 -301 0
-297 298 301 0
-298 299 300 0
298 -299 0
298 -300 0
299 -968 -971 -27 -28 0
-299 28 0
-299 968 0
-299 27 0
-299 971 0
300 -243 -246 0
-300 243 0
-300 246 0
301 302 -303 0
301 -302 303 0
-301 -302 -303 0
-301 302 303 0
302 -974 -27 0
-302 974 0
-302 27 0
303 -971 -28 0
-303 971 0
-303 28 0
304 -968 -34 0
-304 968 0
-304 34 0
305 -965 -47 0
-305 965 0
-305 47 0
306 -962 -67 0
-306 962 0
-306 67 0
307 -959 -93 0
-307 959 0
-307 93 0
308 -956 -125 0
-308 956 0
-308 125 0
309 -953 -163 0
-309 953 0
-309 163 0
310 -950 -207 0
-310 950 0
-310 207 0
311 -944 -257 0
-311 944 0
-311 257 0
312 -947 -313 315 0
312 -947 313 -315 0
-312 947 0
-312 313 315 0
-312 -313 -315 0
-313 972 314 0
-313 973 314 0
313 -314 0
313 -972 -973 0
314 972 -973 -258 0
314 -972 973 -258 0
-314 258 0
-314 972 973 0
-314 -972 -973 0
315 975 -976 0
315 -975 976 0
-315 -975 -976 0
-315 975 976 0
316 317 -808 0
316 -317 808 0
-316 -317 -808 0
-316 317 808 0
-317 318 739 0
317 -318 0
317 -739 0
318 -319 -529 0
-318 319 0
-318 529 0
319 320 -528 0
319 -320 528 0
-319 -320 -528 0
-319 320 528 0
320 321 -483 0
320 -321 483 0
-320 -321 -483 0
-320 321 483 0
321 -947 -969 -322 0
-321 947 0
-321 969 0
-321 322 0
322 323 -444 0
322 -323 444 0
-322 -323 -444 0
-322 323 444 0
323 -947 -966 -324 0
-323 947 0
-323 966 0
-323 324 0
324 325 -411 0
324 -325 411 0
-324 -325 -411 0
-324 325 411 0
325 -947 -963 -326 0
-325 947 0
-325 963 0
-325 326 0
326 327 -384 0
326 -327 384 0
-326 -327 -384 0
-326 327 384 0
327 -947 -960 -328 0
-327 947 0
-327 960 0
-327 328 0
328 329 -363 0
328 -329 363 0
-328 -329 -363 0
-328 329 363 0
329 -947 -957 -330 0
-329 947 0
-329 957 0
-329 330 0
330 331 -348 0
330 -331 348 0
-330 -331 -348 0
-330 331 348 0
331 -947 -954 -332 0
-331 947 0
-331 954 0
-331 332 0
332 333 -339 0
332 -333 339 0
-332 -333 -339 0
-332 333 339 0
333 -947 -951 -334 0
-333 947 0
-333 951 0
-333 334 0
334 335 -336 0
334 -335 336 0
-334 -335 -336 0
-334 335 336 0
335 -944 -945 -947 -948 0
-335 948 0
-335 944 0
-335 947 0
-335 945 0
336 337 -338 0
336 -337 338 0
-336 -337 -338 0
-336 337 338 0
337 -945 -950 0
-337 945 0
-337 950 0
338 -944 -948 0
-338 944 0
-338 948 0
339 340 -347 0
339 -340 347 0
-339 -340 -347 0
-339 340 347 0
340 341 -344 0
340 -341 344 0
-340 -341 -344 0
-340 341 344 0
-341 342 343 0
341 -342 0
341 -343 0
342 -944 -945 -948 -950 0
-342 950 0
-342 944 0
-342 948 0
-342 945 0
343 -335 -336 0
-343 335 0
-343 336 0
344 345 -346 0
344 -345 346 0
-344 -345 -346 0
-344 345 346 0
345 -945 -953 0
-345 945 0
-345 953 0
346 -948 -950 0
-346 948 0
-346 950 0
347 -944 -951 0
-347 944 0
-347 951 0
348 349 -362 0
348 -349 362 0
-348 -349 -362 0
-348 349 362 0
349 350 -353 0
349 -350 353 0
-349 -350 -353 0
-349 350 353 0
-350 351 352 0
350 -351 0
350 -352 0
351 -944 -951 -340 0
-351 944 0
-351 951 0
-351 340 0
352 -333 -339 0
-352 333 0
-352 339 0
353 354 -361 0
353 -354 361 0
-353 -354 -361 0
-353 354 361 0
354 355 -358 0
354 -355 358 0
-354 -355 -358 0
-354 355 358 0
-355 356 357 0
355 -356 0
355 -357 0
356 -945 -948 -950 -953 0
-356 953 0
-356 945 0
-356 950 0
-356 948 0
357 -341 -344 0
-357 341 0
-357 344 0
358 359 -360 0
358 -359 360 0
-358 -359 -360 0
-358 359 360 0
359 -945 -956 0
-359 945 0
-359 956 0
360 -948 -953 0
-360 948 0
-360 953 0
361 -950 -951 0
-361 950 0
-361 951 0
362 -944 -954 0
-362 944 0
-362 954 0
363 364 -383 0
363 -364 383 0
-363 -364 -383 0
-363 364 383 0
364 365 -368 0
364 -365 368 0
-364 -365 -368 0
-364 365 368 0
-365 366 367 0
365 -366 0
365 -367 0
366 -944 -954 -349 0
-366 944 0
-366 954 0
-366 349 0
367 -331 -348 0
-367 331 0
-367 348 0
368 369 -382 0
368 -369 382 0
-368 -369 -382 0
-368 369 382 0
369 370 -373 0
369 -370 373 0
-369 -370 -373 0
-369 370 373 0
-370 371 372 0
370 -371 0
370 -372 0
371 -950 -951 -354 0
-371 950 0
-371 951 0
-371 354 0
372 -350 -353 0
-372 350 0
-372 353 0
373 374 -381 0
373 -374 381 0
-373 -374 -381 0
-373 374 381 0
374 375 -378 0
374 -375 378 0
-374 -375 -378 0
-374 375 378 0
-375 376 377 0
375 -376 0
375 -377 0
376 -945 -948 -953 -956 0
-376 956 0
-376 945 0
-376 953 0
-376 948 0
377 -355 -358 0
-377 355 0
-377 358 0
378 379 -380 0
378 -379 380 0
-378 -379 -380 0
-378 379 380 0
379 -945 -959 0
-379 945 0
-379 959 0
380 -948 -956 0
-380 948 0
-380 956 0
381 -951 -953 0
-381 951 0
-381 953 0
382 -950 -954 0
-382 950 0
-382 954 0
383 -944 -957 0
-383 944 0
-383 957 0
384 385 -410 0
384 -385 410 0
-384 -385 -410 0
-384 385 410 0
385 386 -389 0
385 -386 389 0
-385 -386 -389 0
-385 386 389 0
-386 387 388 0
386 -387 0
386 -388 0
387 -944 -957 -364 0
-387 944 0
-387 957 0
-387 364 0
388 -329 -363 0
-388 329 0
-388 363 0
389 390 -409 0
389 -390 409 0
-389 -390 -409 0
-389 390 409 0
390 391 -394 0
390 -391 394 0
-390 -391 -394 0
-390 391 394 0
-391 392 393 0
391 -392 0
391 -393 0
392 -950 -954 -369 0
-392 950 0
-392 954 0
-392 369 0
393 -365 -368 0
-393 365 0
-393 368 0
394 395 -408 0
394 -395 408 0
-394 -395 -408 0
-394 395 408 0
395 396 -399 0
395 -396 399 0
-395 -396 -399 0
-395 396 399 0
-396 397 398 0
396 -397 0
396 -398 0
397 -951 -953 -374 0
-397 951 0
-397 953 0
-397 374 0
398 -370 -373 0
-398 370 0
-398 373 0
399 400 -407 0
399 -400 407 0
-399 -400 -407 0
-399 400 407 0
400 401 -404 0
400 -401 404 0
-400 -401 -404 0
-400 401 404 0
-401 402 403 0
401 -402 0
401 -403 0
402 -945 -948 -956 -959 0
-402 959 0
-402 945 0
-402 956 0
-402 948 0
403 -375 -378 0
-403 375 0
-403 378 0
404 405 -406 0
404 -405 406 0
-404 -405 -406 0
-404 405 406 0
405 -945 -962 0
-405 945 0
-405 962 0
406 -948 -959 0
-406 948 0
-406 959 0
407 -951 -956 0
-407 951 0
-407 956 0
408 -953 -954 0
-408 953 0
-408 954 0
409 -950 -957 0
-409 950 0
-409 957 0
410 -944 -960 0
-410 944 0
-410 960 0
411 412 -443 0
411 -412 443 0
-411 -412 -443 0
-411 412 443 0
412 413 -416 0
412 -413 416 0
-412 -413 -416 0
-412 413 416 0
-413 414 415 0
413 -414 0
413 -415 0
414 -944 -960 -385 0
-414 944 0
-414 960 0
-414 385 0
415 -327 -384 0
-415 327 0
-415 384 0
416 417 -442 0
416 -417 442 0
-416 -417 -442 0
-416 417 442 0
417 418 -421 0
417 -418 421 0
-417 -418 -421 0
-417 418 421 0
-418 419 420 0
418 -419 0
418 -420 0
419 -950 -957 -390 0
-419 950 0
-419 957 0
-419 390 0
420 -386 -389 0
-420 386 0
-420 389 0
421 422 -441 0
421 -422 441 0
-421 -422 -441 0
-421 422 441 0
422 423 -426 0
422 -423 426 0
-422 -423 -426 0
-422 423 426 0
-423 424 425 0
423 -424 0
423 -425 0
424 -953 -954 -395 0
-424 953 0
-424 954 0
-424 395 0
425 -391 -394 0
-425 391 0
-425 394 0
426 427 -440 0
426 -427 440 0
-426 -427 -440 0
-426 427 440 0
427 428 -431 0
427 -428 431 0
-427 -428 -431 0
-427 428 431 0
-428 429 430 0
428 -429 0
428 -430 0
429 -951 -956 -400 0
-429 951 0
-429 956 0
-429 400 0
430 -396 -399 0
-430 396 0
-430 399 0
431 432 -439 0
431 -432 439 0
-431 -432 -439 0
-431 432 439 0
432 433 -436 0
432 -433 436 0
-432 -433 -436 0
-432 433 436 0
-433 434 435 0
433 -434 0
433 -435 0
434 -945 -948 -959 -962 0
-434 962 0
-434 945 0
-434 959 0
-434 948 0
435 -401 -404 0
-435 401 0
-435 404 0
436 437 -438 0
436 -437 438 0
-436 -437 -438 0
-436 437 438 0
437 -945 -965 0
-437 945 0
-437 965 0
438 -948 -962 0
-438 948 0
-438 962 0
439 -951 -959 0
-439 951 0
-439 959 0
440 -954 -956 0
-440 954 0
-440 956 0
441 -953 -957 0
-441 953 0
-441 957 0
442 -950 -960 0
-442 950 0
-442 960 0
443 -944 -963 0
-443 944 0
-443 963 0
444 445 -482 0
444 -445 482 0
-444 -445 -482 0
-444 445 482 0
445 446 -449 0
445 -446 449 0
-445 -446 -449 0
-445 446 449 0
-446 447 448 0
446 -447 0
446 -448 0
447 -944 -963 -412 0
-447 944 0
-447 963 0
-447 412 0
448 -325 -411 0
-448 325 0
-448 411 0
449 450 -481 0
449 -450 481 0
-449 -450 -481 0
-449 450 481 0
450 451 -454 0
450 -451 454 0
-450 -451 -454 0
-450 451 454 0
-451 452 453 0
451 -452 0
451 -453 0
452 -950 -960 -417 0
-452 950 0
-452 960 0
-452 417 0
453 -413 -416 0
-453 413 0
-453 416 0
454 455 -480 0
454 -455 480 0
-454 -455 -480 0
-454 455 480 0
455 456 -459 0
455 -456 459 0
-455 -456 -459 0
-455 456 459 0
-456 457 458 0
456 -457 0
456 -458 0
457 -953 -957 -422 0
-457 953 0
-457 957 0
-457 422 0
458 -418 -421 0
-458 418 0
-458 421 0
459 460 -479 0
459 -460 479 0
-459 -460 -479 0
-459 460 479 0
460 461 -464 0
460 -461 464 0
-460 -461 -464 0
-460 461 464 0
-461 462 463 0
461 -462 0
461 -463 0
462 -954 -956 -427 0
-462 954 0
-462 956 0
-462 427 0
463 -423 -426 0
-463 423 0
-463 426 0
464 465 -478 0
464 -465 478 0
-464 -465 -478 0
-464 465 478 0
465 466 -469 0
465 -466 469 0
-465 -466 -469 0
-465 466 469 0
-466 467 468 0
466 -467 0
466 -468 0
467 -951 -959 -432 0
-467 951 0
-467 959 0
-467 432 0
468 -428 -431 0
-468 428 0
-468 431 0
469 470 -477 0
469 -470 477 0
-469 -470 -477 0
-469 470 477 0
470 471 -474 0
470 -471 474 0
-470 -471 -474 0
-470 471 474 0
-471 472 473 0
471 -472 0
471 -473 0
472 -945 -948 -962 -965 0
-472 965 0
-472 945 0
-472 962 0
-472 948 0
473 -433 -436 0
-473 433 0
-473 436 0
474 475 -476 0
474 -475 476 0
-474 -475 -476 0
-474 475 476 0
475 -945 -968 0
-475 945 0
-475 968 0
476 -948 -965 0
-476 948 0
-476 965 0
477 -951 -962 0
-477 951 0
-477 962 0
478 -954 -959 0
-478 954 0
-478 959 0
479 -956 -957 0
-479 956 0
-479 957 0
480 -953 -960 0
-480 953 0
-480 960 0
481 -950 -963 0
-481 950 0
-481 963 0
482 -944 -966 0
-482 944 0
-482 966 0
483 484 -527 0
483 -484 527 0
-483 -484 -527 0
-483 484 527 0
484 485 -488 0
484 -485 488 0
-484 -485 -488 0
-484 485 488 0
-485 486 487 0
485 -486 0
485 -487 0
486 -944 -966 -445 0
-486 944 0
-486 966 0
-486 445 0
487 -323 -444 0
-487 323 0
-487 444 0
488 489 -526 0
488 -489 526 0
-488 -489 -526 0
-488 489 526 0
489 490 -493 0
489 -490 493 0
-489 -490 -493 0
-489 490 493 0
-490 491 492 0
490 -491 0
490 -492 0
491 -950 -963 -450 0
-491 950 0
-491 963 0
-491 450 0
492 -446 -449 0
-492 446 0
-492 449 0
493 494 -525 0
493 -494 525 0
-493 -494 -525 0
-493 494 525 0
494 495 -498 0
494 -495 498 0
-494 -495 -498 0
-494 495 498 0
-495 496 497 0
495 -496 0
495 -497 0
496 -953 -960 -455 0
-496 953 0
-496 960 0
-496 455 0
497 -451 -454 0
-497 451 0
-497 454 0
498 499 -524 0
498 -499 524 0
-498 -499 -524 0
-498 499 524 0
499 500 -503 0
499 -500 503 0
-499 -500 -503 0
-499 500 503 0
-500 501 502 0
500 -501 0
500 -502 0
501 -956 -957 -460 0
-501 956 0
-501 957 0
-501 460 0
502 -456 -459 0
-502 456 0
-502 459 0
503 504 -523 0
503 -504 523 0
-503 -504 -523 0
-503 504 523 0
504 505 -508 0
504 -505 508 0
-504 -505 -508 0
-504 505 508 0
-505 506 507 0
505 -506 0
505 -507 0
506 -954 -959 -465 0
-506 954 0
-506 959 0
-506 465 0
507 -461 -464 0
-507 461 0
-507 464 0
508 509 -522 0
508 -509 522 0
-508 -509 -522 0
-508 509 522 0
509 510 -513 0
509 -510 513 0
-509 -510 -513 0
-509 510 513 0
-510 511 512 0
510 -511 0
510 -512 0
511 -951 -962 -470 0
-511 951 0
-511 962 0
-511 470 0
512 -466 -469 0
-512 466 0
-512 469 0
513 514 -521 0
513 -514 521 0
-513 -514 -521 0
-513 514 521 0
514 515 -518 0
514 -515 518 0
-514 -515 -518 0
-514 515 518 0
-515 516 517 0
515 -516 0
515 -517 0
516 -945 -948 -965 -968 0
-516 968 0
-516 945 0
-516 965 0
-516 948 0
517 -471 -474 0
-517 471 0
-517 474 0
518 519 -520 0
518 -519 520 0
-518 -519 -520 0
-518 519 520 0
519 -945 -971 0
-519 945 0
-519 971 0
520 -948 -968 0
-520 948 0
-520 968 0
521 -951 -965 0
-521 951 0
-521 965 0
522 -954 -962 0
-522 954 0
-522 962 0
523 -957 -959 0
-523 957 0
-523 959 0
524 -956 -960 0
-524 956 0
-524 960 0
525 -953 -963 0
-525 953 0
-525 963 0
526 -950 -966 0
-526 950 0
-526 966 0
527 -944 -969 0
-527 944 0
-527 969 0
528 -947 -972 0
-528 947 0
-528 972 0
529 530 -738 0
529 -530 738 0
-529 -530 -738 0
-529 530 738 0
530 531 -693 0
530 -531 693 0
-530 -531 -693 0
-530 531 693 0
531 -947 -970 -532 0
-531 947 0
-531 970 0
-531 532 0
532 533 -654 0
532 -533 654 0
-532 -533 -654 0
-532 533 654 0
533 -947 -967 -534 0
-533 947 0
-533 967 0
-533 534 0
534 535 -621 0
534 -535 621 0
-534 -535 -621 0
-534 535 621 0
535 -947 -964 -536 0
-535 947 0
-535 964 0
-535 536 0
536 537 -594 0
536 -537 594 0
-536 -537 -594 0
-536 537 594 0
537 -947 -961 -538 0
-537 947 0
-537 961 0
-537 538 0
538 539 -573 0
538 -539 573 0
-538 -539 -573 0
-538 539 573 0
539 -947 -958 -540 0
-539 947 0
-539 958 0
-539 540 0
540 541 -558 0
540 -541 558 0
-540 -541 -558 0
-540 541 558 0
541 -947 -955 -542 0
-541 947 0
-541 955 0
-541 542 0
542 543 -549 0
542 -543 549 0
-542 -543 -549 0
-542 543 549 0
543 -947 -952 -544 0
-543 947 0
-543 952 0
-543 544 0
544 545 -546 0
544 -545 546 0
-544 -545 -546 0
-544 545 546 0
545 -944 -946 -947 -949 0
-545 949 0
-545 944 0
-545 947 0
-545 946 0
546 547 -548 0
546 -547 548 0
-546 -547 -548 0
-546 547 548 0
547 -946 -950 0
-547 946 0
-547 950 0
548 -944 -949 0
-548 944 0
-548 949 0
549 550 -557 0
549 -550 557 0
-549 -550 -557 0
-549 550 557 0
550 551 -554 0
550 -551 554 0
-550 -551 -554 0
-550 551 554 0
-551 552 553 0
551 -552 0
551 -553 0
552 -944 -946 -949 -950 0
-552 950 0
-552 944 0
-552 949 0
-552 946 0
553 -545 -546 0
-553 545 0
-553 546 0
554 555 -556 0
554 -555 556 0
-554 -555 -556 0
-554 555 556 0
555 -946 -953 0
-555 946 0
-555 953 0
556 -949 -950 0
-556 949 0
-556 950 0
557 -944 -952 0
-557 944 0
-557 952 0
558 559 -572 0
558 -559 572 0
-558 -559 -572 0
-558 559 572 0
559 560 -563 0
559 -560 563 0
-559 -560 -563 0
-559 560 563 0
-560 561 562 0
560 -561 0
560 -562 0
561 -944 -952 -550 0
-561 944 0
-561 952 0
-561 550 0
562 -543 -549 0
-562 543 0
-562 549 0
563 564 -571 0
563 -564 571 0
-563 -564 -571 0
-563 564 571 0
564 565 -568 0
564 -565 568 0
-564 -565 -568 0
-564 565 568 0
-565 566 567 0
565 -566 0
565 -567 0
566 -946 -949 -950 -953 0
-566 953 0
-566 946 0
-566 950 0
-566 949 0
567 -551 -554 0
-567 551 0
-567 554 0
568 569 -570 0
568 -569 570 0
-568 -569 -570 0
-568 569 570 0
569 -946 -956 0
-569 946 0
-569 956 0
570 -949 -953 0
-570 949 0
-570 953 0
571 -950 -952 0
-571 950 0
-571 952 0
572 -944 -955 0
-572 944 0
-572 955 0
573 574 -593 0
573 -574 593 0
-573 -574 -593 0
-573 574 593 0
574 575 -578 0
574 -575 578 0
-574 -575 -578 0
-574 575 578 0
-575 576 577 0
575 -576 0
575 -577 0
576 -944 -955 -559 0
-576 944 0
-576 955 0
-576 559 0
577 -541 -558 0
-577 541 0
-577 558 0
578 579 -592 0
578 -579 592 0
-578 -579 -592 0
-578 579 592 0
579 580 -583 0
579 -580 583 0
-579 -580 -583 0
-579 580 583 0
-580 581 582 0
580 -581 0
580 -582 0
581 -950 -952 -564 0
-581 950 0
-581 952 0
-581 564 0
582 -560 -563 0
-582 560 0
-582 563 0
583 584 -591 0
583 -584 591 0
-583 -584 -591 0
-583 584 591 0
584 585 -588 0
584 -585 588 0
-584 -585 -588 0
-584 585 588 0
-585 586 587 0
585 -586 0
585 -587 0
586 -946 -949 -953 -956 0
-586 956 0
-586 946 0
-586 953 0
-586 949 0
587 -565 -568 0
-587 565 0
-587 568 0
588 589 -590 0
588 -589 590 0
-588 -589 -590 0
-588 589 590 0
589 -946 -959 0
-589 946 0
-589 959 0
590 -949 -956 0
-590 949 0
-590 956 0
591 -952 -953 0
-591 952 0
-591 953 0
592 -950 -955 0
-592 950 0
-592 955 0
593 -944 -958 0
-593 944 0
-593 958 0
594 595 -620 0
594 -595 620 0
-594 -595 -620 0
-594 595 620 0
595 596 -599 0
595 -596 599 0
-595 -596 -599 0
-595 596 599 0
-596 597 598 0
596 -597 0
596 -598 0
597 -944 -958 -574 0
-597 944 0
-597 958 0
-597 574 0
598 -539 -573 0
-598 539 0
-598 573 0
599 600 -619 0
599 -600 619 0
-599 -600 -619 0
-599 600 619 0
600 601 -604 0
600 -601 604 0
-600 -601 -604 0
-600 601 604 0
-601 602 603 0
601 -602 0
601 -603 0
602 -950 -955 -579 0
-602 950 0
-602 955 0
-602 579 0
603 -575 -578 0
-603 575 0
-603 578 0
604 605 -618 0
604 -605 618 0
-604 -605 -618 0
-604 605 618 0
605 606 -609 0
605 -606 609 0
-605 -606 -609 0
-605 606 609 0
-606 607 608 0
606 -607 0
606 -608 0
607 -952 -953 -584 0
-607 952 0
-607 953 0
-607 584 0
608 -580 -583 0
-608 580 0
-608 583 0
609 610 -617 0
609 -610 617 0
-609 -610 -617 0
-609 610 617 0
610 611 -614 0
610 -611 614 0
-610 -611 -614 0
-610 611 614 0
-611 612 613 0
611 -612 0
611 -613 0
612 -946 -949 -956 -959 0
-612 959 0
-612 946 0
-612 956 0
-612 949 0
613 -585 -588 0
-613 585 0
-613 588 0
614 615 -616 0
614 -615 616 0
-614 -615 -616 0
-614 615 616 0
615 -946 -962 0
-615 946 0
-615 962 0
616 -949 -959 0
-616 949 0
-616 959 0
617 -952 -956 0
-617 952 0
-617 956 0
618 -953 -955 0
-618 953 0
-618 955 0
619 -950 -958 0
-619 950 0
-619 958 0
620 -944 -961 0
-620 944 0
-620 961 0
621 622 -653 0
621 -622 653 0
-621 -622 -653 0
-621 622 653 0
622 623 -626 0
622 -623 626 0
-622 -623 -626 0
-622 623 626 0
-623 624 625 0
623 -624 0
623 -625 0
624 -944 -961 -595 0
-624 944 0
-624 961 0
-624 595 0
625 -537 -594 0
-625 537 0
-625 594 0
626 627 -652 0
626 -627 652 0
-626 -627 -652 0
-626 627 652 0
627 628 -631 0
627 -628 631 0
-627 -628 -631 0
-627 628 631 0
-628 629 630 0
628 -629 0
628 -630 0
629 -950 -958 -600 0
-629 950 0
-629 958 0
-629 600 0
630 -596 -599 0
-630 596 0
-630 599 0
631 632 -651 0
631 -632 651 0
-631 -632 -651 0
-631 632 651 0
632 633 -636 0
632 -633 636 0
-632 -633 -636 0
-632 633 636 0
-633 634 635 0
633 -634 0
633 -635 0
634 -953 -955 -605 0
-634 953 0
-634 955 0
-634 605 0
635 -601 -604 0
-635 601 0
-635 604 0
636 637 -650 0
636 -637 650 0
-636 -637 -650 0
-636 637 650 0
637 638 -641 0
637 -638 641 0
-637 -638 -641 0
-637 638 641 0
-638 639 640 0
638 -639 0
638 -640 0
639 -952 -956 -610 0
-639 952 0
-639 956 0
-639 610 0
640 -606 -609 0
-640 606 0
-640 609 0
641 642 -649 0
641 -642 649 0
-641 -642 -649 0
-641 642 649 0
642 643 -646 0
642 -643 646 0
-642 -643 -646 0
-642 643 646 0
-643 644 645 0
643 -644 0
643 -645 0
644 -946 -949 -959 -962 0
-644 962 0
-644 946 0
-644 959 0
-644 949 0
645 -611 -614 0
-645 611 0
-645 614 0
646 647 -648 0
646 -647 648 0
-646 -647 -648 0
-646 647 648 0
647 -946 -965 0
-647 946 0
-647 965 0
648 -949 -962 0
-648 949 0
-648 962 0
649 -952 -959 0
-649 952 0
-649 959 0
650 -955 -956 0
-650 955 0
-650 956 0
651 -953 -958 0
-651 953 0
-651 958 0
652 -950 -961 0
-652 950 0
-652 961 0
653 -944 -964 0
-653 944 0
-653 964 0
654 655 -692 0
654 -655 692 0
-654 -655 -692 0
-654 655 692 0
655 656 -659 0
655 -656 659 0
-655 -656 -659 0
-655 656 659 0
-656 657 658 0
656 -657 0
656 -658 0
657 -944 -964 -622 0
-657 944 0
-657 964 0
-657 622 0
658 -535 -621 0
-658 535 0
-658 621 0
659 660 -691 0
659 -660 691 0
-659 -660 -691 0
-659 660 691 0
660 661 -664 0
660 -661 664 0
-660 -661 -664 0
-660 661 664 0
-661 662 663 0
661 -662 0
661 -663 0
662 -950 -961 -627 0
-662 950 0
-662 961 0
-662 627 0
663 -623 -626 0
-663 623 0
-663 626 0
664 665 -690 0
664 -665 690 0
-664 -665 -690 0
-664 665 690 0
665 666 -669 0
665 -666 669 0
-665 -666 -669 0
-665 666 669 0
-666 667 668 0
666 -667 0
666 -668 0
667 -953 -958 -632 0
-667 953 0
-667 958 0
-667 632 0
668 -628 -631 0
-668 628 0
-668 631 0
669 670 -689 0
669 -670 689 0
-669 -670 -689 0
-669 670 689 0
670 671 -674 0
670 -671 674 0
-670 -671 -674 0
-670 671 674 0
-671 672 673 0
671 -672 0
671 -673 0
672 -955 -956 -637 0
-672 955 0
-672 956 0
-672 637 0
673 -633 -636 0
-673 633 0
-673 636 0
674 675 -688 0
674 -675 688 0
-674 -675 -688 0
-674 675 688 0
675 676 -679 0
675 -676 679 0
-675 -676 -679 0
-675 676 679 0
-676 677 678 0
676 -677 0
676 -678 0
677 -952 -959 -642 0
-677 952 0
-677 959 0
-677 642 0
678 -638 -641 0
-678 638 0
-678 641 0
679 680 -687 0
679 -680 687 0
-679 -680 -687 0
-679 680 687 0
680 681 -684 0
680 -681 684 0
-680 -681 -684 0
-680 681 684 0
-681 682 683 0
681 -682 0
681 -683 0
682 -946 -949 -962 -965 0
-682 965 0
-682 946 0
-682 962 0
-682 949 0
683 -643 -646 0
-683 643 0
-683 646 0
684 685 -686 0
684 -685 686 0
-684 -685 -686 0
-684 685 686 0
685 -946 -968 0
-685 946 0
-685 968 0
686 -949 -965 0
-686 949 0
-686 965 0
687 -952 -962 0
-687 952 0
-687 962 0
688 -955 -959 0
-688 955 0
-688 959 0
689 -956 -958 0
-689 956 0
-689 958 0
690 -953 -961 0
-690 953 0
-690 961 0
691 -950 -964 0
-691 950 0
-691 964 0
692 -944 -967 0
-692 944 0
-692 967 0
693 694 -737 0
693 -694 737 0
-693 -694 -737 0
-693 694 737 0
694 695 -698 0
694 -695 698 0
-694 -695 -698 0
-694 695 698 0
-695 696 697 0
695 -696 0
695 -697 0
696 -944 -967 -655 0
-696 944 0
-696 967 0
-696 655 0
697 -533 -654 0
-697 533 0
-697 654 0
698 699 -736 0
698 -699 736 0
-698 -699 -736 0
-698 699 736 0
699 700 -703 0
699 -700 703 0
-699 -700 -703 0
-699 700 703 0
-700 701 702 0
700 -701 0
700 -702 0
701 -950 -964 -660 0
-701 950 0
-701 964 0
-701 660 0
702 -656 -659 0
-702 656 0
-702 659 0
703 704 -735 0
703 -704 735 0
-703 -704 -735 0
-703 704 735 0
704 705 -708 0
704 -705 708 0
-704 -705 -708 0
-704 705 708 0
-705 706 707 0
705 -706 0
705 -707 0
706 -953 -961 -665 0
-706 953 0
-706 961 0
-706 665 0
707 -661 -664 0
-707 661 0
-707 664 0
708 709 -734 0
708 -709 734 0
-708 -709 -734 0
-708 709 734 0
709 710 -713 0
709 -710 713 0
-709 -710 -713 0
-709 710 713 0
-710 711 712 0
710 -711 0
710 -712 0
711 -956 -958 -670 0
-711 956 0
-711 958 0
-711 670 0
712 -666 -669 0
-712 666 0
-712 669 0
713 714 -733 0
713 -714 733 0
-713 -714 -733 0
-713 714 733 0
714 715 -718 0
714 -715 718 0
-714 -715 -718 0
-714 715 718 0
-715 716 717 0
715 -716 0
715 -717 0
716 -955 -959 -675 0
-716 955 0
-716 959 0
-716 675 0
717 -671 -674 0
-717 671 0
-717 674 0
718 719 -732 0
718 -719 732 0
-718 -719 -732 0
-718 719 732 0
719 720 -723 0
719 -720 723 0
-719 -720 -723 0
-719 720 723 0
-720 721 722 0
720 -721 0
720 -722 0
721 -952 -962 -680 0
-721 952 0
-721 962 0
-721 680 0
722 -676 -679 0
-722 676 0
-722 679 0
723 724 -731 0
723 -724 731 0
-723 -724 -731 0
-723 724 731 0
724 725 -728 0
724 -725 728 0
-724 -725 -728 0
-724 725 728 0
-725 726 727 0
725 -726 0
725 -727 0
726 -946 -949 -965 -968 0
-726 968 0
-726 946 0
-726 965 0
-726 949 0
727 -681 -684 0
-727 681 0
-727 684 0
728 729 -730 0
728 -729 730 0
-728 -729 -730 0
-728 729 730 0
729 -946 -971 0
-729 946 0
-729 971 0
730 -949 -968 0
-730 949 0
-730 968 0
731 -952 -965 0
-731 952 0
-731 965 0
732 -955 -962 0
-732 955 0
-732 962 0
733 -958 -959 0
-733 958 0
-733 959 0
734 -956 -961 0
-734 956 0
-734 961 0
735 -953 -964 0
-735 953 0
-735 964 0
736 -950 -967 0
-736 950 0
-736 967 0
737 -944 -970 0
-737 944 0
-737 970 0
738 -947 -973 0
-738 947 0
-738 973 0
739 -740 -807 0
-739 740 0
-739 807 0
-740 741 746 0
740 -741 0
740 -746 0
741 -742 -744 0
-741 742 0
-741 744 0
742 322 -743 0
742 -322 743 0
-742 -322 -743 0
-742 322 743 0
743 -947 -969 0
-743 947 0
-743 969 0
744 532 -745 0
744 -532 745 0
-744 -532 -745 0
-744 532 745 0
745 -947 -970 0
-745 947 0
-745 970 0
746 -747 -806 0
-746 747 0
-746 806 0
-747 748 753 0
747 -748 0
747 -753 0
748 -749 -751 0
-748 749 0
-748 751 0
749 324 -750 0
749 -324 750 0
-749 -324 -750 0
-749 324 750 0
750 -947 -966 0
-750 947 0
-750 966 0
751 534 -752 0
751 -534 752 0
-751 -534 -752 0
-751 534 752 0
752 -947 -967 0
-752 947 0
-752 967 0
753 -754 -805 0
-753 754 0
-753 805 0
-754 755 760 0
754 -755 0
754 -760 0
755 -756 -758 0
-755 756 0
-755 758 0
756 326 -757 0
756 -326 757 0
-756 -326 -757 0
-756 326 757 0
757 -947 -963 0
-757 947 0
-757 963 0
758 536 -759 0
758 -536 759 0
-758 -536 -759 0
-758 536 759 0
759 -947 -964 0
-759 947 0
-759 964 0
760 -761 -804 0
-760 761 0
-760 804 0
-761 762 767 0
761 -762 0
761 -767 0
762 -763 -765 0
-762 763 0
-762 765 0
763 328 -764 0
763 -328 764 0
-763 -328 -764 0
-763 328 764 0
764 -947 -960 0
-764 947 0
-764 960 0
765 538 -766 0
765 -538 766 0
-765 -538 -766 0
-765 538 766 0
766 -947 -961 0
-766 947 0
-766 961 0
767 -768 -803 0
-767 768 0
-767 803 0
-768 769 774 0
768 -769 0
768 -774 0
769 -770 -772 0
-769 770 0
-769 772 0
770 330 -771 0
770 -330 771 0
-770 -330 -771 0
-770 330 771 0
771 -947 -957 0
-771 947 0
-771 957 0
772 540 -773 0
772 -540 773 0
-772 -540 -773 0
-772 540 773 0
773 -947 -958 0
-773 947 0
-773 958 0
774 -775 -802 0
-774 775 0
-774 802 0
-775 776 781 0
775 -776 0
775 -781 0
776 -777 -779 0
-776 777 0
-776 779 0
777 332 -778 0
777 -332 778 0
-777 -332 -778 0
-777 332 778 0
778 -947 -954 0
-778 947 0
-778 954 0
779 542 -780 0
779 -542 780 0
-779 -542 -780 0
-779 542 780 0
780 -947 -955 0
-780 947 0
-780 955 0
781 -782 -801 0
-781 782 0
-781 801 0
-782 783 788 0
782 -783 0
782 -788 0
783 -784 -786 0
-783 784 0
-783 786 0
784 334 -785 0
784 -334 785 0
-784 -334 -785 0
-784 334 785 0
785 -947 -951 0
-785 947 0
-785 951 0
786 544 -787 0
786 -544 787 0
-786 -544 -787 0
-786 544 787 0
787 -947 -952 0
-787 947 0
-787 952 0
788 -789 -800 0
-788 789 0
-788 800 0
-789 790 797 0
789 -790 0
789 -797 0
790 -791 -794 0
-790 791 0
-790 794 0
791 792 -793 0
791 -792 793 0
-791 -792 -793 0
-791 792 793 0
792 -944 -945 0
-792 944 0
-792 945 0
793 -947 -948 0
-793 947 0
-793 948 0
794 795 -796 0
794 -795 796 0
-794 -795 -796 0
-794 795 796 0
795 -944 -946 0
-795 944 0
-795 946 0
796 -947 -949 0
-796 947 0
-796 949 0
797 -798 -799 0
-797 798 0
-797 799 0
798 -945 -946 -947 0
-798 945 0
-798 946 0
-798 947 0
799 791 -794 0
799 -791 794 0
-799 -791 -794 0
-799 791 794 0
800 784 -786 0
800 -784 786 0
-800 -784 -786 0
-800 784 786 0
801 777 -779 0
801 -777 779 0
-801 -777 -779 0
-801 777 779 0
802 770 -772 0
802 -770 772 0
-802 -770 -772 0
-802 770 772 0
803 763 -765 0
803 -763 765 0
-803 -763 -765 0
-803 763 765 0
804 756 -758 0
804 -756 758 0
-804 -756 -758 0
-804 756 758 0
805 749 -751 0
805 -749 751 0
-805 -749 -751 0
-805 749 751 0
806 742 -744 0
806 -742 744 0
-806 -742 -744 0
-806 742 744 0
807 319 -529 0
807 -319 529 0
-807 -319 -529 0
-807 319 529 0
808 809 -864 0
808 -809 864 0
-808 -809 -864 0
-808 809 864 0
809 810 -863 0
809 -810 863 0
-809 -810 -863 0
-809 810 863 0
810 811 -812 0
810 -811 812 0
-810 -811 -812 0
-810 811 812 0
811 -947 -972 -320 0
-811 947 0
-811 972 0
-811 320 0
812 813 -862 0
812 -813 862 0
-812 -813 -862 0
-812 813 862 0
813 814 -817 0
813 -814 817 0
-813 -814 -817 0
-813 814 817 0
-814 815 816 0
814 -815 0
814 -816 0
815 -944 -969 -484 0
-815 944 0
-815 969 0
-815 484 0
816 -321 -483 0
-816 321 0
-816 483 0
817 818 -861 0
817 -818 861 0
-817 -818 -861 0
-817 818 861 0
818 819 -822 0
818 -819 822 0
-818 -819 -822 0
-818 819 822 0
-819 820 821 0
819 -820 0
819 -821 0
820 -950 -966 -489 0
-820 950 0
-820 966 0
-820 489 0
821 -485 -488 0
-821 485 0
-821 488 0
822 823 -860 0
822 -823 860 0
-822 -823 -860 0
-822 823 860 0
823 824 -827 0
823 -824 827 0
-823 -824 -827 0
-823 824 827 0
-824 825 826 0
824 -825 0
824 -826 0
825 -953 -963 -494 0
-825 953 0
-825 963 0
-825 494 0
826 -490 -493 0
-826 490 0
-826 493 0
827 828 -859 0
827 -828 859 0
-827 -828 -859 0
-827 828 859 0
828 829 -832 0
828 -829 832 0
-828 -829 -832 0
-828 829 832 0
-829 830 831 0
829 -830 0
829 -831 0
830 -956 -960 -499 0
-830 956 0
-830 960 0
-830 499 0
831 -495 -498 0
-831 495 0
-831 498 0
832 833 -858 0
832 -833 858 0
-832 -833 -858 0
-832 833 858 0
833 834 -837 0
833 -834 837 0
-833 -834 -837 0
-833 834 837 0
-834 835 836 0
834 -835 0
834 -836 0
835 -957 -959 -504 0
-835 957 0
-835 959 0
-835 504 0
836 -500 -503 0
-836 500 0
-836 503 0
837 838 -857 0
837 -838 857 0
-837 -838 -857 0
-837 838 857 0
838 839 -842 0
838 -839 842 0
-838 -839 -842 0
-838 839 842 0
-839 840 841 0
839 -840 0
839 -841 0
840 -954 -962 -509 0
-840 954 0
-840 962 0
-840 509 0
841 -505 -508 0
-841 505 0
-841 508 0
842 843 -856 0
842 -843 856 0
-842 -843 -856 0
-842 843 856 0
843 844 -847 0
843 -844 847 0
-843 -844 -847 0
-843 844 847 0
-844 845 846 0
844 -845 0
844 -846 0
845 -951 -965 -514 0
-845 951 0
-845 965 0
-845 514 0
846 -510 -513 0
-846 510 0
-846 513 0
847 848 -855 0
847 -848 855 0
-847 -848 -855 0
-847 848 855 0
848 849 -852 0
848 -849 852 0
-848 -849 -852 0
-848 849 852 0
-849 850 851 0
849 -850 0
849 -851 0
850 -945 -948 -968 -971 0
-850 971 0
-850 945 0
-850 968 0
-850 948 0
851 -515 -518 0
-851 515 0
-851 518 0
852 853 -854 0
852 -853 854 0
-852 -853 -854 0
-852 853 854 0
853 -945 -974 0
-853 945 0
-853 974 0
854 -948 -971 0
-854 948 0
-854 971 0
855 -951 -968 0
-855 951 0
-855 968 0
856 -954 -965 0
-856 954 0
-856 965 0
857 -957 -962 0
-857 957 0
-857 962 0
858 -959 -960 0
-858 959 0
-858 960 0
859 -956 -963 0
-859 956 0
-859 963 0
860 -953 -966 0
-860 953 0
-860 966 0
861 -950 -969 0
-861 950 0
-861 969 0
862 -944 -972 0
-862 944 0
-862 972 0
863 -947 -975 0
-863 947 0
-863 975 0
864 865 -918 0
864 -865 918 0
-864 -865 -918 0
-864 865 918 0
865 866 -867 0
865 -866 867 0
-865 -866 -867 0
-865 866 867 0
866 -947 -973 -530 0
-866 947 0
-866 973 0
-866 530 0
867 868 -917 0
867 -868 917 0
-867 -868 -917 0
-867 868 917 0
868 869 -872 0
868 -869 872 0
-868 -869 -872 0
-868 869 872 0
-869 870 871 0
869 -870 0
869 -871 0
870 -944 -970 -694 0
-870 944 0
-870 970 0
-870 694 0
871 -531 -693 0
-871 531 0
-871 693 0
872 873 -916 0
872 -873 916 0
-872 -873 -916 0
-872 873 916 0
873 874 -877 0
873 -874 877 0
-873 -874 -877 0
-873 874 877 0
-874 875 876 0
874 -875 0
874 -876 0
875 -950 -967 -699 0
-875 950 0
-875 967 0
-875 699 0
876 -695 -698 0
-876 695 0
-876 698 0
877 878 -915 0
877 -878 915 0
-877 -878 -915 0
-877 878 915 0
878 879 -882 0
878 -879 882 0
-878 -879 -882 0
-878 879 882 0
-879 880 881 0
879 -880 0
879 -881 0
880 -953 -964 -704 0
-880 953 0
-880 964 0
-880 704 0
881 -700 -703 0
-881 700 0
-881 703 0
882 883 -914 0
882 -883 914 0
-882 -883 -914 0
-882 883 914 0
883 884 -887 0
883 -884 887 0
-883 -884 -887 0
-883 884 887 0
-884 885 886 0
884 -885 0
884 -886 0
885 -956 -961 -709 0
-885 956 0
-885 961 0
-885 709 0
886 -705 -708 0
-886 705 0
-886 708 0
887 888 -913 0
887 -888 913 0
-887 -888 -913 0
-887 888 913 0
888 889 -892 0
888 -889 892 0
-888 -889 -892 0
-888 889 892 0
-889 890 891 0
889 -890 0
889 -891 0
890 -958 -959 -714 0
-890 958 0
-890 959 0
-890 714 0
891 -710 -713 0
-891 710 0
-891 713 0
892 893 -912 0
892 -893 912 0
-892 -893 -912 0
-892 893 912 0
893 894 -897 0
893 -894 897 0
-893 -894 -897 0
-893 894 897 0
-894 895 896 0
894 -895 0
894 -896 0
895 -955 -962 -719 0
-895 955 0
-895 962 0
-895 719 0
896 -715 -718 0
-896 715 0
-896 718 0
897 898 -911 0
897 -898 911 0
-897 -898 -911 0
-897 898 911 0
898 899 -902 0
898 -899 902 0
-898 -899 -902 0
-898 899 902 0
-899 900 901 0
899 -900 0
899 -901 0
900 -952 -965 -724 0
-900 952 0
-900 965 0
-900 724 0
901 -720 -723 0
-901 720 0
-901 723 0
902 903 -910 0
902 -903 910 0
-902 -903 -910 0
-902 903 910 0
903 904 -907 0
903 -904 907 0
-903 -904 -907 0
-903 904 907 0
-904 905 906 0
904 -905 0
904 -906 0
905 -946 -949 -968 -971 0
-905 971 0
-905 946 0
-905 968 0
-905 949 0
906 -725 -728 0
-906 725 0
-906 728 0
907 908 -909 0
907 -908 909 0
-907 -908 -909 0
-907 908 909 0
908 -946 -974 0
-908 946 0
-908 974 0
909 -949 -971 0
-909 949 0
-909 971 0
910 -952 -968 0
-910 952 0
-910 968 0
911 -955 -965 0
-911 955 0
-911 965 0
912 -958 -962 0
-912 958 0
-912 962 0
913 -959 -961 0
-913 959 0
-913 961 0
914 -956 -964 0
-914 956 0
-914 964 0
915 -953 -967 0
-915 953 0
-915 967 0
916 -950 -970 0
-916 950 0
-916 970 0
917 -944 -973 0
-917 944 0
-917 973 0
918 -947 -976 0
-918 947 0
-918 976 0
919 11 -256 0
919 -11 256 0
-919 -11 -256 0
-919 11 256 0
920 740 -807 0
920 -740 807 0
-920 -740 -807 0
-920 740 807 0
-921 -922 -923 0
-921 922 923 0
921 922 -923 0
921 -922 923 0
922 13 -206 0
922 -13 206 0
-922 -13 -206 0
-922 13 206 0
923 747 -806 0
923 -747 806 0
-923 -747 -806 0
-923 747 806 0
924 15 -162 0
924 -15 162 0
-924 -15 -162 0
-924 15 162 0
925 754 -805 0
925 -754 805 0
-925 -754 -805 0
-925 754 805 0
-926 -927 -928 0
-926 927 928 0
926 927 -928 0
926 -927 928 0
927 17 -124 0
927 -17 124 0
-927 -17 -124 0
-927 17 124 0
928 761 -804 0
928 -761 804 0
-928 -761 -804 0
-928 761 804 0
929 19 -92 0
929 -19 92 0
-929 -19 -92 0
-929 19 92 0
930 768 -803 0
930 -768 803 0
-930 -768 -803 0
-930 768 803 0
-931 -932 -933 0
-931 932 933 0
931 932 -933 0
931 -932 933 0
932 21 -66 0
932 -21 66 0
-932 -21 -66 0
-932 21 66 0
933 775 -802 0
933 -775 802 0
-933 -775 -802 0
-933 775 802 0
934 23 -46 0
934 -23 46 0
-934 -23 -46 0
-934 23 46 0
935 782 -801 0
935 -782 801 0
-935 -782 -801 0
-935 782 801 0
-936 -937 -939 0
-936 937 939 0
936 937 -939 0
936 -937 939 0
937 25 -938 0
937 -25 938 0
-937 -25 -938 0
-937 25 938 0
938 -947 -34 0
-938 947 0
-938 34 0
939 789 -800 0
939 -789 800 0
-939 -789 -800 0
-939 789 800 0
940 941 -942 0
940 -941 942 0
-940 -941 -942 0
-940 941 942 0
941 -944 -27 0
-941 944 0
-941 27 0
942 -947 -28 0
-942 947 0
-942 28 0
943 798 -799 0
943 -798 799 0
-943 -798 -799 0
-943 798 799 0
-977 0
2 0
551 0

