c Result of efficient AIG-to-CNF conversion using package CNF
p cnf 5376 20937
-2 3 5337 5344 5348 0
-2 3 -5337 -5344 5348 0
2 -5348 0
2 -5337 5344 0
2 -3 0
2 5337 -5344 0
-3 4 -5302 -5310 5317 0
-3 4 5302 5310 5317 0
3 -5317 0
3 5302 -5310 0
3 -4 0
3 -5302 5310 0
-4 5 -5256 -5266 5276 0
-4 5 5256 5266 5276 0
4 -5276 0
4 5256 -5266 0
4 -5 0
4 -5256 5266 0
-5 6 5206 5232 5244 0
-5 6 5206 -5232 -5244 0
5 -5206 0
5 -5232 5244 0
5 -6 0
5 5232 -5244 0
-6 7 -5110 -5137 5163 0
-6 7 5110 5137 5163 0
6 -5163 0
6 5110 -5137 0
6 -7 0
6 -5110 5137 0
-7 8 -4971 -5008 5046 0
-7 8 4971 5008 5046 0
7 -5046 0
7 4971 -5008 0
7 -8 0
7 -4971 5008 0
-8 9 -4827 -4865 4901 0
-8 9 4827 4865 4901 0
8 -4901 0
8 4827 -4865 0
8 -9 0
8 -4827 4865 0
-9 10 -4658 -4701 4745 0
-9 10 4658 4701 4745 0
9 -4745 0
9 4658 -4701 0
9 -10 0
9 -4658 4701 0
-10 11 -4452 -4505 4557 0
-10 11 4452 4505 4557 0
10 -4557 0
10 4452 -4505 0
10 -11 0
10 -4452 4505 0
-11 12 -4220 -4277 4334 0
-11 12 4220 4277 4334 0
11 -4334 0
11 4220 -4277 0
11 -12 0
11 -4220 4277 0
-12 13 3993 4112 4165 0
-12 13 3993 -4112 -4165 0
12 -3993 0
12 -4112 4165 0
12 -13 0
12 4112 -4165 0
-13 14 -3871 -3932 0
-13 14 3871 3932 0
13 -14 0
13 3871 -3932 0
13 -3871 3932 0
-14 -15 -1837 3723 3797 0
-14 15 1837 3723 3797 0
-14 -15 -1837 -3723 -3797 0
-14 15 1837 -3723 -3797 0
14 -3723 3797 0
14 3723 -3797 0
14 15 -1837 0
14 -15 1837 0
-15 16 1836 0
-15 -16 -1836 0
15 -16 1836 0
15 16 -1836 0
16 17 -1770 0
16 -17 1770 0
-16 -17 -1770 0
-16 17 1770 0
-17 18 1742 0
17 -18 0
17 -1742 0
18 -19 -187 0
-18 19 0
-18 187 0
-19 20 54 59 0
19 -59 0
19 -54 0
19 -20 0
20 21 -44 0
-20 -21 0
-20 44 0
-21 22 43 0
21 -22 0
21 -43 0
-22 23 42 0
22 -23 0
22 -42 0
-23 5373 24 0
-23 -5373 5374 -24 0
-23 5373 -5374 0
23 -5373 -5374 0
23 -5373 24 0
23 5373 5374 -24 0
-24 5372 25 0
24 -5372 0
24 -25 0
-25 5371 26 0
25 -5371 0
25 -26 0
-26 5370 27 0
26 -5370 0
26 -27 0
-27 5369 28 0
27 -5369 0
27 -28 0
-28 5368 29 0
28 -5368 0
28 -29 0
-29 5367 30 0
29 -5367 0
29 -30 0
-30 5366 31 0
30 -5366 0
30 -31 0
-31 5365 32 0
31 -5365 0
31 -32 0
-32 5364 33 0
32 -5364 0
32 -33 0
-33 5363 34 0
33 -5363 0
33 -34 0
-34 5362 35 0
34 -5362 0
34 -35 0
-35 5361 36 0
35 -5361 0
35 -36 0
-36 5360 37 0
36 -5360 0
36 -37 0
-37 5359 38 0
37 -5359 0
37 -38 0
-38 5358 39 0
38 -5358 0
38 -39 0
-39 5357 40 0
39 -5357 0
39 -40 0
-40 5356 41 0
40 -5356 0
40 -41 0
-41 5352 5353 5354 5355 0
41 -5355 0
41 -5354 0
41 -5352 0
41 -5353 0
-42 5372 25 0
-42 -5372 5374 -25 0
-42 5372 -5374 0
42 -5372 -5374 0
42 -5372 25 0
42 5372 5374 -25 0
-43 5367 30 0
-43 -5367 5374 -30 0
-43 5367 -5374 0
43 -5367 -5374 0
43 -5367 30 0
43 5367 5374 -30 0
44 -45 -49 0
-44 45 0
-44 49 0
45 -46 -48 0
-45 46 0
-45 48 0
-46 -5371 -47 0
-46 5371 47 0
46 5371 -47 0
46 -5371 47 0
47 5374 -26 0
-47 -5374 0
-47 26 0
-48 5370 27 0
-48 -5370 5374 -27 0
-48 5370 -5374 0
48 -5370 -5374 0
48 -5370 27 0
48 5370 5374 -27 0
49 -50 52 0
-49 50 0
-49 -52 0
-50 -5369 -51 0
-50 5369 51 0
50 5369 -51 0
50 -5369 51 0
51 5374 -28 0
-51 -5374 0
-51 28 0
-52 -5368 -53 0
-52 5368 53 0
52 5368 -53 0
52 -5368 53 0
53 5374 -29 0
-53 -5374 0
-53 29 0
54 -55 -57 0
-54 55 0
-54 57 0
55 -45 56 0
-55 45 0
-55 -56 0
-56 50 52 0
56 -50 0
56 -52 0
57 43 -58 0
-57 -43 0
-57 58 0
58 23 -42 0
-58 -23 0
-58 42 0
-59 60 63 67 72 0
59 -72 0
59 -67 0
59 -60 0
59 -63 0
60 -57 -61 0
-60 57 0
-60 61 0
61 56 -62 0
-61 -56 0
-61 62 0
62 -46 48 0
-62 46 0
-62 -48 0
63 -64 -65 0
-63 64 0
-63 65 0
64 -43 -58 0
-64 43 0
-64 58 0
65 56 -66 0
-65 -56 0
-65 66 0
66 46 -48 0
-66 -46 0
-66 48 0
67 -68 -70 0
-67 68 0
-67 70 0
68 -43 -69 0
-68 43 0
-68 69 0
69 -23 42 0
-69 23 0
-69 -42 0
70 -62 -71 0
-70 62 0
-70 71 0
71 50 -52 0
-71 -50 0
-71 52 0
-72 73 77 79 110 0
72 -73 0
72 -110 0
72 -79 0
72 -77 0
73 -74 -76 0
-73 74 0
-73 76 0
74 -43 -75 0
-74 43 0
-74 75 0
75 -23 -42 0
-75 23 0
-75 42 0
76 -49 -62 0
-76 49 0
-76 62 0
77 -44 -78 0
-77 44 0
-77 78 0
78 43 -75 0
-78 -43 0
-78 75 0
-79 80 83 84 85 0
79 -85 0
79 -84 0
79 -80 0
79 -83 0
80 -81 -82 0
-80 81 0
-80 82 0
81 22 -43 0
-81 -22 0
-81 43 0
82 -49 -66 0
-82 49 0
-82 66 0
83 -44 -68 0
-83 44 0
-83 68 0
84 -70 -74 0
-84 70 0
-84 74 0
-85 86 89 90 93 0
85 -86 0
85 -93 0
85 -90 0
85 -89 0
86 -74 -87 0
-86 74 0
-86 87 0
87 -66 -88 0
-87 66 0
-87 88 0
88 -50 -52 0
-88 50 0
-88 52 0
89 -78 -87 0
-89 78 0
-89 87 0
-90 91 92 0
90 -91 0
90 -92 0
91 -70 -78 0
-91 70 0
-91 78 0
92 -78 -82 0
-92 78 0
-92 82 0
-93 94 98 0
93 -94 0
93 -98 0
-94 95 96 0
94 -95 0
94 -96 0
95 -44 -57 0
-95 44 0
-95 57 0
96 -78 -97 0
-96 78 0
-96 97 0
97 -45 -71 0
-97 45 0
-97 71 0
-98 99 103 107 0
98 -99 0
98 -103 0
98 -107 0
-99 100 101 0
99 -100 0
99 -101 0
100 -44 -64 0
-100 44 0
-100 64 0
101 -57 -102 0
-101 57 0
-101 102 0
102 -66 -71 0
-102 66 0
-102 71 0
-103 104 105 0
103 -104 0
103 -105 0
104 -76 -78 0
-104 76 0
-104 78 0
105 -78 -106 0
-105 78 0
-105 106 0
106 -62 -88 0
-106 62 0
-106 88 0
-107 108 109 0
107 -108 0
107 -109 0
108 -81 -87 0
-108 81 0
-108 87 0
109 -44 -74 0
-109 44 0
-109 74 0
-110 111 143 148 180 0
110 -180 0
110 -111 0
110 -148 0
110 -143 0
-111 112 113 114 129 0
111 -112 0
111 -129 0
111 -114 0
111 -113 0
112 -57 -97 0
-112 57 0
-112 97 0
113 -68 -106 0
-113 68 0
-113 106 0
-114 115 116 117 0
114 -117 0
114 -116 0
114 -115 0
115 21 -106 0
-115 -21 0
-115 106 0
116 -64 -70 0
-116 64 0
-116 70 0
-117 118 121 123 124 0
117 -124 0
117 -123 0
117 -118 0
117 -121 0
118 -64 119 0
-118 64 0
-118 -119 0
-119 56 120 0
119 -56 0
119 -120 0
-120 46 48 0
120 -46 0
120 -48 0
121 -106 -122 0
-121 106 0
-121 122 0
122 43 -69 0
-122 -43 0
-122 69 0
123 -55 -74 0
-123 55 0
-123 74 0
-124 125 126 0
124 -125 0
124 -126 0
125 -74 -97 0
-125 74 0
-125 97 0
-126 127 128 0
126 -127 0
126 -128 0
127 -65 -122 0
-127 65 0
-127 122 0
128 -55 -78 0
-128 55 0
-128 78 0
-129 130 134 0
129 -130 0
129 -134 0
-130 131 132 0
130 -131 0
130 -132 0
131 -55 -68 0
-131 55 0
-131 68 0
132 -78 -133 0
-132 78 0
-132 133 0
133 -88 120 0
-133 88 0
-133 -120 0
-134 135 136 137 138 0
134 -138 0
134 -137 0
134 -135 0
134 -136 0
135 -57 -106 0
-135 57 0
-135 106 0
136 -65 -68 0
-136 65 0
-136 68 0
137 -68 -76 0
-137 68 0
-137 76 0
-138 139 141 0
138 -139 0
138 -141 0
139 -74 -140 0
-139 74 0
-139 140 0
140 -71 120 0
-140 71 0
-140 -120 0
141 -78 -142 0
-141 78 0
-141 142 0
142 -45 -88 0
-142 45 0
-142 88 0
-143 144 146 147 0
143 -144 0
143 -147 0
143 -146 0
144 -64 -145 0
-144 64 0
-144 145 0
145 -49 120 0
-145 49 0
-145 -120 0
146 -68 -82 0
-146 68 0
-146 82 0
147 -78 -102 0
-147 78 0
-147 102 0
-148 149 150 151 152 0
148 -152 0
148 -151 0
148 -149 0
148 -150 0
149 -81 -102 0
-149 81 0
-149 102 0
150 -64 -142 0
-150 64 0
-150 142 0
151 119 -122 0
-151 -119 0
-151 122 0
-152 153 154 0
152 -153 0
152 -154 0
153 -74 119 0
-153 74 0
-153 -119 0
-154 155 156 157 158 0
154 -158 0
154 -157 0
154 -155 0
154 -156 0
155 -65 -81 0
-155 65 0
-155 81 0
156 -57 -76 0
-156 57 0
-156 76 0
157 -68 -102 0
-157 68 0
-157 102 0
-158 159 160 161 162 0
158 -162 0
158 -161 0
158 -159 0
158 -160 0
159 -55 -122 0
-159 55 0
-159 122 0
160 -74 -133 0
-160 74 0
-160 133 0
161 -74 -82 0
-161 74 0
-161 82 0
-162 163 164 165 173 0
162 -163 0
162 -173 0
162 -165 0
162 -164 0
163 -74 -102 0
-163 74 0
-163 102 0
164 -78 -140 0
-164 78 0
-164 140 0
-165 166 167 168 169 0
165 -169 0
165 -168 0
165 -166 0
165 -167 0
166 -70 -81 0
-166 70 0
-166 81 0
167 -64 -76 0
-167 64 0
-167 76 0
168 -68 -97 0
-168 68 0
-168 97 0
-169 170 171 172 0
169 -170 0
169 -172 0
169 -171 0
170 -44 -122 0
-170 44 0
-170 122 0
171 -74 -106 0
-171 74 0
-171 106 0
172 -61 -74 0
-172 61 0
-172 74 0
-173 174 177 0
173 -174 0
173 -177 0
-174 175 176 0
174 -175 0
174 -176 0
175 -64 -133 0
-175 64 0
-175 133 0
176 -44 -81 0
-176 44 0
-176 81 0
-177 178 179 0
177 -178 0
177 -179 0
178 -81 -133 0
-178 81 0
-178 133 0
179 -81 -145 0
-179 81 0
-179 145 0
-180 181 184 0
180 -181 0
180 -184 0
-181 182 183 0
181 -182 0
181 -183 0
182 -122 -140 0
-182 122 0
-182 140 0
183 -68 -142 0
-183 68 0
-183 142 0
-184 185 186 0
184 -185 0
184 -186 0
185 -61 -122 0
-185 61 0
-185 122 0
186 21 -140 0
-186 -21 0
-186 140 0
187 188 -1690 0
187 -188 1690 0
-187 -188 -1690 0
-187 188 1690 0
-188 189 1606 0
188 -189 0
188 -1606 0
189 -190 -1556 0
-189 190 0
-189 1556 0
190 -191 1463 0
190 191 -1463 0
-190 191 1463 0
-190 -191 -1463 0
-191 192 1309 0
-191 -192 -1309 0
191 -192 1309 0
191 192 -1309 0
192 -193 195 0
192 193 -195 0
-192 193 195 0
-192 -193 -195 0
-193 -5357 -194 0
-193 5357 194 0
193 5357 -194 0
193 -5357 194 0
194 5374 -40 0
-194 -5374 0
-194 40 0
-195 203 1254 1259 0
-195 196 1254 1259 0
195 -1254 0
195 -1259 0
195 -196 -203 0
196 197 -199 0
-196 -197 0
-196 199 0
-197 193 198 0
-197 -193 -198 0
197 -193 198 0
197 193 -198 0
-198 5356 41 0
-198 -5356 5374 -41 0
-198 5356 -5374 0
198 -5356 -5374 0
198 -5356 41 0
198 5356 5374 -41 0
-199 200 202 0
-199 -200 -202 0
199 -200 202 0
199 200 -202 0
-200 -5355 -201 0
-200 5355 201 0
200 5355 -201 0
200 -5355 201 0
201 -5352 5374 0
201 -5353 5374 0
201 -5354 5374 0
-201 -5374 0
-201 5352 5353 5354 0
-202 -5352 -5354 5374 0
-202 5352 5353 5354 0
-202 5354 -5374 0
-202 -5353 -5354 5374 0
202 -5352 5354 5374 0
202 5352 5353 -5354 0
202 -5354 -5374 0
202 -5353 5354 5374 0
-203 204 1248 0
-203 -204 -1248 0
203 -204 1248 0
203 204 -1248 0
204 -205 1078 0
-204 205 0
-204 -1078 0
-205 206 273 0
205 -206 0
205 -273 0
206 84 147 207 -218 0
-206 -84 0
-206 218 0
-206 -207 0
-206 -147 0
-207 208 209 210 211 0
207 -211 0
207 -210 0
207 -208 0
207 -209 0
208 -81 -106 0
-208 81 0
-208 106 0
209 -55 -64 0
-209 55 0
-209 64 0
210 -61 -64 0
-210 61 0
-210 64 0
-211 86 136 212 213 0
211 -213 0
211 -212 0
211 -86 0
211 -136 0
212 -70 -122 0
-212 70 0
-212 122 0
-213 126 214 216 0
213 -126 0
213 -214 0
213 -216 0
-214 149 215 0
214 -149 0
214 -215 0
215 -68 -145 0
-215 68 0
-215 145 0
-216 54 217 0
216 -54 0
216 -217 0
217 -64 -82 0
-217 64 0
-217 82 0
218 219 -228 230 236 0
-218 -236 0
-218 -219 0
-218 -230 0
-218 228 0
-219 150 220 221 223 0
219 -150 0
219 -223 0
219 -221 0
219 -220 0
220 -122 -142 0
-220 122 0
-220 142 0
-221 163 222 0
221 -163 0
221 -222 0
222 -68 -87 0
-222 68 0
-222 87 0
-223 224 226 0
223 -224 0
223 -226 0
-224 60 225 0
224 -60 0
224 -225 0
225 -57 -133 0
-225 57 0
-225 133 0
-226 77 146 227 0
226 -77 0
226 -227 0
226 -146 0
227 -74 -145 0
-227 74 0
-227 145 0
228 67 -229 0
-228 -67 0
-228 229 0
-229 21 119 0
229 -21 0
229 -119 0
-230 115 231 232 233 0
230 -233 0
230 -232 0
230 -115 0
230 -231 0
231 21 -102 0
-231 -21 0
-231 102 0
232 -87 -122 0
-232 87 0
-232 122 0
-233 183 234 235 0
233 -183 0
233 -235 0
233 -234 0
234 -78 -145 0
-234 78 0
-234 145 0
235 -102 -122 0
-235 102 0
-235 122 0
-236 184 237 242 245 0
236 -245 0
236 -184 0
236 -242 0
236 -237 0
-237 123 238 239 240 0
237 -240 0
237 -239 0
237 -123 0
237 -238 0
238 -57 -140 0
-238 57 0
-238 140 0
239 -61 -68 0
-239 61 0
-239 68 0
-240 132 241 0
240 -132 0
240 -241 0
241 -61 -78 0
-241 61 0
-241 78 0
-242 243 244 0
242 -243 0
242 -244 0
243 -55 -81 0
-243 55 0
-243 81 0
244 -122 -133 0
-244 122 0
-244 133 0
-245 246 248 251 0
245 -246 0
245 -248 0
245 -251 0
-246 104 247 0
246 -104 0
246 -247 0
247 -81 119 0
-247 81 0
-247 -119 0
-248 249 250 0
248 -249 0
248 -250 0
249 -57 -142 0
-249 57 0
-249 142 0
250 -82 -122 0
-250 82 0
-250 122 0
-251 107 252 253 0
251 -107 0
251 -252 0
251 -253 0
252 -76 -122 0
-252 76 0
-252 122 0
-253 83 100 166 254 0
253 -254 0
253 -166 0
253 -83 0
253 -100 0
-254 121 255 258 266 0
254 -121 0
254 -266 0
254 -258 0
254 -255 0
-255 156 157 256 0
255 -256 0
255 -157 0
255 -156 0
-256 137 170 257 0
256 -137 0
256 -257 0
256 -170 0
257 21 -61 0
-257 -21 0
-257 61 0
-258 259 260 261 262 0
258 -262 0
258 -261 0
258 -259 0
258 -260 0
259 -57 119 0
-259 57 0
-259 -119 0
260 -57 -87 0
-260 57 0
-260 87 0
261 -57 -145 0
-261 57 0
-261 145 0
-262 263 264 265 0
262 -263 0
262 -265 0
262 -264 0
263 -57 -65 0
-263 57 0
-263 65 0
264 -68 -133 0
-264 68 0
-264 133 0
265 -64 -102 0
-265 64 0
-265 102 0
-266 267 272 0
266 -267 0
266 -272 0
-267 268 269 271 0
267 -268 0
267 -269 0
267 -271 0
268 21 -142 0
-268 -21 0
-268 142 0
-269 73 270 0
269 -73 0
269 -270 0
270 21 -76 0
-270 -21 0
-270 76 0
271 -122 -145 0
-271 122 0
-271 145 0
-272 20 155 0
272 -20 0
272 -155 0
273 274 -354 0
273 -274 354 0
-273 -274 -354 0
-273 274 354 0
274 -275 -302 -350 0
274 -275 302 350 0
-274 275 0
-274 -302 350 0
-274 302 -350 0
-275 141 227 276 277 0
275 -277 0
275 -276 0
275 -141 0
275 -227 0
276 -74 -142 0
-276 74 0
-276 142 0
-277 234 278 284 298 0
277 -234 0
277 -298 0
277 -284 0
277 -278 0
-278 113 279 280 0
278 -280 0
278 -279 0
278 -113 0
-279 137 252 0
279 -137 0
279 -252 0
-280 90 147 172 281 0
280 -281 0
280 -172 0
280 -90 0
280 -147 0
-281 221 282 283 0
281 -221 0
281 -282 0
281 -283 0
-282 121 241 0
282 -121 0
282 -241 0
-283 146 232 0
283 -146 0
283 -232 0
-284 84 125 153 285 0
284 -285 0
284 -153 0
284 -84 0
284 -125 0
-285 77 96 164 286 0
285 -286 0
285 -164 0
285 -77 0
285 -96 0
-286 287 292 294 0
286 -287 0
286 -292 0
286 -294 0
-287 67 288 289 290 0
287 -67 0
287 -290 0
287 -289 0
287 -288 0
288 -65 -74 0
-288 65 0
-288 74 0
-289 86 185 239 0
289 -86 0
289 -239 0
289 -185 0
-290 89 161 212 291 0
290 -291 0
290 -212 0
290 -89 0
290 -161 0
291 -65 -78 0
-291 65 0
-291 78 0
-292 183 293 0
292 -183 0
292 -293 0
293 -78 119 0
-293 78 0
-293 -119 0
-294 159 295 296 0
294 -296 0
294 -295 0
294 -159 0
295 -97 -122 0
-295 97 0
-295 122 0
-296 73 160 168 297 0
296 -297 0
296 -168 0
296 -73 0
296 -160 0
-297 103 130 0
297 -103 0
297 -130 0
-298 299 300 0
298 -299 0
298 -300 0
-299 109 139 0
299 -109 0
299 -139 0
-300 83 170 220 301 0
300 -301 0
300 -220 0
300 -83 0
300 -170 0
-301 123 128 171 0
301 -123 0
301 -171 0
301 -128 0
302 -303 -335 0
-302 303 0
-302 335 0
-303 166 304 305 0
303 -305 0
303 -304 0
303 -166 0
304 21 -70 0
-304 -21 0
-304 70 0
-305 270 306 319 320 0
305 -306 0
305 -319 0
305 -270 0
305 -320 0
-306 54 307 308 0
306 -308 0
306 -307 0
306 -54 0
307 -68 119 0
-307 68 0
-307 -119 0
-308 151 309 314 316 0
308 -151 0
308 -316 0
308 -314 0
308 -309 0
-309 100 135 310 311 0
309 -311 0
309 -310 0
309 -100 0
309 -135 0
310 -64 -106 0
-310 64 0
-310 106 0
-311 112 312 0
311 -112 0
311 -312 0
-312 209 313 0
312 -209 0
312 -313 0
313 -64 -97 0
-313 64 0
-313 97 0
-314 95 150 315 0
314 -315 0
314 -150 0
314 -95 0
-315 167 182 244 0
315 -167 0
315 -244 0
315 -182 0
-316 248 264 271 317 0
316 -317 0
316 -271 0
316 -248 0
316 -264 0
-317 215 318 0
317 -215 0
317 -318 0
318 -68 -140 0
-318 68 0
-318 140 0
319 -61 -81 0
-319 61 0
-319 81 0
-320 208 321 322 0
320 -322 0
320 -321 0
320 -208 0
321 -76 -81 0
-321 76 0
-321 81 0
-322 115 323 324 0
322 -324 0
322 -323 0
322 -115 0
323 21 -55 0
-323 -21 0
-323 55 0
-324 325 326 327 0
324 -327 0
324 -326 0
324 -325 0
325 -81 -142 0
-325 81 0
-325 142 0
326 21 -97 0
-326 -21 0
-326 97 0
-327 20 268 328 329 0
327 -20 0
327 -329 0
327 -328 0
327 -268 0
-328 127 235 0
328 -127 0
328 -235 0
-329 330 331 333 0
329 -330 0
329 -331 0
329 -333 0
-330 176 259 0
330 -176 0
330 -259 0
-331 118 332 0
331 -118 0
331 -332 0
-332 136 157 0
332 -136 0
332 -157 0
-333 243 334 0
333 -243 0
333 -334 0
334 -81 -97 0
-334 81 0
-334 97 0
-335 101 336 341 0
335 -341 0
335 -336 0
335 -101 0
-336 144 263 337 0
336 -337 0
336 -263 0
336 -144 0
-337 175 338 0
337 -175 0
337 -338 0
-338 225 261 339 340 0
338 -340 0
338 -339 0
338 -225 0
338 -261 0
339 -64 -140 0
-339 64 0
-339 140 0
-340 63 238 0
340 -63 0
340 -238 0
-341 328 332 342 0
341 -328 0
341 -332 0
341 -342 0
-342 306 343 0
342 -306 0
342 -343 0
-343 60 116 344 345 0
343 -345 0
343 -344 0
343 -60 0
343 -116 0
344 -57 -70 0
-344 57 0
-344 70 0
-345 210 217 346 348 0
345 -210 0
345 -348 0
345 -346 0
345 -217 0
-346 156 347 0
346 -156 0
346 -347 0
347 -64 -87 0
-347 64 0
-347 87 0
-348 260 265 349 0
348 -260 0
348 -349 0
348 -265 0
349 -57 -82 0
-349 57 0
-349 82 0
-350 351 352 0
-350 -351 -352 0
350 -351 352 0
350 351 -352 0
-351 5366 31 0
-351 -5366 5374 -31 0
-351 5366 -5374 0
351 -5366 -5374 0
351 -5366 31 0
351 5366 5374 -31 0
-352 -5365 -353 0
-352 5365 353 0
352 5365 -353 0
352 -5365 353 0
353 5374 -32 0
-353 -5374 0
-353 32 0
354 355 -431 0
354 -355 431 0
-354 -355 -431 0
-354 355 431 0
-355 356 364 0
355 -356 0
355 -364 0
356 -357 363 0
-356 357 0
-356 -363 0
357 -351 -358 362 0
357 351 -361 362 0
-357 -362 0
-357 -351 358 0
-357 351 361 0
-358 359 360 0
358 -359 0
358 -360 0
-359 303 335 0
-359 -303 -335 0
359 -303 335 0
359 303 -335 0
360 275 -335 0
360 275 -303 0
-360 -275 0
-360 303 335 0
361 -275 302 0
-361 275 0
-361 -302 0
362 -359 361 0
-362 359 0
-362 -361 0
363 -275 -352 0
-363 275 0
-363 352 0
364 -357 -363 -365 0
364 357 363 -365 0
-364 365 0
-364 -357 363 0
-364 357 -363 0
-365 366 427 0
365 -366 0
365 -427 0
366 367 -424 0
-366 -367 0
-366 424 0
367 -303 368 0
367 -303 393 0
-367 303 0
-367 -368 -393 0
-368 255 369 370 380 0
368 -380 0
368 -255 0
368 -370 0
368 -369 0
369 21 -87 0
-369 -21 0
-369 87 0
-370 77 250 371 372 0
370 -372 0
370 -371 0
370 -77 0
370 -250 0
371 21 -145 0
-371 -21 0
-371 145 0
-372 114 373 376 377 0
372 -377 0
372 -114 0
372 -376 0
372 -373 0
-373 147 163 268 374 0
373 -374 0
373 -268 0
373 -147 0
373 -163 0
-374 179 375 0
374 -179 0
374 -375 0
375 21 -82 0
-375 -21 0
-375 82 0
-376 168 208 295 0
376 -168 0
376 -295 0
376 -208 0
-377 378 379 0
377 -378 0
377 -379 0
-378 81 175 178 0
-378 142 175 178 0
378 -178 0
378 -175 0
378 -81 -142 0
-379 74 171 276 0
-379 76 171 276 0
379 -276 0
379 -171 0
379 -74 -76 0
-380 381 384 386 388 0
380 -388 0
380 -381 0
380 -386 0
380 -384 0
-381 150 264 323 382 0
381 -382 0
381 -323 0
381 -150 0
381 -264 0
-382 241 383 0
382 -241 0
382 -383 0
-383 113 136 161 0
383 -113 0
383 -161 0
383 -136 0
-384 60 321 344 385 0
384 -385 0
384 -344 0
384 -60 0
384 -321 0
-385 63 141 0
385 -63 0
385 -141 0
-386 235 313 387 0
386 -387 0
386 -313 0
386 -235 0
-387 159 244 0
387 -159 0
387 -244 0
-388 389 390 391 0
388 -389 0
388 -390 0
388 -391 0
-389 210 249 259 0
389 -210 0
389 -259 0
389 -249 0
-390 79 172 263 0
390 -79 0
390 -263 0
390 -172 0
-391 131 392 0
391 -131 0
391 -392 0
392 21 -133 0
-392 -21 0
-392 133 0
-393 394 268 369 395 0
393 -395 0
393 -369 0
393 -394 0
393 -268 0
-394 264 265 0
394 -264 0
394 -265 0
-395 396 413 417 418 0
395 -418 0
395 -396 0
395 -417 0
395 -413 0
-396 149 307 397 398 0
396 -398 0
396 -397 0
396 -149 0
396 -307 0
397 21 -65 0
-397 -21 0
-397 65 0
-398 136 399 402 403 0
398 -136 0
398 -403 0
398 -402 0
398 -399 0
-399 210 349 375 400 0
399 -400 0
399 -375 0
399 -210 0
399 -349 0
-400 84 118 401 0
400 -401 0
400 -118 0
400 -84 0
-401 90 161 272 0
401 -90 0
401 -161 0
401 -272 0
-402 60 164 241 0
402 -60 0
402 -241 0
402 -164 0
-403 242 404 412 0
403 -242 0
403 -404 0
403 -412 0
-404 257 276 405 0
404 -405 0
404 -276 0
404 -257 0
-405 157 231 260 406 0
405 -406 0
405 -260 0
405 -157 0
405 -231 0
-406 77 132 407 0
406 -407 0
406 -132 0
406 -77 0
-407 291 346 408 411 0
407 -291 0
407 -411 0
407 -408 0
407 -346 0
-408 108 235 409 0
408 -409 0
408 -235 0
408 -108 0
-409 171 250 330 410 0
409 -171 0
409 -410 0
409 -330 0
409 -250 0
-410 227 288 0
410 -227 0
410 -288 0
-411 103 299 0
411 -103 0
411 -299 0
-412 86 116 147 153 0
412 -153 0
412 -147 0
412 -86 0
412 -116 0
-413 123 215 217 414 0
413 -414 0
413 -217 0
413 -123 0
413 -215 0
-414 141 415 416 0
414 -416 0
414 -415 0
414 -141 0
-415 220 293 0
415 -220 0
415 -293 0
-416 125 344 0
416 -125 0
416 -344 0
-417 151 326 0
417 -151 0
417 -326 0
-418 126 419 420 0
418 -126 0
418 -419 0
418 -420 0
-419 89 172 334 0
419 -89 0
419 -334 0
419 -172 0
-420 160 318 421 0
420 -421 0
420 -318 0
420 -160 0
-421 80 163 325 422 0
421 -422 0
421 -325 0
421 -80 0
421 -163 0
-422 96 181 423 0
422 -423 0
422 -181 0
422 -96 0
-423 73 234 271 0
423 -73 0
423 -271 0
423 -234 0
424 -275 -425 0
-424 275 0
-424 425 0
-425 -5363 -426 0
-425 5363 426 0
425 5363 -426 0
425 -5363 426 0
426 5374 -34 0
-426 -5374 0
-426 34 0
427 428 -429 0
-427 -428 0
-427 429 0
-428 -367 -424 0
-428 367 424 0
428 367 -424 0
428 -367 424 0
429 -275 -430 0
-429 275 0
-429 430 0
-430 5364 33 0
-430 -5364 5374 -33 0
-430 5364 -5374 0
430 -5364 -5374 0
430 -5364 33 0
430 5364 5374 -33 0
431 432 -453 0
431 -452 -453 0
-431 453 0
-431 -432 452 0
-432 433 449 0
432 -433 0
432 -449 0
433 -434 -438 0
-433 434 0
-433 438 0
434 -351 435 -436 0
434 351 362 -436 0
-434 436 0
-434 -351 -435 0
-434 351 -362 0
435 -359 360 0
-435 359 0
-435 -360 0
436 352 -437 0
436 -352 -358 0
-436 -352 358 0
-436 352 437 0
-437 359 361 0
437 -359 0
437 -361 0
-438 439 445 0
438 -439 0
438 -445 0
439 424 -440 0
-439 -424 0
-439 440 0
440 351 -367 444 0
440 -351 -441 444 0
-440 -444 0
-440 351 367 0
-440 -351 441 0
-441 442 443 0
441 -442 0
441 -443 0
-442 368 393 0
-442 -368 -393 0
442 -368 393 0
442 368 -393 0
443 303 -393 0
443 303 -368 0
-443 -303 0
-443 368 393 0
444 367 -442 0
-444 -367 0
-444 442 0
445 -446 448 0
-445 446 0
-445 -448 0
446 -352 435 -447 0
446 352 362 -447 0
-446 447 0
-446 -352 -435 0
-446 352 -362 0
447 430 -437 0
447 -358 -430 0
-447 430 437 0
-447 358 -430 0
-448 -424 -440 0
-448 424 440 0
448 424 -440 0
448 -424 440 0
449 -450 451 0
-449 450 0
-449 -451 0
450 -434 438 0
450 434 -438 0
-450 434 438 0
-450 -434 -438 0
-451 -428 -429 0
-451 428 429 0
451 428 -429 0
451 -428 429 0
452 275 357 -365 0
452 275 -357 365 0
452 -275 -352 357 365 0
452 352 -357 365 0
452 352 357 -365 0
452 -275 -352 -357 -365 0
-452 275 357 365 0
-452 275 -357 -365 0
-452 -275 -352 -357 365 0
-452 352 357 365 0
-452 352 -357 -365 0
-452 -275 -352 357 -365 0
-453 454 455 0
453 -454 0
453 -455 0
454 432 -452 0
454 -432 452 0
-454 -432 -452 0
-454 432 452 0
455 456 -537 0
-455 -456 0
-455 537 0
456 -457 536 0
-456 457 0
-456 -536 0
-457 458 533 0
457 -458 0
457 -533 0
458 -459 -512 0
-458 459 0
-458 512 0
-459 460 508 0
459 -460 0
459 -508 0
460 461 -505 0
-460 -461 0
-460 505 0
461 -368 462 0
461 -368 487 0
-461 368 0
-461 -462 -487 0
-462 83 170 178 463 0
462 -463 0
462 -178 0
462 -83 0
462 -170 0
-463 291 464 467 474 0
463 -291 0
463 -474 0
463 -467 0
463 -464 0
-464 247 270 465 0
464 -465 0
464 -270 0
464 -247 0
-465 112 263 323 466 0
465 -466 0
465 -323 0
465 -112 0
465 -263 0
-466 160 164 293 0
466 -160 0
466 -293 0
466 -164 0
-467 20 144 179 468 0
467 -468 0
467 -179 0
467 -20 0
467 -144 0
-468 91 209 347 469 0
468 -469 0
468 -347 0
468 -91 0
468 -209 0
-469 331 470 472 0
469 -331 0
469 -470 0
469 -472 0
-470 67 113 156 471 0
470 -471 0
470 -156 0
470 -67 0
470 -113 0
471 -81 -140 0
-471 81 0
-471 140 0
-472 176 257 349 473 0
472 -473 0
472 -349 0
472 -176 0
472 -257 0
-473 241 339 344 0
473 -241 0
473 -344 0
473 -339 0
-474 475 483 485 486 0
474 -486 0
474 -475 0
474 -485 0
474 -483 0
-475 95 304 369 476 0
475 -476 0
475 -369 0
475 -95 0
475 -304 0
-476 132 185 477 478 0
476 -132 0
476 -478 0
476 -477 0
476 -185 0
-477 80 210 0
477 -80 0
477 -210 0
-478 479 481 482 0
478 -479 0
478 -481 0
478 -482 0
-479 101 159 252 480 0
479 -480 0
479 -252 0
479 -101 0
479 -159 0
-480 89 172 250 0
480 -89 0
480 -250 0
480 -172 0
-481 65 149 0
-481 81 122 149 0
481 -149 0
481 -65 -122 0
481 -65 -81 0
-482 150 326 0
482 -150 0
482 -326 0
-483 115 225 325 484 0
483 -484 0
483 -325 0
483 -115 0
483 -225 0
-484 86 222 310 0
484 -86 0
484 -310 0
484 -222 0
-485 153 217 288 0
485 -153 0
485 -288 0
485 -217 0
-486 168 182 215 0
486 -168 0
486 -215 0
486 -182 0
-487 208 261 471 488 0
487 -488 0
487 -471 0
487 -208 0
487 -261 0
-488 63 118 141 489 0
488 -489 0
488 -141 0
488 -63 0
488 -118 0
-489 490 491 497 498 0
489 -498 0
489 -490 0
489 -497 0
489 -491 0
-490 112 170 178 334 0
490 -334 0
490 -178 0
490 -112 0
490 -170 0
-491 20 83 225 492 0
491 -492 0
491 -225 0
491 -20 0
491 -83 0
-492 160 252 295 493 0
492 -493 0
492 -295 0
492 -160 0
492 -252 0
-493 423 494 495 496 0
493 -496 0
493 -423 0
493 -495 0
493 -494 0
-494 116 131 166 249 0
494 -249 0
494 -166 0
494 -116 0
494 -131 0
-495 54 125 323 0
495 -54 0
495 -323 0
495 -125 0
-496 84 128 150 0
496 -84 0
496 -150 0
496 -128 0
-497 168 212 0
497 -168 0
497 -212 0
-498 404 499 500 501 0
498 -501 0
498 -404 0
498 -500 0
498 -499 0
-499 67 123 0
499 -67 0
499 -123 0
-500 96 239 0
500 -96 0
500 -239 0
-501 145 209 502 0
-501 64 209 502 0
501 -502 0
501 -209 0
501 -64 -145 0
-502 99 186 270 503 0
502 -503 0
502 -270 0
502 -99 0
502 -186 0
-503 214 504 0
503 -214 0
503 -504 0
-504 318 392 0
504 -318 0
504 -392 0
505 -275 -506 0
-505 275 0
-505 506 0
-506 -5361 -507 0
-506 5361 507 0
506 5361 -507 0
506 -5361 507 0
507 5374 -36 0
-507 -5374 0
-507 36 0
508 509 -510 0
-508 -509 0
-508 510 0
-509 -461 -505 0
-509 461 505 0
509 461 -505 0
509 -461 505 0
510 -275 -511 0
-510 275 0
-510 511 0
-511 5362 35 0
-511 -5362 5374 -35 0
-511 5362 -5374 0
511 -5362 -5374 0
511 -5362 35 0
511 5362 5374 -35 0
-512 513 520 0
512 -513 0
512 -520 0
513 -514 -518 0
-513 514 0
-513 518 0
514 -351 515 -516 0
514 351 444 -516 0
-514 516 0
-514 -351 -515 0
-514 351 -444 0
515 -442 443 0
-515 442 0
-515 -443 0
516 352 -517 0
516 -352 -441 0
-516 -352 441 0
-516 352 517 0
-517 367 442 0
517 -367 0
517 -442 0
518 -430 435 -519 0
518 362 430 -519 0
-518 519 0
-518 -430 -435 0
-518 -362 430 0
519 425 -437 0
519 -358 -425 0
-519 425 437 0
-519 358 -425 0
520 -521 -532 0
-520 521 0
-520 532 0
-521 522 528 0
521 -522 0
521 -528 0
522 505 -523 0
-522 -505 0
-522 523 0
523 351 -461 527 0
523 -351 -524 527 0
-523 -527 0
-523 351 461 0
-523 -351 524 0
-524 525 526 0
524 -525 0
524 -526 0
-525 462 487 0
-525 -462 -487 0
525 -462 487 0
525 462 -487 0
526 368 -487 0
526 368 -462 0
-526 -368 0
-526 462 487 0
527 461 -525 0
-527 -461 0
-527 525 0
528 -529 531 0
-528 529 0
-528 -531 0
529 -352 515 -530 0
529 352 444 -530 0
-529 530 0
-529 -352 -515 0
-529 352 -444 0
530 430 -517 0
530 -430 -441 0
-530 -430 441 0
-530 430 517 0
-531 -505 -523 0
-531 505 523 0
531 505 -523 0
531 -505 523 0
532 514 -518 0
532 -514 518 0
-532 -514 -518 0
-532 514 518 0
533 -534 535 0
-533 534 0
-533 -535 0
-534 459 512 0
-534 -459 -512 0
534 -459 512 0
534 459 -512 0
-535 446 448 0
-535 -446 -448 0
535 -446 448 0
535 446 -448 0
-536 450 451 0
-536 -450 -451 0
536 -450 451 0
536 450 -451 0
-537 538 1077 0
537 -538 0
537 -1077 0
538 539 -621 0
538 -620 -621 0
-538 621 0
-538 -539 620 0
-539 540 617 0
539 -540 0
539 -617 0
540 -541 616 0
-540 541 0
-540 -616 0
-541 542 603 0
541 -542 0
541 -603 0
542 -543 -545 0
-542 543 0
-542 545 0
543 -425 435 -544 0
543 362 425 -544 0
-543 544 0
-543 -425 -435 0
-543 -362 425 0
544 -358 -511 0
544 -437 511 0
-544 437 511 0
-544 358 -511 0
-545 546 600 0
545 -546 0
545 -600 0
546 547 -597 0
-546 -547 0
-546 597 0
547 -462 -548 0
547 -462 572 0
-547 462 0
-547 548 -572 0
548 183 186 371 -549 0
-548 549 0
-548 -371 0
-548 -183 0
-548 -186 0
549 215 550 559 -566 0
-549 -215 0
-549 566 0
-549 -559 0
-549 -550 0
-550 108 339 551 0
550 -551 0
550 -339 0
550 -108 0
-551 131 141 347 552 0
551 -552 0
551 -347 0
551 -131 0
551 -141 0
-552 105 219 553 556 0
552 -105 0
552 -556 0
552 -553 0
552 -219 0
-553 179 208 369 554 0
553 -554 0
553 -369 0
553 -179 0
553 -208 0
-554 94 555 0
554 -94 0
554 -555 0
-555 112 307 0
555 -112 0
555 -307 0
-556 216 557 0
556 -216 0
556 -557 0
-557 164 247 252 558 0
557 -558 0
557 -252 0
557 -164 0
557 -247 0
-558 121 323 0
558 -121 0
558 -323 0
-559 101 160 212 560 0
559 -560 0
559 -212 0
559 -101 0
559 -160 0
-560 561 562 564 565 0
560 -565 0
560 -561 0
560 -564 0
560 -562 0
-561 249 271 304 319 0
561 -319 0
561 -304 0
561 -249 0
561 -271 0
-562 156 268 392 563 0
562 -563 0
562 -392 0
562 -156 0
562 -268 0
-563 73 289 0
563 -73 0
563 -289 0
-564 91 232 0
564 -91 0
564 -232 0
-565 378 416 0
565 -378 0
565 -416 0
566 -228 567 569 570 0
-566 -570 0
-566 228 0
-566 -569 0
-566 -567 0
-567 83 243 471 568 0
567 -568 0
567 -471 0
567 -83 0
567 -243 0
-568 127 137 153 159 0
568 -159 0
568 -153 0
568 -127 0
568 -137 0
-569 135 176 276 0
569 -135 0
569 -276 0
569 -176 0
-570 340 383 571 0
570 -340 0
570 -383 0
570 -571 0
-571 65 109 257 0
-571 74 109 257 0
571 -257 0
571 -109 0
571 -65 -74 0
-572 268 344 573 0
572 -573 0
572 -344 0
572 -268 0
-573 212 408 574 577 0
573 -212 0
573 -577 0
573 -574 0
573 -408 0
-574 175 260 263 575 0
574 -575 0
574 -263 0
574 -175 0
574 -260 0
-575 109 159 252 576 0
575 -576 0
575 -252 0
575 -109 0
575 -159 0
-576 116 264 310 0
576 -116 0
576 -310 0
576 -264 0
-577 90 578 583 0
577 -90 0
577 -578 0
577 -583 0
-578 225 232 307 579 0
578 -579 0
578 -307 0
578 -225 0
578 -232 0
-579 96 580 582 0
579 -582 0
579 -580 0
579 -96 0
-580 270 581 0
580 -270 0
580 -581 0
-581 83 185 0
581 -83 0
581 -185 0
-582 321 325 0
582 -321 0
582 -325 0
-583 584 587 0
583 -584 0
583 -587 0
-584 115 136 585 0
584 -585 0
584 -136 0
584 -115 0
-585 121 586 0
585 -121 0
585 -586 0
-586 135 217 0
586 -135 0
586 -217 0
-587 123 257 369 588 0
587 -588 0
587 -369 0
587 -123 0
587 -257 0
-588 241 589 0
588 -241 0
588 -589 0
-589 118 166 590 591 0
589 -118 0
589 -591 0
589 -590 0
589 -166 0
-590 112 170 0
590 -112 0
590 -170 0
-591 125 161 234 592 0
591 -592 0
591 -234 0
591 -125 0
591 -161 0
-592 181 561 593 595 0
592 -595 0
592 -181 0
592 -593 0
592 -561 0
-593 172 276 295 594 0
593 -594 0
593 -295 0
593 -172 0
593 -276 0
-594 164 291 0
594 -164 0
594 -291 0
-595 141 313 596 0
595 -596 0
595 -313 0
595 -141 0
-596 77 128 0
596 -77 0
596 -128 0
597 -275 -598 0
-597 275 0
-597 598 0
-598 -5359 -599 0
-598 5359 599 0
598 5359 -599 0
598 -5359 599 0
599 5374 -38 0
-599 -5374 0
-599 38 0
600 -275 601 -602 0
-600 275 0
-600 -601 0
-600 602 0
-601 -547 -597 0
-601 547 597 0
601 547 -597 0
601 -547 597 0
-602 5360 37 0
-602 -5360 5374 -37 0
-602 5360 -5374 0
602 -5360 -5374 0
602 -5360 37 0
602 5360 5374 -37 0
603 -604 -615 0
-603 604 0
-603 615 0
-604 605 611 0
-604 609 611 0
604 -611 0
604 -605 -609 0
605 -351 606 -607 0
605 351 527 -607 0
-605 607 0
-605 -351 -606 0
-605 351 -527 0
606 -525 526 0
-606 525 0
-606 -526 0
607 352 -608 0
607 -352 -524 0
-607 -352 524 0
-607 352 608 0
-608 461 525 0
608 -461 0
608 -525 0
609 -430 515 -610 0
609 430 444 -610 0
-609 610 0
-609 -430 -515 0
-609 430 -444 0
610 425 -517 0
610 -425 -441 0
-610 -425 441 0
-610 425 517 0
611 -612 -614 0
-611 612 0
-611 614 0
612 435 -511 -613 0
612 362 511 -613 0
-612 613 0
-612 -435 -511 0
-612 -362 511 0
613 -358 -506 0
613 -437 506 0
-613 437 506 0
-613 358 -506 0
-614 -605 -609 0
-614 605 609 0
614 605 -609 0
614 -605 609 0
-615 543 545 0
-615 -543 -545 0
615 -543 545 0
615 543 -545 0
-616 -509 -510 0
-616 509 510 0
616 509 -510 0
616 -509 510 0
617 618 -619 0
-617 -618 0
-617 619 0
-618 541 616 0
-618 -541 -616 0
618 -541 616 0
618 541 -616 0
619 521 -532 0
619 -521 532 0
-619 -521 -532 0
-619 521 532 0
620 -534 535 0
620 534 -535 0
-620 534 535 0
-620 -534 -535 0
-621 622 623 0
621 -622 0
621 -623 0
622 539 -620 0
622 -539 620 0
-622 -539 -620 0
-622 539 620 0
623 624 -700 0
-623 -624 0
-623 700 0
624 -625 699 0
-624 625 0
-624 -699 0
-625 626 696 0
625 -626 0
625 -696 0
626 -627 695 0
-626 627 0
-626 -695 0
-627 628 692 0
627 -628 0
627 -692 0
628 -629 -681 0
-628 629 0
-628 681 0
-629 630 635 0
629 -630 0
629 -635 0
630 -631 -633 0
-630 631 0
-630 633 0
631 -425 515 -632 0
631 425 444 -632 0
-631 632 0
-631 -425 -515 0
-631 425 -444 0
632 511 -517 0
632 -441 -511 0
-632 511 517 0
-632 441 -511 0
633 435 -506 -634 0
633 362 506 -634 0
-633 634 0
-633 -435 -506 0
-633 -362 506 0
634 -358 -602 0
634 -437 602 0
-634 437 602 0
-634 358 -602 0
635 -636 -680 0
-635 636 0
-635 680 0
-636 637 677 0
636 -637 0
636 -677 0
637 -638 658 0
-637 638 0
-637 -658 0
638 112 144 369 -639 0
-638 639 0
-638 -369 0
-638 -112 0
-638 -144 0
639 83 132 640 -646 0
-639 -83 0
-639 646 0
-639 -640 0
-639 -132 0
-640 150 232 321 641 0
640 -641 0
640 -321 0
640 -150 0
640 -232 0
-641 99 141 593 642 0
641 -642 0
641 -99 0
641 -593 0
641 -141 0
-642 643 644 645 0
642 -643 0
642 -644 0
642 -645 0
-643 238 250 339 0
643 -238 0
643 -339 0
643 -250 0
-644 170 307 371 0
644 -170 0
644 -371 0
644 -307 0
-645 123 244 326 344 0
645 -344 0
645 -326 0
645 -123 0
645 -244 0
646 207 647 650 -654 0
-646 654 0
-646 -207 0
-646 -650 0
-646 -647 0
-647 167 648 649 0
647 -649 0
647 -648 0
647 -167 0
-648 135 310 0
648 -135 0
648 -310 0
-649 63 176 279 0
649 -279 0
649 -176 0
649 -63 0
-650 247 261 347 651 0
650 -651 0
650 -347 0
650 -247 0
650 -261 0
-651 125 153 159 652 0
651 -652 0
651 -159 0
651 -125 0
651 -153 0
-652 653 319 0
652 -653 0
652 -319 0
-653 264 271 0
653 -264 0
653 -271 0
654 -228 373 410 655 0
-654 -655 0
-654 228 0
-654 -410 0
-654 -373 0
-655 656 657 0
655 -656 0
655 -657 0
-656 166 397 0
656 -166 0
656 -397 0
-657 92 239 0
657 -92 0
657 -239 0
658 548 -638 0
658 548 -659 0
-658 -548 0
-658 638 659 0
659 105 160 238 -660 0
-659 660 0
-659 -238 0
-659 -105 0
-659 -160 0
660 90 661 -667 674 0
-660 -674 0
-660 -90 0
-660 667 0
-660 -661 0
-661 116 225 231 662 0
661 -662 0
661 -231 0
661 -116 0
661 -225 0
-662 104 141 151 663 0
662 -663 0
662 -151 0
662 -104 0
662 -141 0
-663 77 647 664 666 0
663 -77 0
663 -666 0
663 -664 0
663 -647 0
-664 161 276 499 665 0
664 -161 0
664 -665 0
664 -499 0
664 -276 0
-665 317 656 0
665 -317 0
665 -656 0
-666 221 419 571 0
666 -221 0
666 -419 0
666 -571 0
667 108 155 -668 0
-667 668 0
-667 -155 0
-667 -108 0
668 186 239 247 -669 0
-668 669 0
-668 -247 0
-668 -186 0
-668 -239 0
669 113 332 -670 0
-669 670 0
-669 -332 0
-669 -113 0
670 -229 376 580 671 0
-670 229 0
-670 -671 0
-670 -580 0
-670 -376 0
-671 212 369 471 672 0
671 -672 0
671 -471 0
671 -212 0
671 -369 0
-672 153 250 673 0
672 -673 0
672 -250 0
672 -153 0
-673 139 415 558 0
673 -558 0
673 -415 0
673 -139 0
-674 258 311 346 675 0
674 -675 0
674 -258 0
674 -346 0
674 -311 0
-675 482 676 0
675 -482 0
675 -676 0
-676 54 95 147 291 0
676 -291 0
676 -147 0
676 -54 0
676 -95 0
677 -638 -658 -678 0
677 638 658 -678 0
-677 678 0
-677 -638 658 0
-677 638 -658 0
678 -275 -679 0
-678 275 0
-678 679 0
-679 5358 39 0
-679 -5358 5374 -39 0
-679 5358 -5374 0
679 -5358 -5374 0
679 -5358 39 0
679 5358 5374 -39 0
680 631 -633 0
680 -631 633 0
-680 -631 -633 0
-680 631 633 0
-681 682 688 0
681 -682 0
681 -688 0
682 597 -683 0
-682 -597 0
-682 683 0
683 351 -547 -687 0
683 -351 684 -687 0
-683 687 0
-683 351 547 0
-683 -351 -684 0
684 -685 -686 0
-684 685 0
-684 686 0
685 -548 572 0
685 548 -572 0
-685 548 572 0
-685 -548 -572 0
-686 462 -572 0
-686 462 548 0
686 -462 0
686 -548 572 0
-687 547 685 0
687 -547 0
687 -685 0
688 -689 691 0
-688 689 0
-688 -691 0
689 -352 606 -690 0
689 352 527 -690 0
-689 690 0
-689 -352 -606 0
-689 352 -527 0
690 430 -608 0
690 -430 -524 0
-690 -430 524 0
-690 430 608 0
-691 -597 -683 0
-691 597 683 0
691 597 -683 0
691 -597 683 0
692 -693 694 0
-692 693 0
-692 -694 0
-693 629 681 0
-693 -629 -681 0
693 -629 681 0
693 629 -681 0
694 275 -601 0
694 -601 602 0
694 -275 601 -602 0
-694 275 601 0
-694 601 602 0
-694 -275 -601 -602 0
-695 529 531 0
-695 -529 -531 0
695 -529 531 0
695 529 -531 0
696 -697 698 0
-696 697 0
-696 -698 0
-697 604 615 0
-697 -604 -615 0
697 -604 615 0
697 604 -615 0
-698 627 695 0
-698 -627 -695 0
698 -627 695 0
698 627 -695 0
-699 -618 -619 0
-699 618 619 0
699 618 -619 0
699 -618 619 0
-700 701 1076 0
700 -701 0
700 -1076 0
701 702 -726 0
-701 -702 0
-701 726 0
702 703 -704 0
-702 -703 0
-702 704 0
703 -697 698 0
703 697 -698 0
-703 697 698 0
-703 -697 -698 0
-704 705 724 0
-704 705 -725 0
704 -705 0
704 -724 725 0
705 -706 -723 0
-705 706 0
-705 723 0
-706 707 720 0
706 -707 0
706 -720 0
707 -708 719 0
-707 708 0
-707 -719 0
-708 709 713 0
-708 711 713 0
708 -713 0
708 -709 -711 0
709 -511 515 -710 0
709 444 511 -710 0
-709 710 0
-709 -511 -515 0
-709 -444 511 0
710 506 -517 0
710 -441 -506 0
-710 506 517 0
-710 441 -506 0
711 435 -602 -712 0
711 362 602 -712 0
-711 712 0
-711 -435 -602 0
-711 -362 602 0
712 -358 -598 0
712 -437 598 0
-712 437 598 0
-712 358 -598 0
713 -714 -718 0
-713 714 0
-713 718 0
714 -351 715 716 0
714 351 -687 716 0
-714 -716 0
-714 -351 -715 0
-714 351 687 0
715 685 -686 0
-715 -685 0
-715 686 0
-716 352 717 0
-716 -352 684 0
716 -352 -684 0
716 352 -717 0
717 547 -685 0
-717 -547 0
-717 685 0
-718 -709 -711 0
-718 709 711 0
718 709 -711 0
718 -709 711 0
-719 689 691 0
-719 -689 -691 0
719 -689 691 0
719 689 -691 0
720 721 -722 0
-720 -721 0
-720 722 0
721 -708 719 0
721 708 -719 0
-721 708 719 0
-721 -708 -719 0
722 636 -680 0
722 -636 680 0
-722 -636 -680 0
-722 636 680 0
-723 612 614 0
-723 -612 -614 0
723 -612 614 0
723 612 -614 0
-724 706 723 0
-724 -706 -723 0
724 -706 723 0
724 706 -723 0
725 693 -694 0
725 -693 694 0
-725 -693 -694 0
-725 693 694 0
-726 727 728 0
726 -727 0
726 -728 0
727 -703 704 0
727 703 -704 0
-727 703 704 0
-727 -703 -704 0
728 729 -789 0
-728 -729 0
-728 789 0
729 -730 788 0
-729 730 0
-729 -788 0
-730 731 785 0
730 -731 0
730 -785 0
731 -732 -748 0
-731 732 0
-731 748 0
-732 733 737 0
732 -733 0
732 -737 0
733 -734 736 0
-733 734 0
-733 -736 0
734 -430 606 -735 0
734 430 527 -735 0
-734 735 0
-734 -430 -606 0
-734 430 -527 0
735 425 -608 0
735 -425 -524 0
-735 -425 524 0
-735 425 608 0
736 275 638 -658 0
736 -638 658 679 0
736 -275 -638 -658 -679 0
736 275 -638 658 0
736 638 -658 679 0
736 -275 638 658 -679 0
-736 275 638 658 0
-736 275 -638 -658 0
-736 -275 638 -658 -679 0
-736 638 658 679 0
-736 -638 -658 679 0
-736 -275 -638 658 -679 0
737 -738 747 0
-737 738 0
-737 -747 0
-738 739 741 0
738 -739 0
738 -741 0
739 638 -740 0
-739 -638 0
-739 740 0
740 -193 -275 0
-740 193 0
-740 275 0
741 -638 -740 -742 0
741 638 740 -742 0
-741 742 0
-741 -638 740 0
-741 638 -740 0
742 351 -658 746 0
742 -351 -743 746 0
-742 -746 0
-742 351 658 0
-742 -351 743 0
-743 744 745 0
743 -744 0
743 -745 0
-744 -638 -659 0
-744 638 659 0
744 638 -659 0
744 -638 659 0
745 -548 659 0
745 -548 638 0
-745 548 0
-745 -638 -659 0
746 658 -744 0
-746 -658 0
-746 744 0
-747 -734 -736 0
-747 734 736 0
747 734 -736 0
747 -734 736 0
-748 749 760 0
748 -749 0
748 -760 0
749 -750 -759 0
-749 750 0
-749 759 0
-750 751 755 0
-750 753 755 0
750 -755 0
750 -751 -753 0
751 -352 715 752 0
751 352 -687 752 0
-751 -752 0
-751 -352 -715 0
-751 352 687 0
-752 430 717 0
-752 -430 684 0
752 -430 -684 0
752 430 -717 0
753 -425 606 -754 0
753 425 527 -754 0
-753 754 0
-753 -425 -606 0
-753 425 -527 0
754 511 -608 0
754 -511 -524 0
-754 -511 524 0
-754 511 608 0
755 -756 -758 0
-755 756 0
-755 758 0
756 -506 515 -757 0
756 444 506 -757 0
-756 757 0
-756 -506 -515 0
-756 -444 506 0
757 -441 -602 0
757 -517 602 0
-757 517 602 0
-757 441 -602 0
-758 -751 -753 0
-758 751 753 0
758 751 -753 0
758 -751 753 0
759 -714 718 0
759 714 -718 0
-759 714 718 0
-759 -714 -718 0
760 -761 -784 0
-760 761 0
-760 784 0
-761 762 773 0
761 -762 0
761 -773 0
762 -763 -765 0
-762 763 0
-762 765 0
763 435 -598 -764 0
763 362 598 -764 0
-763 764 0
-763 -435 -598 0
-763 -362 598 0
764 -358 -679 0
764 -437 679 0
-764 437 679 0
-764 358 -679 0
-765 766 768 0
765 -766 0
765 -768 0
766 638 -767 0
-766 -638 0
-766 767 0
767 -198 -275 0
-767 198 0
-767 275 0
768 -638 -767 -769 0
768 638 767 -769 0
-768 769 0
-768 -638 767 0
-768 638 -767 0
769 -351 770 -771 0
769 351 746 -771 0
-769 771 0
-769 -351 -770 0
-769 351 -746 0
770 -744 745 0
-770 744 0
-770 -745 0
771 352 -772 0
771 -352 -743 0
-771 -352 743 0
-771 352 772 0
-772 658 744 0
772 -658 0
772 -744 0
773 -774 -775 0
-773 774 0
-773 775 0
774 -763 765 0
774 763 -765 0
-774 763 765 0
-774 -763 -765 0
-775 776 780 0
-775 778 780 0
775 -780 0
775 -776 -778 0
776 -511 606 -777 0
776 511 527 -777 0
-776 777 0
-776 -511 -606 0
-776 511 -527 0
777 506 -608 0
777 -506 -524 0
-777 -506 524 0
-777 506 608 0
778 -430 715 779 0
778 430 -687 779 0
-778 -779 0
-778 -430 -715 0
-778 430 687 0
-779 425 717 0
-779 -425 684 0
779 -425 -684 0
779 425 -717 0
780 -781 -783 0
-780 781 0
-780 783 0
781 515 -602 -782 0
781 444 602 -782 0
-781 782 0
-781 -515 -602 0
-781 -444 602 0
782 -441 -598 0
782 -517 598 0
-782 517 598 0
-782 441 -598 0
-783 -776 -778 0
-783 776 778 0
783 776 -778 0
783 -776 778 0
784 750 -759 0
784 -750 759 0
-784 -750 -759 0
-784 750 759 0
785 -786 787 0
-785 786 0
-785 -787 0
-786 732 748 0
-786 -732 -748 0
786 -732 748 0
786 732 -748 0
787 721 -722 0
787 -721 722 0
-787 -721 -722 0
-787 721 722 0
788 724 -725 0
788 -724 725 0
-788 -724 -725 0
-788 724 725 0
-789 790 1075 0
789 -790 0
789 -1075 0
790 -791 -841 0
790 792 -841 0
-790 841 0
-790 791 -792 0
791 786 -787 0
791 -786 787 0
-791 -786 -787 0
-791 786 787 0
-792 793 838 0
792 -793 0
792 -838 0
793 -794 837 0
-793 794 0
-793 -837 0
-794 795 -798 0
-794 795 799 0
794 -795 0
794 798 -799 0
795 796 -797 0
-795 -796 0
-795 797 0
796 193 638 -742 0
796 193 -638 742 0
796 -193 -275 -638 -742 0
796 275 638 -742 0
796 275 -638 742 0
796 -193 -275 638 742 0
-796 193 638 742 0
-796 193 -638 -742 0
-796 -193 -275 638 -742 0
-796 275 -638 -742 0
-796 275 638 742 0
-796 -193 -275 -638 742 0
-797 756 758 0
-797 -756 -758 0
797 -756 758 0
797 756 -758 0
798 -796 797 0
798 796 -797 0
-798 796 797 0
-798 -796 -797 0
-799 800 826 0
799 -800 0
799 -826 0
800 -801 -803 0
-800 801 0
-800 803 0
801 435 -679 -802 0
801 362 679 -802 0
-801 802 0
-801 -435 -679 0
-801 -362 679 0
802 193 -437 0
802 -193 -358 0
-802 -193 358 0
-802 193 437 0
-803 804 822 0
803 -804 0
803 -822 0
804 -805 806 0
-804 805 0
-804 -806 0
805 -200 -275 0
-805 200 0
-805 275 0
-806 638 807 0
-806 351 638 0
806 -638 0
806 -351 -807 0
807 149 397 -808 0
-807 808 0
-807 -397 0
-807 -149 0
808 186 265 -809 0
-808 809 0
-808 -265 0
-808 -186 0
809 63 128 147 -810 0
-809 810 0
-809 -147 0
-809 -63 0
-809 -128 0
810 296 811 814 -818 0
-810 818 0
-810 -296 0
-810 -814 0
-810 -811 0
-811 249 369 371 812 0
811 -812 0
811 -371 0
811 -249 0
811 -369 0
-812 67 150 215 813 0
812 -813 0
812 -215 0
812 -67 0
812 -150 0
-813 121 163 504 0
813 -504 0
813 -163 0
813 -121 0
-814 175 268 295 815 0
814 -815 0
814 -295 0
814 -175 0
814 -268 0
-815 153 241 417 816 0
815 -153 0
815 -816 0
815 -417 0
815 -241 0
-816 299 386 581 817 0
816 -817 0
816 -299 0
816 -581 0
816 -386 0
-817 161 225 252 0
817 -161 0
817 -252 0
817 -225 0
818 272 -819 0
-818 -272 0
-818 819 0
819 108 156 243 -820 0
-819 820 0
-819 -243 0
-819 -108 0
-819 -156 0
820 118 259 344 -821 0
-820 821 0
-820 -344 0
-820 -118 0
-820 -259 0
821 -119 264 0
821 -21 68 264 0
-821 -264 0
-821 -68 119 0
-821 21 119 0
822 -823 825 0
-822 823 0
-822 -825 0
823 -352 770 -824 0
823 352 746 -824 0
-823 824 0
-823 -352 -770 0
-823 352 -746 0
824 430 -772 0
824 -430 -743 0
-824 -430 743 0
-824 430 772 0
-825 805 806 0
-825 -805 -806 0
825 -805 806 0
825 805 -806 0
826 -827 -828 0
-826 827 0
-826 828 0
827 -801 803 0
827 801 -803 0
-827 801 803 0
-827 -801 -803 0
-828 829 833 0
-828 831 833 0
828 -833 0
828 -829 -831 0
829 -506 606 -830 0
829 506 527 -830 0
-829 830 0
-829 -506 -606 0
-829 506 -527 0
830 602 -608 0
830 -524 -602 0
-830 602 608 0
-830 524 -602 0
831 -425 715 832 0
831 425 -687 832 0
-831 -832 0
-831 -425 -715 0
-831 425 687 0
-832 511 717 0
-832 -511 684 0
832 -511 -684 0
832 511 -717 0
833 -834 -836 0
-833 834 0
-833 836 0
834 515 -598 -835 0
834 444 598 -835 0
-834 835 0
-834 -515 -598 0
-834 -444 598 0
835 -441 -679 0
835 -517 679 0
-835 517 679 0
-835 441 -679 0
-836 -829 -831 0
-836 829 831 0
836 829 -831 0
836 -829 831 0
-837 738 747 0
-837 -738 -747 0
837 -738 747 0
837 738 -747 0
838 839 -840 0
-838 -839 0
-838 840 0
-839 794 837 0
-839 -794 -837 0
839 -794 837 0
839 794 -837 0
840 761 -784 0
840 -761 784 0
-840 -761 -784 0
-840 761 784 0
-841 842 843 0
841 -842 0
841 -843 0
842 -791 792 0
842 791 -792 0
-842 791 792 0
-842 -791 -792 0
843 844 -875 0
-843 -844 0
-843 875 0
844 -845 874 0
-844 845 0
-844 -874 0
-845 846 871 0
845 -846 0
845 -871 0
846 -847 -870 0
-846 847 0
-846 870 0
-847 848 867 0
-847 -866 867 0
847 -867 0
847 -848 866 0
-848 849 855 0
848 -849 0
848 -855 0
849 -850 -853 0
-849 850 0
-849 853 0
850 851 -852 0
-850 -851 0
-850 852 0
-851 351 638 807 0
-851 352 638 -807 0
-851 -351 -638 807 0
851 351 -638 0
851 -638 -807 0
851 -352 -807 0
851 -351 638 807 0
852 200 -361 0
852 -361 435 0
-852 361 0
-852 -200 -435 0
853 -193 435 -854 0
853 193 362 -854 0
-853 854 0
-853 -193 -435 0
-853 193 -362 0
854 198 -437 0
854 -198 -358 0
-854 -198 358 0
-854 198 437 0
855 -856 -865 0
-855 856 0
-855 865 0
-856 857 861 0
-856 859 861 0
856 -861 0
856 -857 -859 0
857 -602 606 -858 0
857 527 602 -858 0
-857 858 0
-857 -602 -606 0
-857 -527 602 0
858 598 -608 0
858 -524 -598 0
-858 598 608 0
-858 524 -598 0
859 515 -679 -860 0
859 444 679 -860 0
-859 860 0
-859 -515 -679 0
-859 -444 679 0
860 193 -517 0
860 -193 -441 0
-860 -193 441 0
-860 193 517 0
861 -862 -864 0
-861 862 0
-861 864 0
862 -511 715 863 0
862 511 -687 863 0
-862 -863 0
-862 -511 -715 0
-862 511 687 0
-863 506 717 0
-863 -506 684 0
863 -506 -684 0
863 506 -717 0
-864 -857 -859 0
-864 857 859 0
864 857 -859 0
864 -857 859 0
865 850 -853 0
865 -850 853 0
-865 -850 -853 0
-865 850 853 0
866 -638 767 769 0
866 -638 -767 -769 0
866 638 -767 769 0
866 638 767 -769 0
-866 -638 767 -769 0
-866 -638 -767 769 0
-866 638 -767 -769 0
-866 638 767 769 0
867 868 -869 0
-867 -868 0
-867 869 0
868 848 -866 0
868 -848 866 0
-868 -848 -866 0
-868 848 866 0
-869 781 783 0
-869 -781 -783 0
869 -781 783 0
869 781 -783 0
870 -774 775 0
870 774 -775 0
-870 774 775 0
-870 -774 -775 0
871 872 -873 0
-871 -872 0
-871 873 0
872 -798 799 0
872 798 -799 0
-872 798 799 0
-872 -798 -799 0
873 847 -870 0
873 -847 870 0
-873 -847 -870 0
-873 847 870 0
-874 -839 -840 0
-874 839 840 0
874 839 -840 0
874 -839 840 0
-875 876 1074 0
875 -876 0
875 -1074 0
876 877 -900 0
-876 -877 0
-876 900 0
877 -878 899 0
-877 878 0
-877 -899 0
-878 879 896 0
878 -879 0
878 -896 0
879 -880 -895 0
-879 880 0
-879 895 0
-880 881 892 0
880 -881 0
880 -892 0
881 -882 891 0
-881 882 0
-881 -891 0
-882 883 888 0
882 -883 0
882 -888 0
883 -884 -886 0
-883 884 0
-883 886 0
884 -430 770 -885 0
884 430 746 -885 0
-884 885 0
-884 -430 -770 0
-884 430 -746 0
885 425 -772 0
885 -425 -743 0
-885 -425 743 0
-885 425 772 0
886 -198 435 -887 0
886 198 362 -887 0
-886 887 0
-886 -198 -435 0
-886 198 -362 0
887 200 -437 0
887 -200 -358 0
-887 -200 358 0
-887 200 437 0
888 889 -890 0
-888 -889 0
-888 890 0
-889 -851 -852 0
-889 851 852 0
889 851 -852 0
889 -851 852 0
890 884 -886 0
890 -884 886 0
-890 -884 -886 0
-890 884 886 0
-891 823 825 0
-891 -823 -825 0
891 -823 825 0
891 823 -825 0
892 893 -894 0
-892 -893 0
-892 894 0
-893 882 891 0
-893 -882 -891 0
893 -882 891 0
893 882 -891 0
-894 834 836 0
-894 -834 -836 0
894 -834 836 0
894 834 -836 0
895 -827 828 0
895 827 -828 0
-895 827 828 0
-895 -827 -828 0
896 -897 898 0
-896 897 0
-896 -898 0
897 880 -895 0
897 -880 895 0
-897 -880 -895 0
-897 880 895 0
-898 868 869 0
-898 -868 -869 0
898 -868 869 0
898 868 -869 0
-899 -872 -873 0
-899 872 873 0
899 872 -873 0
899 -872 873 0
-900 901 1073 0
900 -901 0
900 -1073 0
901 902 -931 0
-901 -902 0
-901 931 0
902 -903 930 0
-902 903 0
-902 -930 0
-903 904 927 0
903 -904 0
903 -927 0
904 -905 -926 0
-904 905 0
-904 926 0
-905 906 923 0
905 -906 0
905 -923 0
906 -907 -915 0
-906 907 0
-906 915 0
-907 908 913 0
-907 911 913 0
-907 908 911 0
907 -908 -911 0
907 -911 -913 0
907 -908 -913 0
908 909 -910 0
-908 -909 0
-908 910 0
-909 425 638 -807 0
-909 -430 -638 807 0
-909 430 638 807 0
909 430 -638 0
909 -638 -807 0
909 -425 -807 0
909 -430 638 807 0
910 200 -367 0
910 -367 515 0
-910 367 0
-910 -200 -515 0
911 -506 715 912 0
911 506 -687 912 0
-911 -912 0
-911 -506 -715 0
-911 506 687 0
-912 602 717 0
-912 -602 684 0
912 -602 -684 0
912 602 -717 0
913 -598 606 -914 0
913 527 598 -914 0
-913 914 0
-913 -598 -606 0
-913 -527 598 0
914 -524 -679 0
914 -608 679 0
-914 608 679 0
-914 524 -679 0
-915 -916 919 0
-915 917 919 0
915 -919 0
915 916 -917 0
-916 352 638 807 0
-916 430 638 -807 0
-916 -352 -638 807 0
916 352 -638 0
916 -638 -807 0
916 -430 -807 0
916 -352 638 807 0
917 -425 770 -918 0
917 425 746 -918 0
-917 918 0
-917 -425 -770 0
-917 425 -746 0
918 511 -772 0
918 -511 -743 0
-918 -511 743 0
-918 511 772 0
919 -920 922 0
-919 920 0
-919 -922 0
920 -193 515 -921 0
920 193 444 -921 0
-920 921 0
-920 -193 -515 0
-920 193 -444 0
921 198 -517 0
921 -198 -441 0
-921 -198 441 0
-921 198 517 0
922 916 -917 0
922 -916 917 0
-922 -916 -917 0
-922 916 917 0
923 -924 -925 0
-923 924 0
-923 925 0
-924 907 915 0
-924 -907 -915 0
924 -907 915 0
924 907 -915 0
-925 862 864 0
-925 -862 -864 0
925 -862 864 0
925 862 -864 0
926 856 -865 0
926 -856 865 0
-926 -856 -865 0
-926 856 865 0
927 928 -929 0
-927 -928 0
-927 929 0
928 -893 894 0
928 893 -894 0
-928 893 894 0
-928 -893 -894 0
929 905 -926 0
929 -905 926 0
-929 -905 -926 0
-929 905 926 0
-930 897 898 0
-930 -897 -898 0
930 -897 898 0
930 897 -898 0
-931 932 1072 0
931 -932 0
931 -1072 0
932 933 -958 0
-932 -933 0
-932 958 0
933 -934 957 0
-933 934 0
-933 -957 0
-934 935 954 0
-934 -952 954 0
934 -954 0
934 -935 952 0
-935 936 947 0
935 -936 0
935 -947 0
936 852 -937 -938 0
-936 -852 0
-936 938 0
-936 937 0
-937 361 437 0
-937 200 361 0
-937 361 -435 0
937 -361 0
937 -200 435 -437 0
-938 939 943 0
-938 941 943 0
938 -943 0
938 -939 -941 0
939 -511 770 -940 0
939 511 746 -940 0
-939 940 0
-939 -511 -770 0
-939 511 -746 0
940 506 -772 0
940 -506 -743 0
-940 -506 743 0
-940 506 772 0
941 606 -679 -942 0
941 527 679 -942 0
-941 942 0
-941 -606 -679 0
-941 -527 679 0
942 193 -608 0
942 -193 -524 0
-942 -193 524 0
-942 193 608 0
943 -944 -946 0
-943 944 0
-943 946 0
944 -602 715 945 0
944 602 -687 945 0
-944 -945 0
-944 -602 -715 0
-944 602 687 0
-945 598 717 0
-945 -598 684 0
945 -598 -684 0
945 598 -717 0
-946 -939 -941 0
-946 939 941 0
946 939 -941 0
946 -939 941 0
947 -948 -950 0
-947 948 0
-947 950 0
-948 -361 949 -938 0
-948 -361 -949 938 0
-948 361 -949 -938 0
-948 361 949 938 0
948 -361 949 938 0
948 -361 -949 -938 0
948 361 -949 938 0
948 361 949 -938 0
949 200 -361 -437 0
949 -200 435 -437 0
-949 437 0
-949 200 361 0
-949 -200 -435 0
950 -908 951 0
950 908 -951 0
-950 908 951 0
-950 -908 -951 0
-951 -911 -913 0
-951 911 913 0
951 911 -913 0
951 -911 913 0
952 -851 852 953 0
952 851 -852 953 0
952 -851 -852 883 -953 0
952 851 -852 -883 0
952 -851 852 -883 0
952 851 852 883 -953 0
-952 -851 -852 953 0
-952 851 852 -883 0
-952 851 -852 883 -953 0
-952 -851 -852 -883 0
-952 851 852 953 0
-952 -851 852 883 -953 0
-953 884 886 0
953 -884 0
953 -886 0
954 955 -956 0
-954 -955 0
-954 956 0
955 935 -952 0
955 -935 952 0
-955 -935 -952 0
-955 935 952 0
-956 924 925 0
-956 -924 -925 0
956 -924 925 0
956 924 -925 0
-957 -928 -929 0
-957 928 929 0
957 928 -929 0
957 -928 929 0
-958 959 1071 0
958 -959 0
958 -1071 0
959 960 -980 0
959 -955 956 -980 0
959 -955 956 960 0
959 955 -956 -980 0
959 955 -956 960 0
-959 -960 980 0
-959 955 956 -960 0
-959 -955 -956 980 0
-959 955 956 980 0
-959 -955 -956 -960 0
-960 961 977 0
960 -961 0
960 -977 0
961 -962 976 0
-961 962 0
-961 -976 0
-962 963 966 0
-962 -965 966 0
962 -966 0
962 -963 965 0
963 -198 515 -964 0
963 198 444 -964 0
-963 964 0
-963 -198 -515 0
-963 198 -444 0
964 200 -517 0
964 -200 -441 0
-964 -200 441 0
-964 200 517 0
-965 -909 -910 0
-965 909 910 0
965 909 -910 0
965 -909 910 0
966 -967 975 0
-966 967 0
-966 -975 0
-967 -968 971 0
-967 969 971 0
967 -971 0
967 968 -969 0
-968 425 638 807 0
-968 511 638 -807 0
-968 -425 -638 807 0
968 425 -638 0
968 -638 -807 0
968 -511 -807 0
968 -425 638 807 0
969 -506 770 -970 0
969 506 746 -970 0
-969 970 0
-969 -506 -770 0
-969 506 -746 0
970 602 -772 0
970 -602 -743 0
-970 -602 743 0
-970 602 772 0
971 -972 974 0
-971 972 0
-971 -974 0
972 -598 715 973 0
972 598 -687 973 0
-972 -973 0
-972 -598 -715 0
-972 598 687 0
-973 679 717 0
-973 -679 684 0
973 -679 -684 0
973 679 -717 0
974 968 -969 0
974 -968 969 0
-974 -968 -969 0
-974 968 969 0
975 -963 965 0
975 963 -965 0
-975 963 965 0
-975 -963 -965 0
976 920 -922 0
976 -920 922 0
-976 -920 -922 0
-976 920 922 0
977 -978 979 0
-977 978 0
-977 -979 0
-978 -948 -950 0
-978 948 950 0
978 948 -950 0
978 -948 950 0
979 962 -976 0
979 -962 976 0
-979 -962 -976 0
-979 962 976 0
980 -981 1068 0
980 978 -979 1068 0
980 978 -979 -981 0
980 -978 979 1068 0
980 -978 979 -981 0
-980 981 -1068 0
-980 -978 -979 981 0
-980 978 979 -1068 0
-980 -978 -979 -1068 0
-980 978 979 981 0
981 994 -1009 0
981 -982 993 -1009 0
981 -982 993 994 0
981 982 -993 -1009 0
981 982 -993 994 0
-981 -994 1009 0
-981 982 993 -994 0
-981 -982 -993 1009 0
-981 982 993 1009 0
-981 -982 -993 -994 0
982 983 -992 0
982 -983 992 0
-982 -983 -992 0
-982 983 992 0
-983 984 989 0
-983 986 989 0
983 -989 0
983 -984 -986 0
984 -193 606 -985 0
984 193 527 -985 0
-984 985 0
-984 -193 -606 0
-984 193 -527 0
985 198 -608 0
985 -198 -524 0
-985 -198 524 0
-985 198 608 0
986 987 -988 0
-986 -987 0
-986 988 0
-987 506 638 -807 0
-987 -511 -638 807 0
-987 511 638 807 0
987 511 -638 0
987 -638 -807 0
987 -506 -807 0
987 -511 638 807 0
988 200 -461 0
988 -461 606 0
-988 461 0
-988 -200 -606 0
989 -990 -991 0
-989 990 0
-989 991 0
-990 -984 -986 0
-990 984 986 0
990 984 -986 0
990 -984 986 0
991 -200 -442 0
-991 200 0
-991 442 0
992 -944 946 0
992 944 -946 0
-992 944 946 0
-992 -944 -946 0
-993 -967 -975 0
-993 967 975 0
993 967 -975 0
993 -967 975 0
-994 995 1006 0
994 -995 0
994 -1006 0
995 -996 1005 0
-995 996 0
-995 -1005 0
-996 997 1001 0
-996 999 1001 0
996 -1001 0
996 -997 -999 0
997 -602 770 -998 0
997 602 746 -998 0
-997 998 0
-997 -602 -770 0
-997 602 -746 0
998 598 -772 0
998 -598 -743 0
-998 -598 743 0
-998 598 772 0
999 -679 715 1000 0
999 679 -687 1000 0
-999 -1000 0
-999 -679 -715 0
-999 679 687 0
-1000 193 717 0
-1000 -193 684 0
1000 -193 -684 0
1000 193 -717 0
1001 -1002 -1004 0
-1001 1002 0
-1001 1004 0
1002 -198 606 -1003 0
1002 198 527 -1003 0
-1002 1003 0
-1002 -198 -606 0
-1002 198 -527 0
1003 200 -608 0
1003 -200 -524 0
-1003 -200 524 0
-1003 200 608 0
-1004 -997 -999 0
-1004 997 999 0
1004 997 -999 0
1004 -997 999 0
-1005 -972 -974 0
-1005 972 974 0
1005 972 -974 0
1005 -972 974 0
1006 -1007 1008 0
-1006 1007 0
-1006 -1008 0
1007 990 -991 0
1007 -990 991 0
-1007 -990 -991 0
-1007 990 991 0
1008 -996 1005 0
1008 996 -1005 0
-1008 996 1005 0
-1008 -996 -1005 0
1009 -1010 1065 0
1009 1007 -1008 -1010 0
1009 1007 -1008 1065 0
1009 -1007 1008 -1010 0
1009 -1007 1008 1065 0
-1009 1010 -1065 0
-1009 1007 1008 -1065 0
-1009 -1007 -1008 -1065 0
-1009 -1007 -1008 1010 0
-1009 1007 1008 1010 0
1010 1011 -1029 0
1010 1011 -1060 1061 0
1010 1011 1060 -1061 0
1010 -1029 -1060 1061 0
1010 -1029 1060 -1061 0
-1010 -1011 1029 0
-1010 -1011 -1060 -1061 0
-1010 1029 -1060 -1061 0
-1010 -1011 1060 1061 0
-1010 1029 1060 1061 0
-1011 1012 1017 0
1011 -1012 0
1011 -1017 0
1012 988 -1013 -1014 0
-1012 1014 0
-1012 1013 0
-1012 -988 0
-1013 461 608 0
-1013 200 461 0
-1013 461 -606 0
1013 -461 0
1013 -200 606 -608 0
1014 1015 -1016 0
-1014 -1015 0
-1014 1016 0
-1015 598 638 -807 0
-1015 -602 -638 807 0
-1015 602 638 807 0
1015 602 -638 0
1015 -638 -807 0
1015 -598 -807 0
1015 -602 638 807 0
1016 200 -547 0
1016 -547 715 0
-1016 547 0
-1016 -200 -715 0
1017 -1018 -1027 0
-1017 1018 0
-1017 1027 0
-1018 1019 1024 0
1018 -1019 0
1018 -1024 0
1019 -1020 -1022 0
-1019 1020 0
-1019 1022 0
1020 -679 770 -1021 0
1020 679 746 -1021 0
-1020 1021 0
-1020 -679 -770 0
-1020 679 -746 0
1021 193 -772 0
1021 -193 -743 0
-1021 -193 743 0
-1021 193 772 0
1022 -198 715 1023 0
1022 198 -687 1023 0
-1022 -1023 0
-1022 -198 -715 0
-1022 198 687 0
-1023 200 717 0
-1023 -200 684 0
1023 -200 -684 0
1023 200 -717 0
1024 1025 -1026 0
-1024 -1025 0
-1024 1026 0
-1025 -1015 -1016 0
-1025 1015 1016 0
1025 1015 -1016 0
1025 -1015 1016 0
1026 1020 -1022 0
1026 -1020 1022 0
-1026 -1020 -1022 0
-1026 1020 1022 0
-1027 -461 1028 -1014 0
-1027 -461 -1028 1014 0
-1027 461 -1028 -1014 0
-1027 461 1028 1014 0
1027 -461 1028 1014 0
1027 -461 -1028 -1014 0
1027 461 -1028 1014 0
1027 461 1028 -1014 0
1028 200 -461 -608 0
1028 -200 606 -608 0
-1028 608 0
-1028 200 461 0
-1028 -200 -606 0
1029 -1036 1059 0
1029 1030 -1032 -1036 0
1029 1030 -1032 1059 0
1029 -1030 1032 -1036 0
1029 -1030 1032 1059 0
-1029 1036 -1059 0
-1029 1030 1032 -1059 0
-1029 -1030 -1032 -1059 0
-1029 -1030 -1032 1036 0
-1029 1030 1032 1036 0
1030 -193 715 1031 0
1030 193 -687 1031 0
-1030 -1031 0
-1030 -193 -715 0
-1030 193 687 0
-1031 198 717 0
-1031 -198 684 0
1031 -198 -684 0
1031 198 -717 0
1032 -1033 1035 0
1032 1033 -1035 0
-1032 1033 1035 0
-1032 -1033 -1035 0
1033 -598 770 -1034 0
1033 598 746 -1034 0
-1033 1034 0
-1033 -598 -770 0
-1033 598 -746 0
1034 679 -772 0
1034 -679 -743 0
-1034 -679 743 0
-1034 679 772 0
-1035 506 638 807 0
-1035 602 638 -807 0
-1035 -506 -638 807 0
1035 506 -638 0
1035 -638 -807 0
1035 -602 -807 0
1035 -506 638 807 0
1036 -1037 -1056 0
1036 -1056 1058 0
1036 -1037 1058 0
-1036 1037 -1058 0
-1036 1056 -1058 0
-1036 1037 1056 0
1037 -1045 1055 0
1037 1038 -1042 -1045 0
1037 -1038 1042 -1045 0
1037 -1038 1042 1055 0
1037 1038 -1042 1055 0
-1037 1045 -1055 0
-1037 -1038 -1042 -1055 0
-1037 -1038 -1042 1045 0
-1037 1038 1042 -1055 0
-1037 1038 1042 1045 0
1038 1039 -1040 0
1038 -1039 1040 0
-1038 -1039 -1040 0
-1038 1039 1040 0
-1039 598 638 807 0
-1039 -598 -638 807 0
-1039 638 679 -807 0
1039 -679 -807 0
1039 -638 -807 0
1039 598 -638 0
1039 -598 638 807 0
1040 -193 770 -1041 0
1040 193 746 -1041 0
-1040 1041 0
-1040 -193 -770 0
-1040 193 -746 0
1041 198 -772 0
1041 -198 -743 0
-1041 -198 743 0
-1041 198 772 0
1042 1043 -1044 0
-1042 -1043 0
-1042 1044 0
-1043 193 638 -807 0
-1043 638 679 807 0
-1043 -638 -679 807 0
1043 -638 679 0
1043 -638 -807 0
1043 -193 -807 0
1043 638 -679 807 0
1044 200 -658 0
1044 -658 770 0
-1044 658 0
-1044 -200 -770 0
1045 -1046 1052 0
1045 -1051 1052 0
-1045 -1052 0
-1045 1046 1051 0
1046 -1048 -1049 0
1046 658 1047 -1049 0
1046 -658 -1047 -1049 0
1046 -658 -1047 -1048 0
1046 658 1047 -1048 0
-1046 1048 1049 0
-1046 658 -1047 1048 0
-1046 658 -1047 1049 0
-1046 -658 1047 1048 0
-1046 -658 1047 1049 0
1047 200 -658 -772 0
1047 -200 770 -772 0
-1047 772 0
-1047 200 658 0
-1047 -200 -770 0
-1048 193 638 807 0
-1048 198 638 -807 0
-1048 -193 -638 807 0
1048 193 -638 0
1048 -638 -807 0
1048 -198 -807 0
1048 -193 638 807 0
-1049 200 638 1050 0
1049 -200 0
1049 -1050 0
1049 -638 0
1050 -198 807 0
-1050 198 0
-1050 -807 0
-1051 -1043 -1044 0
-1051 1043 1044 0
1051 1043 -1044 0
1051 -1043 1044 0
1052 -198 770 -1053 0
1052 198 746 -1053 0
-1052 1053 0
-1052 -198 -770 0
-1052 198 -746 0
1053 -200 -743 1054 0
1053 200 -772 1054 0
-1053 -1054 0
-1053 -200 743 0
-1053 200 772 0
1054 -1046 -1051 0
-1054 1046 0
-1054 1051 0
1055 -200 685 0
-1055 200 0
-1055 -685 0
1056 1057 -1024 0
1056 -1025 -1018 0
1056 -1025 1057 0
1056 -1024 -1018 0
-1056 1025 1024 0
-1056 -1057 1018 0
-1057 1020 1022 0
1057 -1020 0
1057 -1022 0
-1058 -1039 1042 0
-1058 1040 1042 0
-1058 -1039 1040 0
1058 1039 -1040 0
1058 -1040 -1042 0
1058 1039 -1042 0
-1059 1018 1027 0
-1059 -1018 -1027 0
1059 -1018 1027 0
1059 1018 -1027 0
-1060 1002 1004 0
-1060 -1002 -1004 0
1060 -1002 1004 0
1060 1002 -1004 0
-1061 1062 1063 0
-1061 -1062 -1063 0
1061 -1062 1063 0
1061 1062 -1063 0
-1062 -987 -988 0
-1062 987 988 0
1062 987 -988 0
1062 -987 988 0
-1063 1033 1064 0
-1063 -1035 1064 0
1063 -1064 0
1063 -1033 1035 0
1064 -1030 1032 0
-1064 1030 0
-1064 -1032 0
-1065 1066 1067 0
1065 -1066 0
1065 -1067 0
1066 1062 -1063 0
-1066 -1062 0
-1066 1063 0
1067 -1060 1061 0
-1067 1060 0
-1067 -1061 0
-1068 1069 1070 0
1068 -1069 0
1068 -1070 0
1069 -983 -992 0
-1069 983 0
-1069 992 0
1070 -982 993 0
-1070 982 0
-1070 -993 0
-1071 934 957 0
-1071 -934 -957 0
1071 -934 957 0
1071 934 -957 0
-1072 903 930 0
-1072 -903 -930 0
1072 -903 930 0
1072 903 -930 0
-1073 878 899 0
-1073 -878 -899 0
1073 -878 899 0
1073 878 -899 0
-1074 845 874 0
-1074 -845 -874 0
1074 -845 874 0
1074 845 -874 0
-1075 -730 -788 0
-1075 730 788 0
1075 730 -788 0
1075 -730 788 0
-1076 625 699 0
-1076 -625 -699 0
1076 -625 699 0
1076 625 -699 0
-1077 457 536 0
-1077 -457 -536 0
1077 -457 536 0
1077 457 -536 0
1078 206 -273 1079 0
1078 -206 273 1079 0
-1078 -1079 0
-1078 206 273 0
-1078 -206 -273 0
1079 1080 -1102 0
-1079 -1080 0
-1079 1102 0
1080 -1081 1101 0
-1080 1081 0
-1080 -1101 0
-1081 155 268 347 1082 0
1081 -1082 0
1081 -347 0
1081 -155 0
1081 -268 0
-1082 127 172 234 1083 0
1082 -1083 0
1082 -234 0
1082 -127 0
1082 -172 0
-1083 1084 1085 1090 1096 0
1083 -1096 0
1083 -1084 0
1083 -1090 0
1083 -1085 0
-1084 84 160 319 0
1084 -84 0
1084 -319 0
1084 -160 0
-1085 135 392 471 1086 0
1085 -1086 0
1085 -471 0
1085 -135 0
1085 -392 0
-1086 113 144 159 1087 0
1086 -1087 0
1086 -159 0
1086 -113 0
1086 -144 0
-1087 170 482 1088 0
1087 -1088 0
1087 -482 0
1087 -170 0
-1088 231 243 261 1089 0
1088 -1089 0
1088 -261 0
1088 -231 0
1088 -243 0
-1089 182 235 0
1089 -182 0
1089 -235 0
-1090 108 477 595 1091 0
1090 -108 0
1090 -1091 0
1090 -595 0
1090 -477 0
-1091 643 1092 1094 0
1091 -643 0
1091 -1092 0
1091 -1094 0
-1092 209 259 293 1093 0
1092 -1093 0
1092 -293 0
1092 -209 0
1092 -259 0
-1093 147 153 0
1093 -147 0
1093 -153 0
-1094 331 374 1095 0
1094 -331 0
1094 -374 0
1094 -1095 0
-1095 95 265 581 0
1095 -581 0
1095 -265 0
1095 -95 0
-1096 283 483 1097 1100 0
1096 -1100 0
1096 -283 0
1096 -1097 0
1096 -483 0
-1097 101 371 1098 0
1097 -1098 0
1097 -371 0
1097 -101 0
-1098 212 260 318 1099 0
1098 -1099 0
1098 -318 0
1098 -212 0
1098 -260 0
-1099 92 494 0
1099 -92 0
1099 -494 0
-1100 103 500 0
1100 -103 0
1100 -500 0
1101 454 -455 0
1101 -454 455 0
-1101 -454 -455 0
-1101 454 455 0
-1102 1103 1247 0
1102 -1103 0
1102 -1247 0
1103 1104 -1111 0
-1103 -1104 0
-1103 1111 0
1104 -1105 1110 0
-1104 1105 0
-1104 -1110 0
-1105 115 178 261 1106 0
1105 -1106 0
1105 -261 0
1105 -115 0
1105 -178 0
-1106 209 318 640 1107 0
1106 -209 0
1106 -1107 0
1106 -640 0
1106 -318 0
-1107 399 470 574 1108 0
1107 -1108 0
1107 -399 0
1107 -574 0
1107 -470 0
-1108 226 330 415 1109 0
1108 -1109 0
1108 -226 0
1108 -415 0
1108 -330 0
-1109 94 495 0
1109 -94 0
1109 -495 0
1110 -538 1077 0
1110 538 -1077 0
-1110 538 1077 0
-1110 -538 -1077 0
-1111 -1105 -1110 1112 0
-1111 1105 1110 1112 0
1111 -1112 0
1111 -1105 1110 0
1111 1105 -1110 0
1112 1113 -1129 0
-1112 -1113 0
-1112 1129 0
1113 -1114 1128 0
-1113 1114 0
-1113 -1128 0
-1114 227 239 375 1115 0
1114 -1115 0
1114 -375 0
1114 -227 0
1114 -239 0
-1115 417 1116 1120 1124 0
1115 -1124 0
1115 -417 0
1115 -1120 0
1115 -1116 0
-1116 144 168 276 1117 0
1116 -1117 0
1116 -276 0
1116 -144 0
1116 -168 0
-1117 163 255 1084 1118 0
1117 -163 0
1117 -1118 0
1117 -1084 0
1117 -255 0
-1118 174 214 415 1119 0
1118 -1119 0
1118 -174 0
1118 -415 0
1118 -214 0
-1119 233 1095 0
1119 -233 0
1119 -1095 0
-1120 67 295 471 1121 0
1120 -1121 0
1120 -471 0
1120 -67 0
1120 -295 0
-1121 171 384 412 1122 0
1121 -171 0
1121 -1122 0
1121 -412 0
1121 -384 0
-1122 54 101 179 1123 0
1122 -1123 0
1122 -179 0
1122 -54 0
1122 -101 0
-1123 182 310 555 0
1123 -555 0
1123 -310 0
1123 -182 0
-1124 107 381 1125 1126 0
1124 -1126 0
1124 -107 0
1124 -1125 0
1124 -381 0
-1125 128 325 349 0
1125 -128 0
1125 -349 0
1125 -325 0
-1126 333 1127 0
1126 -333 0
1126 -1127 0
-1127 217 222 304 0
1127 -217 0
1127 -304 0
1127 -222 0
1128 622 -623 0
1128 -622 623 0
-1128 -622 -623 0
-1128 622 623 0
-1129 1130 1246 0
1129 -1130 0
1129 -1246 0
1130 -1131 1143 0
-1130 1131 0
-1130 -1143 0
-1131 1132 1142 0
1131 -1132 0
1131 -1142 0
1132 113 222 264 -1133 0
-1132 1133 0
-1132 -264 0
-1132 -113 0
-1132 -222 0
1133 125 244 594 -1134 0
-1133 -125 0
-1133 1134 0
-1133 -594 0
-1133 -244 0
1134 -228 1097 1135 1138 0
-1134 -1138 0
-1134 228 0
-1134 -1135 0
-1134 -1097 0
-1135 238 268 397 1136 0
1135 -1136 0
1135 -397 0
1135 -238 0
1135 -268 0
-1136 77 132 263 1137 0
1136 -1137 0
1136 -263 0
1136 -77 0
1136 -132 0
-1137 91 282 311 1125 0
1137 -91 0
1137 -1125 0
1137 -311 0
1137 -282 0
-1138 817 1139 1140 0
1138 -817 0
1138 -1139 0
1138 -1140 0
-1139 178 310 369 0
1139 -178 0
1139 -369 0
1139 -310 0
-1140 155 208 1141 0
1140 -1141 0
1140 -208 0
1140 -155 0
-1141 105 1116 0
1141 -105 0
1141 -1116 0
1142 -701 1076 0
1142 701 -1076 0
-1142 701 1076 0
-1142 -701 -1076 0
1143 1144 -1145 0
-1143 -1144 0
-1143 1145 0
1144 -1132 -1142 0
-1144 1132 0
-1144 1142 0
1145 -1131 1146 0
-1145 1131 0
-1145 -1146 0
1146 1147 -1162 0
-1146 -1147 0
-1146 1162 0
1147 -1148 1161 0
-1147 1148 0
-1147 -1161 0
-1148 304 312 1149 0
1148 -1149 0
1148 -312 0
1148 -304 0
-1149 139 160 210 1150 0
1149 -1150 0
1149 -210 0
1149 -139 0
1149 -160 0
-1150 234 291 1151 1154 0
1150 -234 0
1150 -1154 0
1150 -1151 0
1150 -291 0
-1151 115 156 260 1152 0
1151 -1152 0
1151 -260 0
1151 -115 0
1151 -156 0
-1152 67 118 175 1153 0
1152 -1153 0
1152 -175 0
1152 -67 0
1152 -118 0
-1153 89 171 0
1153 -89 0
1153 -171 0
-1154 1155 1158 1159 0
1154 -1155 0
1154 -1158 0
1154 -1159 0
-1155 249 310 318 1156 0
1155 -1156 0
1155 -318 0
1155 -249 0
1155 -310 0
-1156 241 269 417 1157 0
1156 -241 0
1156 -1157 0
1156 -417 0
1156 -269 0
-1157 90 567 656 0
1157 -90 0
1157 -567 0
1157 -656 0
-1158 20 231 550 0
1158 -550 0
1158 -231 0
1158 -20 0
-1159 100 149 321 1160 0
1159 -1160 0
1159 -321 0
1159 -100 0
1159 -149 0
-1160 157 172 0
1160 -157 0
1160 -172 0
1161 727 -728 0
1161 -727 728 0
-1161 -727 -728 0
-1161 727 728 0
-1162 1163 1245 0
1162 -1163 0
1162 -1245 0
1163 1164 -1175 0
-1163 -1164 0
-1163 1175 0
1164 -1165 1174 0
-1164 1165 0
-1164 -1174 0
-1165 105 157 339 1166 0
1165 -1166 0
1165 -339 0
1165 -105 0
1165 -157 0
-1166 562 589 1167 1168 0
1166 -1168 0
1166 -562 0
1166 -1167 0
1166 -589 0
-1167 151 247 348 471 0
1167 -151 0
1167 -471 0
1167 -348 0
1167 -247 0
-1168 221 242 1169 1171 0
1168 -1171 0
1168 -221 0
1168 -1169 0
1168 -242 0
-1169 60 231 321 1170 0
1169 -1170 0
1169 -321 0
1169 -60 0
1169 -231 0
-1170 116 216 481 564 0
1170 -116 0
1170 -564 0
1170 -481 0
1170 -216 0
-1171 299 649 1172 1173 0
1171 -1173 0
1171 -299 0
1171 -1172 0
1171 -649 0
-1172 89 100 0
1172 -89 0
1172 -100 0
-1173 20 179 250 0
1173 -20 0
1173 -250 0
1173 -179 0
1174 -790 1075 0
1174 790 -1075 0
-1174 790 1075 0
-1174 -790 -1075 0
-1175 -1165 -1174 1176 0
-1175 1165 1174 1176 0
1175 -1176 0
1175 -1165 1174 0
1175 1165 -1174 0
1176 1177 -1190 0
-1176 -1177 0
-1176 1190 0
1177 -1178 1189 0
-1177 1178 0
-1177 -1189 0
-1178 113 249 326 1179 0
1178 -1179 0
1178 -326 0
1178 -113 0
1178 -249 0
-1179 141 163 276 1180 0
1179 -1180 0
1179 -276 0
1179 -141 0
1179 -163 0
-1180 477 1181 1183 1188 0
1180 -1188 0
1180 -477 0
1180 -1183 0
1180 -1181 0
-1181 167 176 371 1182 0
1181 -1182 0
1181 -371 0
1181 -167 0
1181 -176 0
-1182 90 220 222 295 0
1182 -295 0
1182 -222 0
1182 -90 0
1182 -220 0
-1183 136 235 344 1184 0
1183 -1184 0
1183 -344 0
1183 -136 0
1183 -235 0
-1184 132 232 250 1185 0
1184 -1185 0
1184 -250 0
1184 -132 0
1184 -232 0
-1185 553 1186 1187 0
1185 -553 0
1185 -1186 0
1185 -1187 0
-1186 183 313 375 0
1186 -183 0
1186 -375 0
1186 -313 0
-1187 139 178 0
1187 -139 0
1187 -178 0
-1188 251 648 0
1188 -251 0
1188 -648 0
1189 842 -843 0
1189 -842 843 0
-1189 -842 -843 0
-1189 842 843 0
-1190 1191 1244 0
1190 -1191 0
1190 -1244 0
1191 1192 -1204 0
-1191 -1192 0
-1191 1204 0
1192 -1193 1203 0
-1192 1193 0
-1192 -1203 0
-1193 208 243 375 1194 0
1193 -1194 0
1193 -375 0
1193 -208 0
1193 -243 0
-1194 175 186 239 1195 0
1194 -1195 0
1194 -239 0
1194 -175 0
1194 -186 0
-1195 160 170 172 1196 0
1195 -1196 0
1195 -172 0
1195 -160 0
1195 -170 0
-1196 99 467 595 1197 0
1196 -1197 0
1196 -99 0
1196 -595 0
1196 -467 0
-1197 391 1198 1201 0
1197 -391 0
1197 -1198 0
1197 -1201 0
-1198 60 166 231 1199 0
1198 -1199 0
1198 -231 0
1198 -60 0
1198 -166 0
-1199 264 290 555 1200 0
1199 -264 0
1199 -1200 0
1199 -555 0
1199 -290 0
-1200 379 1127 0
1200 -379 0
1200 -1127 0
-1201 167 268 1202 0
1201 -1202 0
1201 -268 0
1201 -167 0
-1202 63 210 292 328 0
1202 -63 0
1202 -328 0
1202 -292 0
1202 -210 0
1203 -876 1074 0
1203 876 -1074 0
-1203 876 1074 0
-1203 -876 -1074 0
-1204 1205 1243 0
1204 -1205 0
1204 -1243 0
1205 -1206 1221 0
-1205 1206 0
-1205 -1221 0
-1206 1207 1220 0
1206 -1207 0
1206 -1220 0
1207 179 185 264 -1208 0
-1207 1208 0
-1207 -264 0
-1207 -179 0
-1207 -185 0
1208 79 153 234 -1209 0
-1208 1209 0
-1208 -234 0
-1208 -79 0
-1208 -153 0
1209 219 593 1210 -1217 0
-1209 1217 0
-1209 -219 0
-1209 -1210 0
-1209 -593 0
-1210 166 261 326 1211 0
1210 -1211 0
1210 -326 0
1210 -166 0
1210 -261 0
-1211 263 561 1167 1212 0
1211 -263 0
1211 -1212 0
1211 -1167 0
1211 -561 0
-1212 272 1139 1213 1215 0
1212 -1215 0
1212 -272 0
1212 -1213 0
1212 -1139 0
-1213 54 238 334 1214 0
1213 -1214 0
1213 -334 0
1213 -54 0
1213 -238 0
-1214 371 397 0
1214 -371 0
1214 -397 0
-1215 582 1216 0
1215 -582 0
1215 -1216 0
-1216 208 313 0
1216 -208 0
1216 -313 0
1217 -228 1201 1218 1219 0
-1217 -1219 0
-1217 228 0
-1217 -1218 0
-1217 -1201 0
-1218 257 347 0
1218 -257 0
1218 -347 0
-1219 282 497 0
1219 -282 0
1219 -497 0
1220 -901 1073 0
1220 901 -1073 0
-1220 901 1073 0
-1220 -901 -1073 0
1221 1207 -1220 1222 0
1221 -1207 1220 1222 0
-1221 -1222 0
-1221 1207 1220 0
-1221 -1207 -1220 0
1222 1223 -1236 0
-1222 -1223 0
-1222 1236 0
1223 -1224 1235 0
-1223 1224 0
-1223 -1235 0
-1224 167 260 304 1225 0
1224 -1225 0
1224 -304 0
1224 -167 0
1224 -260 0
-1225 67 84 137 1226 0
1225 -1226 0
1225 -137 0
1225 -67 0
1225 -84 0
-1226 147 241 490 1227 0
1226 -147 0
1226 -1227 0
1226 -490 0
1226 -241 0
-1227 330 1169 1228 1234 0
1227 -1234 0
1227 -330 0
1227 -1228 0
1227 -1169 0
-1228 108 263 369 1229 0
1228 -1229 0
1228 -369 0
1228 -108 0
1228 -263 0
-1229 244 318 1230 1232 0
1229 -244 0
1229 -1232 0
1229 -1230 0
1229 -318 0
-1230 171 249 375 1231 0
1230 -1231 0
1230 -375 0
1230 -171 0
1230 -249 0
-1231 105 657 0
1231 -105 0
1231 -657 0
-1232 80 265 271 1233 0
1232 -1233 0
1232 -271 0
1232 -80 0
1232 -265 0
-1233 125 220 0
1233 -125 0
1233 -220 0
-1234 181 1216 0
1234 -181 0
1234 -1216 0
1235 -932 1072 0
1235 932 -1072 0
-1235 932 1072 0
-1235 -932 -1072 0
-1236 -1224 -1235 1237 0
-1236 1224 1235 1237 0
1236 -1237 0
1236 -1224 1235 0
1236 1224 -1235 0
1237 -1238 1239 0
-1237 1238 0
-1237 -1239 0
-1238 959 1071 0
-1238 -959 -1071 0
1238 -959 1071 0
1238 959 -1071 0
-1239 135 397 1240 0
1239 -1240 0
1239 -397 0
1239 -135 0
-1240 137 261 295 1241 0
1240 -1241 0
1240 -295 0
1240 -137 0
1240 -261 0
-1241 470 1090 1198 1242 0
1241 -1242 0
1241 -470 0
1241 -1198 0
1241 -1090 0
-1242 272 486 557 645 0
1242 -645 0
1242 -272 0
1242 -557 0
1242 -486 0
-1243 -1193 -1203 0
-1243 1193 1203 0
1243 1193 -1203 0
1243 -1193 1203 0
-1244 -1178 -1189 0
-1244 1178 1189 0
1244 1178 -1189 0
1244 -1178 1189 0
1245 1148 -1161 0
1245 -1148 1161 0
-1245 -1148 -1161 0
-1245 1148 1161 0
-1246 -1114 -1128 0
-1246 1114 1128 0
1246 1114 -1128 0
1246 -1114 1128 0
-1247 -1081 -1101 0
-1247 1081 1101 0
1247 1081 -1101 0
1247 -1081 1101 0
-1248 166 369 375 1249 0
1248 -1249 0
1248 -375 0
1248 -166 0
1248 -369 0
-1249 135 212 276 1250 0
1249 -1250 0
1249 -276 0
1249 -135 0
1249 -212 0
-1250 99 421 1251 1253 0
1250 -1253 0
1250 -99 0
1250 -1251 0
1250 -421 0
-1251 121 171 270 1252 0
1251 -1252 0
1251 -270 0
1251 -121 0
1251 -171 0
-1252 132 291 496 0
1252 -496 0
1252 -291 0
1252 -132 0
-1253 333 643 814 1169 0
1253 -1169 0
1253 -333 0
1253 -814 0
1253 -643 0
-1254 1256 -1257 0
-1254 1255 1258 0
-1254 1256 1258 0
-1254 1255 -1257 0
1254 -1255 -1256 0
1254 1257 -1258 0
1255 -193 198 200 202 0
1255 193 -198 -200 -202 0
-1255 -198 202 0
-1255 -193 -202 0
-1255 198 -200 0
-1255 193 200 0
1256 -1103 1247 0
1256 1103 -1247 0
-1256 1103 1247 0
-1256 -1103 -1247 0
1257 206 -273 1102 0
1257 -206 273 -1080 0
1257 -206 -273 1080 -1102 0
1257 206 -273 -1080 0
1257 -206 273 1102 0
1257 206 273 1080 -1102 0
-1257 206 273 1102 0
-1257 -206 -273 1102 0
-1257 206 -273 1080 -1102 0
-1257 -206 -273 -1080 0
-1257 206 273 -1080 0
-1257 -206 273 1080 -1102 0
1258 -198 200 202 0
1258 198 -200 -202 0
-1258 200 -202 0
-1258 198 202 0
-1258 -198 -200 0
1259 -1260 1261 0
-1259 1260 0
-1259 -1261 0
1260 -197 -199 0
-1260 197 0
-1260 199 0
-1261 1262 1308 0
-1261 -1262 -1308 0
1261 -1262 1308 0
1261 1262 -1308 0
-1262 1263 1264 0
1262 -1263 0
1262 -1264 0
1263 -1256 1257 0
-1263 1256 0
-1263 -1257 0
1264 -1265 1307 0
-1264 1265 0
-1264 -1307 0
-1265 1266 1268 0
1265 -1266 0
1265 -1268 0
1266 -1256 -1267 0
-1266 1256 0
-1266 1267 0
-1267 -1105 -1110 1129 0
-1267 1105 1110 -1113 0
-1267 1105 -1110 1113 -1129 0
-1267 -1105 -1110 -1113 0
-1267 1105 1110 1129 0
-1267 -1105 1110 1113 -1129 0
1267 -1105 1110 1129 0
1267 1105 -1110 1129 0
1267 -1105 -1110 1113 -1129 0
1267 1105 -1110 -1113 0
1267 -1105 1110 -1113 0
1267 1105 1110 1113 -1129 0
1268 -1269 -1306 0
-1268 1269 0
-1268 1306 0
-1269 1270 1272 0
1269 -1270 0
1269 -1272 0
1270 -1267 -1271 0
-1270 1267 0
-1270 1271 0
1271 -1130 1246 0
1271 1130 -1246 0
-1271 1130 1246 0
-1271 -1130 -1246 0
1272 -1273 -1305 0
-1272 1273 0
-1272 1305 0
-1273 1274 1276 0
1273 -1274 0
1273 -1276 0
1274 -1271 1275 0
-1274 1271 0
-1274 -1275 0
1275 1132 -1142 1162 0
1275 -1132 1142 -1147 0
1275 -1132 -1142 1147 -1162 0
1275 1132 -1142 -1147 0
1275 -1132 1142 1162 0
1275 1132 1142 1147 -1162 0
-1275 1132 1142 1162 0
-1275 -1132 -1142 1162 0
-1275 1132 -1142 1147 -1162 0
-1275 -1132 -1142 -1147 0
-1275 1132 1142 -1147 0
-1275 -1132 1142 1147 -1162 0
1276 -1277 1304 0
-1276 1277 0
-1276 -1304 0
-1277 1278 1280 0
1277 -1278 0
1277 -1280 0
1278 1275 -1279 0
-1278 -1275 0
-1278 1279 0
-1279 -1163 -1245 0
-1279 1163 1245 0
1279 1163 -1245 0
1279 -1163 1245 0
1280 -1281 1303 0
-1280 1281 0
-1280 -1303 0
-1281 1282 1285 0
1281 -1282 0
1281 -1285 0
1282 -1279 -1283 0
-1282 1279 0
-1282 1283 0
-1283 -1164 1177 -1190 0
-1283 1164 1284 -1177 0
-1283 1164 1284 1190 0
-1283 -1284 1177 -1190 0
1283 -1164 -1177 0
1283 -1284 1190 0
1283 -1284 -1177 0
1283 -1164 1190 0
1283 1164 1284 1177 -1190 0
1284 1165 -1174 0
-1284 -1165 0
-1284 1174 0
1285 -1286 -1302 0
-1285 1286 0
-1285 1302 0
-1286 1287 1289 0
1286 -1287 0
1286 -1289 0
1287 -1283 -1288 0
-1287 1283 0
-1287 1288 0
1288 -1191 1244 0
1288 1191 -1244 0
-1288 1191 1244 0
-1288 -1191 -1244 0
1289 -1290 -1301 0
-1289 1290 0
-1289 1301 0
-1290 1291 1293 0
1290 -1291 0
1290 -1293 0
1291 -1288 -1292 0
-1291 1288 0
-1291 1292 0
1292 -1205 1243 0
1292 1205 -1243 0
-1292 1205 1243 0
-1292 -1205 -1243 0
1293 1288 -1292 -1294 0
1293 -1288 1292 -1294 0
-1293 1294 0
-1293 1288 1292 0
-1293 -1288 -1292 0
-1294 1295 1298 0
1294 -1295 0
1294 -1298 0
1295 -1292 1296 0
-1295 1292 0
-1295 -1296 0
1296 -1297 -1222 0
1296 -1222 1205 0
1296 -1206 1297 1205 0
-1296 -1297 1222 0
-1296 1297 -1205 0
-1296 1206 1222 0
1297 -1207 -1220 0
-1297 1207 0
-1297 1220 0
1298 1292 1296 -1299 0
1298 -1292 -1296 -1299 -1300 0
-1298 1292 -1296 0
-1298 -1292 1296 0
-1298 1299 0
-1298 -1296 1300 0
-1299 -932 -1072 -1224 -1237 0
-1299 932 -1072 1224 -1237 0
-1299 932 -1072 -1224 1237 0
-1299 -932 1072 1224 -1237 0
-1299 -932 -1072 1224 1237 0
-1299 932 1072 -1224 -1237 0
-1299 932 1072 1224 1237 0
-1299 -932 1072 -1224 1237 0
1299 932 -1072 1224 1237 0
1299 -932 -1072 -1224 1237 0
1299 -932 1072 1224 1237 0
1299 932 1072 -1224 1237 0
1299 932 1072 1224 -1237 0
1299 -932 -1072 1224 -1237 0
1299 932 -1072 -1224 -1237 0
1299 -932 1072 -1224 -1237 0
-1300 1238 1239 0
-1300 -1238 -1239 0
1300 -1238 1239 0
1300 1238 -1239 0
1301 1283 -1288 0
1301 -1283 1288 0
-1301 -1283 -1288 0
-1301 1283 1288 0
1302 -1279 1283 0
1302 1279 -1283 0
-1302 1279 1283 0
-1302 -1279 -1283 0
-1303 1275 1279 0
-1303 -1275 -1279 0
1303 -1275 1279 0
1303 1275 -1279 0
-1304 -1271 -1275 0
-1304 1271 1275 0
1304 1271 -1275 0
1304 -1271 1275 0
1305 1267 -1271 0
1305 -1267 1271 0
-1305 -1267 -1271 0
-1305 1267 1271 0
1306 -1256 1267 0
1306 1256 -1267 0
-1306 1256 1267 0
-1306 -1256 -1267 0
-1307 -1256 -1257 0
-1307 1256 1257 0
1307 1256 -1257 0
1307 -1256 1257 0
-1308 -203 -1257 0
-1308 203 1257 0
1308 203 -1257 0
1308 -203 1257 0
-1309 1310 1442 0
-1309 -1310 -1442 0
1309 -1310 1442 0
1309 1310 -1442 0
-1310 1311 1385 0
1310 -1311 0
1310 -1385 0
1311 -1312 -1374 0
-1311 1312 0
-1311 1374 0
1312 1313 -1361 0
1312 -1313 1361 0
-1312 -1313 -1361 0
-1312 1313 1361 0
-1313 1314 1337 0
1313 -1314 0
1313 -1337 0
1314 -1315 -1326 0
-1314 1315 0
-1314 1326 0
1315 -1316 1319 0
1315 1316 -1319 0
-1315 1316 1319 0
-1315 -1316 -1319 0
1316 -351 1317 0
-1316 351 0
-1316 -1317 0
1317 -1300 -1318 0
-1317 1300 0
-1317 1318 0
-1318 425 430 0
-1318 -425 -430 0
1318 -425 430 0
1318 425 -430 0
-1319 351 1320 0
-1319 -351 -1320 0
1319 -351 1320 0
1319 351 -1320 0
-1320 1321 1324 0
-1320 1321 1325 0
1320 -1321 0
1320 -1324 -1325 0
-1321 1299 1322 0
-1321 1300 1323 0
-1321 1299 1300 0
-1321 1322 1323 0
1321 -1299 -1323 0
1321 -1300 -1322 0
1322 -352 425 430 0
1322 352 -425 -430 0
-1322 425 -430 0
-1322 352 430 0
-1322 -352 -425 0
1323 350 -1318 0
-1323 -350 0
-1323 1318 0
-1324 1299 1300 0
-1324 -1299 -1300 0
1324 -1299 1300 0
1324 1299 -1300 0
1325 -350 -1318 0
-1325 350 0
-1325 1318 0
1326 425 -1327 0
1326 -425 1327 0
-1326 -425 -1327 0
-1326 425 1327 0
1327 -1331 0
1327 -1328 -1336 0
-1327 1328 1331 0
-1327 1331 1336 0
1328 -1329 -1330 0
-1328 1329 0
-1328 1330 0
-1329 506 602 0
-1329 -506 -602 0
1329 -506 602 0
1329 506 -602 0
-1330 425 511 0
-1330 -425 -511 0
1330 -425 511 0
1330 425 -511 0
-1331 -1296 1333 0
-1331 1332 1333 0
1331 -1333 0
1331 1296 -1332 0
1332 -425 506 511 602 0
1332 425 -506 -511 -602 0
-1332 -506 602 0
-1332 -425 -602 0
-1332 506 -511 0
-1332 425 511 0
-1333 1334 1335 0
-1333 1288 1292 0
-1333 1292 1335 0
-1333 1288 1334 0
1333 -1292 -1334 0
1333 -1288 -1335 0
1334 -506 511 -602 0
1334 506 -511 602 0
-1334 506 511 0
-1334 -511 -602 0
-1334 -506 602 0
1335 -1329 1330 0
-1335 1329 0
-1335 -1330 0
-1336 -1288 1292 -1294 0
-1336 -1288 -1292 1294 0
-1336 1288 -1292 -1294 0
-1336 1288 1292 1294 0
1336 -1288 1292 1294 0
1336 -1288 -1292 -1294 0
1336 1288 -1292 1294 0
1336 1288 1292 -1294 0
1337 -1338 -1360 0
-1337 1338 0
-1337 1360 0
-1338 1339 1353 0
1338 -1339 0
1338 -1353 0
1339 -1317 -1340 0
-1339 1317 0
-1339 1340 0
1340 -1341 -1347 0
-1340 1341 0
-1340 1347 0
1341 -1342 -1344 0
-1341 1342 0
-1341 1344 0
1342 -425 1343 0
-1342 425 0
-1342 -1343 0
1343 -1300 -1329 0
-1343 1300 0
-1343 1329 0
1344 -425 1345 0
1344 425 -1345 0
-1344 425 1345 0
-1344 -425 -1345 0
-1345 1324 1346 0
-1345 1328 1346 0
1345 -1346 0
1345 -1324 -1328 0
-1346 1299 1334 0
-1346 1300 1335 0
-1346 1299 1300 0
-1346 1334 1335 0
1346 -1299 -1335 0
1346 -1300 -1334 0
1347 425 -1348 0
1347 -425 1348 0
-1347 -425 -1348 0
-1347 425 1348 0
1348 -1349 0
1348 -1328 1351 0
-1348 1328 1349 0
-1348 1349 -1351 0
-1349 -1296 1350 0
-1349 1335 1350 0
1349 -1350 0
1349 1296 -1335 0
-1350 1299 1332 0
-1350 1300 1334 0
-1350 1299 1300 0
-1350 1332 1334 0
1350 -1299 -1334 0
1350 -1300 -1332 0
-1351 -1296 -1352 0
-1351 1296 1352 0
1351 1296 -1352 0
1351 -1296 1352 0
1352 -1299 1300 0
-1352 1299 0
-1352 -1300 0
1353 -1354 -1355 0
-1353 1354 0
-1353 1355 0
-1354 -1317 -1340 0
-1354 1317 1340 0
1354 1317 -1340 0
1354 -1317 1340 0
1355 -425 1356 0
1355 425 -1356 0
-1355 425 1356 0
-1355 -425 -1356 0
-1356 -1296 1357 1358 0
-1356 1334 1357 1358 0
1356 -1357 0
1356 -1358 0
1356 1296 -1334 0
-1357 1292 1332 0
-1357 1299 1335 0
-1357 1292 1299 0
-1357 1332 1335 0
1357 -1292 -1335 0
1357 -1299 -1332 0
1358 -1328 1359 0
-1358 1328 0
-1358 -1359 0
1359 1292 -1296 1299 0
1359 1292 -1299 1300 0
1359 -1292 1296 1299 0
1359 1292 1296 -1299 0
1359 -1292 -1296 -1299 -1300 0
-1359 -1292 -1296 1300 0
-1359 -1292 1296 -1299 0
-1359 1292 1296 1299 0
-1359 -1292 -1296 1299 0
-1359 1292 -1296 -1299 -1300 0
1360 1315 -1326 0
1360 -1315 1326 0
-1360 -1315 -1326 0
-1360 1315 1326 0
1361 1362 -1367 0
1361 -1362 1367 0
-1361 -1362 -1367 0
-1361 1362 1367 0
1362 -425 1363 0
1362 425 -1363 0
-1362 425 1363 0
-1362 -425 -1363 0
-1363 1283 1364 1365 0
-1363 1335 1364 1365 0
1363 -1364 0
1363 -1365 0
1363 -1283 -1335 0
-1364 1332 1334 0
-1364 1288 1292 0
-1364 1292 1334 0
-1364 1288 1332 0
1364 -1292 -1332 0
1364 -1288 -1334 0
1365 -1328 -1366 0
-1365 1328 0
-1365 1366 0
1366 1290 -1301 0
1366 -1290 1301 0
-1366 -1290 -1301 0
-1366 1290 1301 0
1367 1368 -1369 0
1367 -1368 1369 0
-1367 -1368 -1369 0
-1367 1368 1369 0
1368 -1316 -1319 0
-1368 1316 0
-1368 1319 0
1369 351 -1370 0
1369 -351 1370 0
-1369 -351 -1370 0
-1369 351 1370 0
1370 -1371 0
1370 -1325 1351 0
-1370 -1351 1371 0
-1370 1325 1371 0
-1371 -1296 1372 0
-1371 1323 1372 0
1371 -1372 0
1371 1296 -1323 0
-1372 1300 1322 0
-1372 1299 1373 0
-1372 1299 1300 0
-1372 1322 1373 0
1372 -1300 -1373 0
1372 -1299 -1322 0
1373 -351 352 425 430 0
1373 351 -352 -425 -430 0
-1373 -352 430 0
-1373 -351 -430 0
-1373 352 -425 0
-1373 351 425 0
1374 602 -1375 0
1374 -602 1375 0
-1374 -602 -1375 0
-1374 602 1375 0
1375 -1376 0
1375 1383 -1384 0
-1375 1376 1384 0
-1375 1376 -1383 0
-1376 1377 1380 0
-1376 1271 1380 0
1376 -1380 0
1376 -1271 -1377 0
1377 1378 -1379 0
-1377 -1378 0
-1377 1379 0
-1378 598 602 0
-1378 -598 -602 0
1378 -598 602 0
1378 598 -602 0
-1379 193 679 0
-1379 -193 -679 0
1379 -193 679 0
1379 193 -679 0
-1380 -1275 1381 0
-1380 1279 1382 0
-1380 -1275 1279 0
-1380 1381 1382 0
1380 1275 -1382 0
1380 -1279 -1381 0
1381 -193 -598 602 -679 0
1381 193 598 -602 679 0
-1381 193 602 0
-1381 -598 -602 0
-1381 -193 679 0
-1381 598 -679 0
1382 -193 598 -679 0
1382 193 -598 679 0
-1382 193 598 0
-1382 -598 -679 0
-1382 -193 679 0
-1383 1277 1304 0
-1383 -1277 -1304 0
1383 -1277 1304 0
1383 1277 -1304 0
1384 -1378 -1379 0
-1384 1378 0
-1384 1379 0
1385 -1386 -1441 0
-1385 1386 0
-1385 1441 0
-1386 1387 1394 0
-1386 1387 1440 0
1386 -1387 0
1386 -1394 -1440 0
1387 -1388 -1393 0
-1387 1388 0
-1387 1393 0
-1388 602 1389 0
-1388 -602 -1389 0
1388 -602 1389 0
1388 602 -1389 0
-1389 -1275 1390 1391 0
-1389 1377 1390 1391 0
1389 -1390 0
1389 -1391 0
1389 1275 -1377 0
-1390 1279 1381 0
-1390 1283 1382 0
-1390 1279 1283 0
-1390 1381 1382 0
1390 -1279 -1382 0
1390 -1283 -1381 0
1391 -1384 1392 0
-1391 1384 0
-1391 -1392 0
-1392 1281 1303 0
-1392 -1281 -1303 0
1392 -1281 1303 0
1392 1281 -1303 0
1393 1338 -1360 0
1393 -1338 1360 0
-1393 -1338 -1360 0
-1393 1338 1360 0
-1394 1395 1402 0
1394 -1395 0
1394 -1402 0
1395 -1396 -1397 0
-1395 1396 0
-1395 1397 0
-1396 -1354 -1355 0
-1396 1354 1355 0
1396 1354 -1355 0
1396 -1354 1355 0
1397 602 -1398 0
1397 -602 1398 0
-1397 -602 -1398 0
-1397 602 1398 0
1398 -1399 0
1398 -1384 -1401 0
-1398 1384 1399 0
-1398 1399 1401 0
-1399 1279 1400 0
-1399 1377 1400 0
1399 -1400 0
1399 -1279 -1377 0
-1400 1381 1382 0
-1400 1283 1288 0
-1400 1288 1382 0
-1400 1283 1381 0
1400 -1288 -1381 0
1400 -1283 -1382 0
1401 1286 -1302 0
1401 -1286 1302 0
-1401 -1286 -1302 0
-1401 1286 1302 0
1402 -1403 -1439 0
-1402 1403 0
-1402 1439 0
-1403 1404 1410 0
-1403 1404 1438 0
1403 -1404 0
1403 -1410 -1438 0
1404 -1405 -1409 0
-1404 1405 0
-1404 1409 0
-1405 602 1406 0
-1405 -602 -1406 0
1405 -602 1406 0
1405 602 -1406 0
-1406 1283 1407 1408 0
-1406 1377 1407 1408 0
1406 -1407 0
1406 -1408 0
1406 -1283 -1377 0
-1407 1381 1382 0
-1407 1288 1292 0
-1407 1292 1382 0
-1407 1288 1381 0
1407 -1292 -1381 0
1407 -1288 -1382 0
1408 -1366 -1384 0
-1408 1366 0
-1408 1384 0
1409 1341 -1347 0
1409 -1341 1347 0
-1409 -1341 -1347 0
-1409 1341 1347 0
-1410 1411 1417 0
1410 -1411 0
1410 -1417 0
1411 -1412 -1413 0
-1411 1412 0
-1411 1413 0
1412 1342 -1344 0
1412 -1342 1344 0
-1412 -1342 -1344 0
-1412 1342 1344 0
1413 602 -1414 0
1413 -602 1414 0
-1413 -602 -1414 0
-1413 602 1414 0
1414 -1415 0
1414 -1336 -1384 0
-1414 1336 1415 0
-1414 1384 1415 0
-1415 -1296 1416 0
-1415 1381 1416 0
1415 -1416 0
1415 1296 -1381 0
-1416 1292 1377 0
-1416 1288 1382 0
-1416 1377 1382 0
-1416 1288 1292 0
1416 -1288 -1377 0
1416 -1292 -1382 0
1417 -1418 -1437 0
-1417 1418 0
-1417 1437 0
-1418 1419 1431 0
1418 -1419 0
1418 -1431 0
1419 -1343 -1420 0
-1419 1343 0
-1419 1420 0
1420 -1421 -1427 0
-1420 1421 0
-1420 1427 0
1421 -1422 -1425 0
-1421 1422 0
-1421 1425 0
-1422 602 1423 0
-1422 -602 -1423 0
1422 -602 1423 0
1422 602 -1423 0
-1423 1324 1424 0
-1423 1384 1424 0
1423 -1424 0
1423 -1324 -1384 0
-1424 1300 1377 0
-1424 1299 1382 0
-1424 1299 1300 0
-1424 1377 1382 0
1424 -1300 -1382 0
1424 -1299 -1377 0
1425 -602 1426 0
-1425 602 0
-1425 -1426 0
1426 -1300 -1379 0
-1426 1300 0
-1426 1379 0
1427 602 -1428 0
1427 -602 1428 0
-1427 -602 -1428 0
-1427 602 1428 0
1428 -1429 0
1428 1351 -1384 0
-1428 1384 1429 0
-1428 -1351 1429 0
-1429 -1296 1430 0
-1429 1377 1430 0
1429 -1430 0
1429 1296 -1377 0
-1430 1299 1381 0
-1430 1300 1382 0
-1430 1299 1300 0
-1430 1381 1382 0
1430 -1299 -1382 0
1430 -1300 -1381 0
1431 -1432 -1433 0
-1431 1432 0
-1431 1433 0
-1432 -1343 -1420 0
-1432 1343 1420 0
1432 1343 -1420 0
1432 -1343 1420 0
-1433 602 1434 0
-1433 -602 -1434 0
1433 -602 1434 0
1433 602 -1434 0
-1434 -1296 1435 1436 0
-1434 1382 1435 1436 0
1434 -1435 0
1434 -1436 0
1434 1296 -1382 0
-1435 1292 1299 0
-1435 1377 1381 0
-1435 1299 1377 0
-1435 1292 1381 0
1435 -1299 -1381 0
1435 -1292 -1377 0
1436 1359 -1384 0
-1436 -1359 0
-1436 1384 0
1437 1412 -1413 0
1437 -1412 1413 0
-1437 -1412 -1413 0
-1437 1412 1413 0
-1438 -1405 -1409 0
-1438 1405 1409 0
1438 1405 -1409 0
1438 -1405 1409 0
-1439 -1396 -1397 0
-1439 1396 1397 0
1439 1396 -1397 0
1439 -1396 1397 0
-1440 -1388 -1393 0
-1440 1388 1393 0
1440 1388 -1393 0
1440 -1388 1393 0
-1441 -1312 -1374 0
-1441 1312 1374 0
1441 1312 -1374 0
1441 -1312 1374 0
-1442 -1443 -1458 0
-1442 1443 1458 0
1442 1443 -1458 0
1442 -1443 1458 0
1443 -1444 1455 0
1443 1444 -1455 0
-1443 1444 1455 0
-1443 -1444 -1455 0
-1444 1445 1449 0
-1444 -1445 -1449 0
1444 -1445 1449 0
1444 1445 -1449 0
1445 -425 1446 0
1445 425 -1446 0
-1445 425 1446 0
-1445 -425 -1446 0
-1446 1279 1447 1448 0
-1446 1335 1447 1448 0
1446 -1447 0
1446 -1448 0
1446 -1279 -1335 0
-1447 1332 1334 0
-1447 1283 1288 0
-1447 1288 1334 0
-1447 1283 1332 0
1447 -1288 -1332 0
1447 -1283 -1334 0
1448 -1328 -1401 0
-1448 1328 0
-1448 1401 0
-1449 351 1450 1451 0
-1449 351 -1450 -1451 0
-1449 -351 -1300 -1450 1451 0
-1449 1300 1450 1451 0
-1449 1300 -1450 -1451 0
-1449 -351 -1300 1450 -1451 0
1449 351 1450 -1451 0
1449 351 -1450 1451 0
1449 -351 -1300 1450 1451 0
1449 1300 -1450 1451 0
1449 1300 1450 -1451 0
1449 -351 -1300 -1450 -1451 0
1450 -1368 -1369 0
-1450 1368 0
-1450 1369 0
-1451 351 1452 0
-1451 -351 -1452 0
1451 -351 1452 0
1451 351 -1452 0
-1452 -1296 1453 1454 0
-1452 1322 1453 1454 0
1452 -1453 0
1452 -1454 0
1452 1296 -1322 0
-1453 1292 1299 0
-1453 1323 1373 0
-1453 1299 1323 0
-1453 1292 1373 0
1453 -1299 -1373 0
1453 -1292 -1323 0
1454 -1325 1359 0
-1454 1325 0
-1454 -1359 0
-1455 1456 1457 0
1455 -1456 0
1455 -1457 0
1456 -1362 -1367 0
-1456 1362 0
-1456 1367 0
1457 -1313 -1361 0
-1457 1313 0
-1457 1361 0
1458 602 -1459 0
1458 -602 1459 0
-1458 -602 -1459 0
-1458 602 1459 0
1459 -1461 0
1459 -1384 -1460 0
-1459 1460 1461 0
-1459 1384 1461 0
1460 1273 -1305 0
1460 -1273 1305 0
-1460 -1273 -1305 0
-1460 1273 1305 0
-1461 1267 1462 0
-1461 1377 1462 0
1461 -1462 0
1461 -1267 -1377 0
-1462 1271 1381 0
-1462 -1275 1382 0
-1462 1271 -1275 0
-1462 1381 1382 0
1462 -1271 -1382 0
1462 1275 -1381 0
-1463 1464 1471 0
1463 -1464 0
1463 -1471 0
1464 -1465 -1466 0
-1464 1465 0
-1464 1466 0
-1465 1386 1441 0
-1465 -1386 -1441 0
1465 -1386 1441 0
1465 1386 -1441 0
1466 -193 1467 0
1466 193 -1467 0
-1466 193 1467 0
-1466 -193 -1467 0
-1467 -1257 1468 1469 0
-1467 196 1468 1469 0
1467 -1468 0
1467 -1469 0
1467 -196 1257 0
-1468 1258 1267 0
-1468 1255 1256 0
-1468 1256 1267 0
-1468 1255 1258 0
1468 -1256 -1258 0
1468 -1255 -1267 0
1469 -1260 1470 0
-1469 1260 0
-1469 -1470 0
-1470 1265 1307 0
-1470 -1265 -1307 0
1470 -1265 1307 0
1470 1265 -1307 0
1471 -1472 -1473 0
-1471 1472 0
-1471 1473 0
-1472 -1465 -1466 0
-1472 1465 1466 0
1472 1465 -1466 0
1472 -1465 1466 0
-1473 1474 1481 0
1473 -1474 0
1473 -1481 0
1474 -1475 -1476 0
-1474 1475 0
-1474 1476 0
-1475 1394 1440 0
-1475 -1394 -1440 0
1475 -1394 1440 0
1475 1394 -1440 0
1476 193 -1477 0
1476 -193 1477 0
-1476 -193 -1477 0
-1476 193 1477 0
1477 -1478 0
1477 -1260 -1480 0
-1477 1260 1478 0
-1477 1478 1480 0
-1478 1256 1479 0
-1478 196 1479 0
1478 -1479 0
1478 -196 -1256 0
-1479 1255 1258 0
-1479 1267 1271 0
-1479 1258 1271 0
-1479 1255 1267 0
1479 -1255 -1271 0
1479 -1258 -1267 0
1480 1269 -1306 0
1480 -1269 1306 0
-1480 -1269 -1306 0
-1480 1269 1306 0
1481 -1482 -1555 0
-1481 1482 0
-1481 1555 0
-1482 1483 1489 0
1482 -1483 0
1482 -1489 0
1483 -1484 -1485 0
-1483 1484 0
-1483 1485 0
-1484 1403 1439 0
-1484 -1403 -1439 0
1484 -1403 1439 0
1484 1403 -1439 0
1485 193 -1486 0
1485 -193 1486 0
-1485 -193 -1486 0
-1485 193 1486 0
1486 -1487 0
1486 -1260 -1460 0
-1486 1460 1487 0
-1486 1260 1487 0
-1487 1267 1488 0
-1487 196 1488 0
1487 -1488 0
1487 -196 -1267 0
-1488 1271 -1275 0
-1488 1255 1258 0
-1488 1258 -1275 0
-1488 1255 1271 0
1488 -1258 -1271 0
1488 -1255 1275 0
1489 -1490 -1554 0
-1489 1490 0
-1489 1554 0
-1490 1491 1497 0
1490 -1491 0
1490 -1497 0
1491 -1492 -1493 0
-1491 1492 0
-1491 1493 0
-1492 1410 1438 0
-1492 -1410 -1438 0
1492 -1410 1438 0
1492 1410 -1438 0
1493 193 -1494 0
1493 -193 1494 0
-1493 -193 -1494 0
-1493 193 1494 0
1494 -1495 0
1494 -1260 1383 0
-1494 -1383 1495 0
-1494 1260 1495 0
-1495 1271 1496 0
-1495 196 1496 0
1495 -1496 0
1495 -196 -1271 0
-1496 1255 1258 0
-1496 -1275 1279 0
-1496 1258 1279 0
-1496 1255 -1275 0
1496 -1258 1275 0
1496 -1255 -1279 0
1497 -1498 -1553 0
-1497 1498 0
-1497 1553 0
-1498 1499 1505 0
1498 -1499 0
1498 -1505 0
1499 -1500 -1504 0
-1499 1500 0
-1499 1504 0
1500 -193 1501 0
1500 193 -1501 0
-1500 193 1501 0
-1500 -193 -1501 0
-1501 -1275 1502 1503 0
-1501 196 1502 1503 0
1501 -1502 0
1501 -1503 0
1501 -196 1275 0
-1502 1255 1258 0
-1502 1279 1283 0
-1502 1258 1283 0
-1502 1255 1279 0
1502 -1258 -1279 0
1502 -1255 -1283 0
1503 -1260 1392 0
-1503 1260 0
-1503 -1392 0
1504 1418 -1437 0
1504 -1418 1437 0
-1504 -1418 -1437 0
-1504 1418 1437 0
1505 -1506 -1552 0
-1505 1506 0
-1505 1552 0
-1506 1507 1513 0
1506 -1507 0
1506 -1513 0
1507 -1508 -1509 0
-1507 1508 0
-1507 1509 0
-1508 1432 1433 0
-1508 -1432 -1433 0
1508 -1432 1433 0
1508 1432 -1433 0
1509 193 -1510 0
1509 -193 1510 0
-1509 -193 -1510 0
-1509 193 1510 0
1510 -1511 0
1510 -1260 -1401 0
-1510 1401 1511 0
-1510 1260 1511 0
-1511 1279 1512 0
-1511 196 1512 0
1511 -1512 0
1511 -196 -1279 0
-1512 1255 1258 0
-1512 1283 1288 0
-1512 1258 1288 0
-1512 1255 1283 0
1512 -1255 -1288 0
1512 -1258 -1283 0
1513 -1514 -1551 0
-1513 1514 0
-1513 1551 0
-1514 1515 1521 0
1514 -1515 0
1514 -1521 0
1515 -1516 -1520 0
-1515 1516 0
-1515 1520 0
1516 -193 1517 0
1516 193 -1517 0
-1516 193 1517 0
-1516 -193 -1517 0
-1517 1283 1518 1519 0
-1517 196 1518 1519 0
1517 -1518 0
1517 -1519 0
1517 -196 -1283 0
-1518 1288 1292 0
-1518 1255 1258 0
-1518 1258 1292 0
-1518 1255 1288 0
1518 -1258 -1288 0
1518 -1255 -1292 0
1519 -1260 -1366 0
-1519 1260 0
-1519 1366 0
1520 1421 -1427 0
1520 -1421 1427 0
-1520 -1421 -1427 0
-1520 1421 1427 0
1521 -1522 -1550 0
-1521 1522 0
-1521 1550 0
-1522 1523 1529 0
1522 -1523 0
1522 -1529 0
1523 -1524 -1525 0
-1523 1524 0
-1523 1525 0
1524 1422 -1425 0
1524 -1422 1425 0
-1524 -1422 -1425 0
-1524 1422 1425 0
1525 193 -1526 0
1525 -193 1526 0
-1525 -193 -1526 0
-1525 193 1526 0
1526 -1527 0
1526 -1260 -1336 0
-1526 1336 1527 0
-1526 1260 1527 0
-1527 -1296 1528 0
-1527 1255 1528 0
1527 -1528 0
1527 -1255 1296 0
-1528 1258 1288 0
-1528 196 1292 0
-1528 1288 1292 0
-1528 196 1258 0
1528 -196 -1288 0
1528 -1258 -1292 0
1529 -1530 -1549 0
-1529 1530 0
-1529 1549 0
-1530 1531 1543 0
1530 -1531 0
1530 -1543 0
1531 -1426 -1532 0
-1531 1426 0
-1531 1532 0
1532 -1533 -1539 0
-1532 1533 0
-1532 1539 0
1533 -1534 -1536 0
-1533 1534 0
-1533 1536 0
1534 -193 1535 0
-1534 193 0
-1534 -1535 0
1535 -199 -1300 0
-1535 199 0
-1535 1300 0
1536 -193 1537 0
1536 193 -1537 0
-1536 193 1537 0
-1536 -193 -1537 0
-1537 1324 1538 0
-1537 1260 1538 0
1537 -1538 0
1537 -1260 -1324 0
-1538 196 1258 0
-1538 1299 1300 0
-1538 196 1300 0
-1538 1258 1299 0
1538 -196 -1299 0
1538 -1258 -1300 0
1539 193 -1540 0
1539 -193 1540 0
-1539 -193 -1540 0
-1539 193 1540 0
1540 -1541 0
1540 -1260 1351 0
-1540 -1351 1541 0
-1540 1260 1541 0
-1541 -1296 1542 0
-1541 196 1542 0
1541 -1542 0
1541 -196 1296 0
-1542 1255 1258 0
-1542 1299 1300 0
-1542 1258 1300 0
-1542 1255 1299 0
1542 -1258 -1299 0
1542 -1255 -1300 0
1543 -1544 -1545 0
-1543 1544 0
-1543 1545 0
-1544 -1426 -1532 0
-1544 1426 1532 0
1544 1426 -1532 0
1544 -1426 1532 0
1545 -193 1546 0
1545 193 -1546 0
-1545 193 1546 0
-1545 -193 -1546 0
-1546 -1296 1547 1548 0
-1546 1258 1547 1548 0
1546 -1547 0
1546 -1548 0
1546 -1258 1296 0
-1547 1292 1299 0
-1547 196 1255 0
-1547 196 1299 0
-1547 1255 1292 0
1547 -196 -1292 0
1547 -1255 -1299 0
1548 -1260 1359 0
-1548 1260 0
-1548 -1359 0
1549 1524 -1525 0
1549 -1524 1525 0
-1549 -1524 -1525 0
-1549 1524 1525 0
1550 1516 -1520 0
1550 -1516 1520 0
-1550 -1516 -1520 0
-1550 1516 1520 0
-1551 -1508 -1509 0
-1551 1508 1509 0
1551 1508 -1509 0
1551 -1508 1509 0
1552 1500 -1504 0
1552 -1500 1504 0
-1552 -1500 -1504 0
-1552 1500 1504 0
-1553 -1492 -1493 0
-1553 1492 1493 0
1553 1492 -1493 0
1553 -1492 1493 0
-1554 -1484 -1485 0
-1554 1484 1485 0
1554 1484 -1485 0
1554 -1484 1485 0
1555 1475 -1476 0
1555 -1475 1476 0
-1555 -1475 -1476 0
-1555 1475 1476 0
1556 202 -1557 0
1556 -202 1557 0
-1556 -202 -1557 0
-1556 202 1557 0
1557 -1562 0
1557 -1558 1593 0
-1557 1558 1562 0
-1557 1562 -1593 0
1558 -5352 -1559 0
-1558 5352 0
-1558 1559 0
-1559 202 1560 0
-1559 -202 -1560 0
1559 -202 1560 0
1559 202 -1560 0
-1560 -5353 -1561 0
-1560 5353 1561 0
1560 5353 -1561 0
1560 -5353 1561 0
1561 -5352 5374 0
-1561 5352 0
-1561 -5374 0
-1562 1564 1588 0
-1562 1563 1588 0
1562 -1588 0
1562 -1563 -1564 0
1563 -5352 1559 0
-1563 5352 0
-1563 -1559 0
1564 -1565 1583 0
1564 1565 -1583 0
-1564 1565 1583 0
-1564 -1565 -1583 0
1565 -1566 -1570 0
-1565 1566 0
-1565 1570 0
1566 150 178 186 -1567 0
-1566 1567 0
-1566 -186 0
-1566 -150 0
-1566 -178 0
1567 209 347 586 -1568 0
-1567 -209 0
-1567 1568 0
-1567 -586 0
-1567 -347 0
1568 1122 1167 1214 -1569 0
-1568 1569 0
-1568 -1122 0
-1568 -1214 0
-1568 -1167 0
1569 -229 284 324 504 0
-1569 229 0
-1569 -504 0
-1569 -324 0
-1569 -284 0
1570 -1571 1572 0
-1570 1571 0
-1570 -1572 0
1571 -204 1248 0
-1571 204 0
-1571 -1248 0
-1572 265 307 334 1573 0
1572 -1573 0
1572 -334 0
1572 -265 0
1572 -307 0
-1573 131 161 171 1574 0
1573 -1574 0
1573 -171 0
1573 -131 0
1573 -161 0
-1574 104 125 143 1575 0
1574 -104 0
1574 -1575 0
1574 -143 0
1574 -125 0
-1575 107 475 1576 1582 0
1575 -1582 0
1575 -107 0
1575 -1576 0
1575 -475 0
-1576 20 243 261 1577 0
1576 -1577 0
1576 -261 0
1576 -20 0
1576 -243 0
-1577 60 238 310 1578 0
1577 -1578 0
1577 -310 0
1577 -60 0
1577 -238 0
-1578 151 271 1579 0
1578 -1579 0
1578 -271 0
1578 -151 0
-1579 170 293 1084 1580 0
1579 -170 0
1579 -1580 0
1579 -1084 0
1579 -293 0
-1580 134 1581 0
1580 -134 0
1580 -1581 0
-1581 215 231 500 0
1581 -500 0
1581 -231 0
1581 -215 0
-1582 472 1186 0
1582 -472 0
1582 -1186 0
-1583 92 309 1584 1585 0
1583 -92 0
1583 -1585 0
1583 -1584 0
1583 -309 0
-1584 84 288 0
1584 -84 0
1584 -288 0
-1585 221 324 336 1586 0
1585 -1586 0
1585 -221 0
1585 -336 0
1585 -324 0
-1586 283 300 676 1587 0
1586 -1587 0
1586 -283 0
1586 -676 0
1586 -300 0
-1587 248 294 0
1587 -248 0
1587 -294 0
-1588 1590 -1591 0
-1588 1589 1592 0
-1588 1590 1592 0
-1588 1589 -1591 0
1588 -1589 -1590 0
1588 1591 -1592 0
1589 5352 5353 -5354 0
-1589 5354 0
-1589 -5353 0
-1589 -5352 0
1590 -1571 1572 0
1590 1571 -1572 0
-1590 1571 1572 0
-1590 -1571 -1572 0
1591 1566 -1570 0
1591 -1566 1570 0
-1591 -1566 -1570 0
-1591 1566 1570 0
1592 5352 -5353 0
-1592 -5352 0
-1592 5353 0
-1593 1594 1605 0
-1593 -1594 -1605 0
1593 -1594 1605 0
1593 1594 -1605 0
-1594 1595 1596 0
1594 -1595 0
1594 -1596 0
1595 -1590 1591 0
-1595 1590 0
-1595 -1591 0
1596 -1597 1604 0
-1596 1597 0
-1596 -1604 0
-1597 1598 1599 0
1597 -1598 0
1597 -1599 0
1598 -203 -1590 0
-1598 203 0
-1598 1590 0
1599 -1600 -1603 0
-1599 1600 0
-1599 1603 0
-1600 1601 1602 0
1600 -1601 0
1600 -1602 0
1601 -203 1257 0
-1601 203 0
-1601 -1257 0
1602 -1262 1308 0
-1602 1262 0
-1602 -1308 0
1603 203 -1590 0
1603 -203 1590 0
-1603 -203 -1590 0
-1603 203 1590 0
-1604 -1590 -1591 0
-1604 1590 1591 0
1604 1590 -1591 0
1604 -1590 1591 0
-1605 -1564 -1591 0
-1605 1564 1591 0
1605 1564 -1591 0
1605 -1564 1591 0
1606 190 -1556 -1607 0
1606 -190 1556 -1607 0
-1606 1607 0
-1606 190 1556 0
-1606 -190 -1556 0
-1607 1608 1615 0
1607 -1608 0
1607 -1615 0
1608 -1609 -1610 0
-1608 1609 0
-1608 1610 0
1609 -1472 1473 0
1609 1472 -1473 0
-1609 1472 1473 0
-1609 -1472 -1473 0
1610 202 -1611 0
1610 -202 1611 0
-1610 -202 -1611 0
-1610 202 1611 0
1611 -1612 0
1611 -1558 1614 0
-1611 1558 1612 0
-1611 1612 -1614 0
-1612 -1591 1613 0
-1612 1563 1613 0
1612 -1613 0
1612 -1563 1591 0
-1613 203 1592 0
-1613 1589 1590 0
-1613 1589 1592 0
-1613 203 1590 0
1613 -203 -1589 0
1613 -1590 -1592 0
-1614 1597 1604 0
-1614 -1597 -1604 0
1614 -1597 1604 0
1614 1597 -1604 0
1615 -1616 -1689 0
-1615 1616 0
-1615 1689 0
-1616 1617 1622 0
-1616 -1482 -1555 1617 0
-1616 -1482 -1555 1622 0
-1616 1482 1555 1617 0
-1616 1482 1555 1622 0
1616 -1617 -1622 0
1616 -1482 1555 -1622 0
1616 1482 -1555 -1622 0
1616 1482 -1555 -1617 0
1616 -1482 1555 -1617 0
-1617 202 1618 0
-1617 -202 -1618 0
1617 -202 1618 0
1617 202 -1618 0
-1618 1590 1619 1620 0
-1618 1563 1619 1620 0
1618 -1619 0
1618 -1620 0
1618 -1563 -1590 0
-1619 203 1589 0
-1619 -1257 1592 0
-1619 203 -1257 0
-1619 1589 1592 0
1619 -203 -1592 0
1619 1257 -1589 0
1620 -1558 -1621 0
-1620 1558 0
-1620 1621 0
1621 1600 -1603 0
1621 -1600 1603 0
-1621 -1600 -1603 0
-1621 1600 1603 0
-1622 1623 1685 0
-1622 202 1685 1686 0
-1622 -202 1623 -1686 0
-1622 -202 1685 -1686 0
-1622 202 1623 1686 0
1622 -1623 -1685 0
1622 -202 -1623 1686 0
1622 202 -1685 -1686 0
1622 202 -1623 -1686 0
1622 -202 -1685 1686 0
1623 -1624 -1681 0
1623 202 -1624 -1682 0
1623 202 -1681 -1682 0
1623 -202 -1624 1682 0
1623 -202 -1681 1682 0
-1623 1624 1681 0
-1623 202 1624 1682 0
-1623 202 1681 1682 0
-1623 -202 1624 -1682 0
-1623 -202 1681 -1682 0
-1624 1625 1676 0
-1624 1675 1676 0
1624 -1676 0
1624 -1625 -1675 0
-1625 1626 1670 0
-1625 1669 1670 0
1625 -1670 0
1625 -1626 -1669 0
-1626 1627 1664 0
-1626 1663 1664 0
1626 -1664 0
1626 -1627 -1663 0
-1627 1628 1659 0
-1627 -1530 -1549 1628 0
-1627 -1530 -1549 1659 0
-1627 1530 1549 1628 0
-1627 1530 1549 1659 0
1627 -1628 -1659 0
1627 -1530 1549 -1659 0
1627 1530 -1549 -1659 0
1627 1530 -1549 -1628 0
1627 -1530 1549 -1628 0
-1628 1629 1654 0
-1628 1653 1654 0
1628 -1654 0
1628 -1629 -1653 0
-1629 1630 1649 0
-1629 -1533 -1539 1649 0
-1629 -1533 -1539 1630 0
-1629 1533 1539 1649 0
-1629 1533 1539 1630 0
1629 -1630 -1649 0
1629 1533 -1539 -1630 0
1629 -1533 1539 -1649 0
1629 1533 -1539 -1649 0
1629 -1533 1539 -1630 0
-1630 1631 1644 0
-1630 1643 1644 0
1630 -1644 0
1630 -1631 -1643 0
-1631 1535 1632 0
-1631 202 1632 1640 0
-1631 -202 1535 -1640 0
-1631 -202 1632 -1640 0
-1631 202 1535 1640 0
1631 -1535 -1632 0
1631 -202 -1535 1640 0
1631 202 -1632 -1640 0
1631 202 -1535 -1640 0
1631 -202 -1632 1640 0
1632 5352 1633 -1635 0
1632 1300 1633 -1635 0
-1632 1635 0
-1632 -1633 0
-1632 -5352 -1300 0
1633 1351 -1634 0
-1633 -1351 0
-1633 1634 0
1634 -202 -1558 0
-1634 202 0
-1634 1558 0
1635 1634 1636 -1638 0
1635 1324 1636 -1638 0
-1635 1638 0
-1635 -1636 0
-1635 -1324 -1634 0
1636 -202 -1637 0
1636 -202 1296 -1563 0
-1636 202 0
-1636 -1296 1637 0
-1636 1563 1637 0
-1637 1299 1589 0
-1637 1300 1592 0
-1637 1299 1300 0
-1637 1589 1592 0
1637 -1299 -1592 0
1637 -1300 -1589 0
1638 -202 1300 1639 0
1638 -202 1592 1639 0
-1638 202 0
-1638 -1639 0
-1638 -1300 -1592 0
1639 -1299 -1563 0
-1639 1299 0
-1639 1563 0
-1640 -1296 1641 1642 0
-1640 1592 1641 1642 0
1640 -1641 0
1640 -1642 0
1640 1296 -1592 0
-1641 1292 1299 0
-1641 1563 1589 0
-1641 1299 1563 0
-1641 1292 1589 0
1641 -1299 -1589 0
1641 -1292 -1563 0
1642 1359 -1558 0
-1642 -1359 0
-1642 1558 0
1643 1534 -1536 0
1643 -1534 1536 0
-1643 -1534 -1536 0
-1643 1534 1536 0
1644 -202 1645 -1648 0
1644 202 -1645 -1648 0
1644 202 -1647 -1648 0
-1644 1648 0
-1644 -202 -1645 0
-1644 202 1645 1647 0
-1645 -1296 1646 0
-1645 1589 1646 0
1645 -1646 0
1645 1296 -1589 0
-1646 1292 1563 0
-1646 1288 1592 0
-1646 1563 1592 0
-1646 1288 1292 0
1646 -1288 -1563 0
1646 -1292 -1592 0
1647 -1336 -1558 0
-1647 1336 0
-1647 1558 0
1648 1336 -1643 0
1648 1634 -1631 0
1648 1336 -1631 0
1648 1634 -1643 0
-1648 -1336 -1634 0
-1648 1631 1643 0
-1649 202 1650 0
-1649 -202 -1650 0
1649 -202 1650 0
1649 202 -1650 0
-1650 1283 1651 1652 0
-1650 1563 1651 1652 0
1650 -1651 0
1650 -1652 0
1650 -1283 -1563 0
-1651 1589 1592 0
-1651 1288 1292 0
-1651 1292 1592 0
-1651 1288 1589 0
1651 -1292 -1589 0
1651 -1288 -1592 0
1652 -1366 -1558 0
-1652 1366 0
-1652 1558 0
-1653 -1544 -1545 0
-1653 1544 1545 0
1653 1544 -1545 0
1653 -1544 1545 0
1654 -202 1655 -1658 0
1654 202 -1655 -1658 0
1654 202 -1657 -1658 0
-1654 1658 0
-1654 -202 -1655 0
-1654 202 1655 1657 0
-1655 1279 1656 0
-1655 1563 1656 0
1655 -1656 0
1655 -1279 -1563 0
-1656 1589 1592 0
-1656 1283 1288 0
-1656 1288 1592 0
-1656 1283 1589 0
1656 -1288 -1589 0
1656 -1283 -1592 0
1657 -1401 -1558 0
-1657 1401 0
-1657 1558 0
1658 1634 -1629 0
1658 1401 -1653 0
1658 1634 -1653 0
1658 1401 -1629 0
-1658 -1401 -1634 0
-1658 1629 1653 0
-1659 202 1660 0
-1659 -202 -1660 0
1659 -202 1660 0
1659 202 -1660 0
-1660 -1275 1661 1662 0
-1660 1563 1661 1662 0
1660 -1661 0
1660 -1662 0
1660 1275 -1563 0
-1661 1279 1589 0
-1661 1283 1592 0
-1661 1279 1283 0
-1661 1589 1592 0
1661 -1279 -1592 0
1661 -1283 -1589 0
1662 1392 -1558 0
-1662 -1392 0
-1662 1558 0
1663 1522 -1550 0
1663 -1522 1550 0
-1663 -1522 -1550 0
-1663 1522 1550 0
1664 -202 1665 -1668 0
1664 202 -1665 -1668 0
1664 202 -1667 -1668 0
-1664 1668 0
-1664 -202 -1665 0
-1664 202 1665 1667 0
-1665 1563 1666 0
-1665 1271 1666 0
1665 -1666 0
1665 -1271 -1563 0
-1666 -1275 1589 0
-1666 1279 1592 0
-1666 -1275 1279 0
-1666 1589 1592 0
1666 1275 -1592 0
1666 -1279 -1589 0
1667 1383 -1558 0
-1667 -1383 0
-1667 1558 0
1668 -1383 -1663 0
1668 1634 -1627 0
1668 1634 -1663 0
1668 -1383 -1627 0
-1668 1383 -1634 0
-1668 1627 1663 0
-1669 1514 1551 0
-1669 -1514 -1551 0
1669 -1514 1551 0
1669 1514 -1551 0
1670 -202 1671 -1674 0
1670 202 -1671 -1674 0
1670 202 -1673 -1674 0
-1670 1674 0
-1670 -202 -1671 0
-1670 202 1671 1673 0
-1671 1267 1672 0
-1671 1563 1672 0
1671 -1672 0
1671 -1267 -1563 0
-1672 1271 1589 0
-1672 -1275 1592 0
-1672 1271 -1275 0
-1672 1589 1592 0
1672 -1271 -1592 0
1672 1275 -1589 0
1673 -1460 -1558 0
-1673 1460 0
-1673 1558 0
1674 1634 -1626 0
1674 1460 -1669 0
1674 1634 -1669 0
1674 1460 -1626 0
-1674 -1460 -1634 0
-1674 1626 1669 0
1675 1506 -1552 0
1675 -1506 1552 0
-1675 -1506 -1552 0
-1675 1506 1552 0
1676 -202 1677 -1680 0
1676 202 -1677 -1680 0
1676 202 -1679 -1680 0
-1676 1680 0
-1676 -202 -1677 0
-1676 202 1677 1679 0
-1677 1563 1678 0
-1677 1256 1678 0
1677 -1678 0
1677 -1256 -1563 0
-1678 1589 1592 0
-1678 1267 1271 0
-1678 1271 1592 0
-1678 1267 1589 0
1678 -1271 -1589 0
1678 -1267 -1592 0
1679 -1480 -1558 0
-1679 1480 0
-1679 1558 0
1680 1480 -1675 0
1680 1634 -1625 0
1680 1634 -1675 0
1680 1480 -1625 0
-1680 -1480 -1634 0
-1680 1625 1675 0
1681 -1498 1553 0
1681 1498 -1553 0
-1681 1498 1553 0
-1681 -1498 -1553 0
-1682 -1257 1683 1684 0
-1682 1563 1683 1684 0
1682 -1683 0
1682 -1684 0
1682 1257 -1563 0
-1683 1256 1589 0
-1683 1267 1592 0
-1683 1256 1267 0
-1683 1589 1592 0
1683 -1256 -1592 0
1683 -1267 -1589 0
1684 1470 -1558 0
-1684 -1470 0
-1684 1558 0
1685 -1490 1554 0
1685 1490 -1554 0
-1685 1490 1554 0
-1685 -1490 -1554 0
-1686 203 1687 1688 0
-1686 1563 1687 1688 0
1686 -1687 0
1686 -1688 0
1686 -203 -1563 0
-1687 1256 -1257 0
-1687 1589 1592 0
-1687 -1257 1589 0
-1687 1256 1592 0
1687 1257 -1592 0
1687 -1256 -1589 0
1688 1261 -1558 0
-1688 -1261 0
-1688 1558 0
-1689 -1609 -1610 0
-1689 1609 1610 0
1689 1609 -1610 0
1689 -1609 1610 0
1690 1691 -1727 0
1690 -1691 1727 0
-1690 -1691 -1727 0
-1690 1691 1727 0
1691 1692 -1695 0
1691 -1692 1695 0
-1691 -1692 -1695 0
-1691 1692 1695 0
-1692 1693 1694 0
1692 -1693 0
1692 -1694 0
1693 -192 -1309 0
-1693 192 0
-1693 1309 0
1694 -191 -1463 0
-1694 191 0
-1694 1463 0
1695 1696 -1700 0
1695 -1696 1700 0
-1695 -1696 -1700 0
-1695 1696 1700 0
1696 -193 1697 0
1696 193 -1697 0
-1696 193 1697 0
-1696 -193 -1697 0
-1697 1590 1698 1699 0
-1697 196 1698 1699 0
1697 -1698 0
1697 -1699 0
1697 -196 -1590 0
-1698 203 1255 0
-1698 -1257 1258 0
-1698 1255 1258 0
-1698 203 -1257 0
1698 -1255 1257 0
1698 -203 -1258 0
1699 -1260 -1621 0
-1699 1260 0
-1699 1621 0
1700 1701 -1704 0
1700 -1701 1704 0
-1700 -1701 -1704 0
-1700 1701 1704 0
-1701 1702 1703 0
1701 -1702 0
1701 -1703 0
1702 -1443 -1458 0
-1702 1443 0
-1702 1458 0
1703 -1310 -1442 0
-1703 1310 0
-1703 1442 0
1704 1705 -1723 0
1704 -1705 1723 0
-1704 -1705 -1723 0
-1704 1705 1723 0
-1705 1706 1709 0
-1705 -1706 -1709 0
1705 -1706 1709 0
1705 1706 -1709 0
-1706 1707 1708 0
1706 -1707 0
1706 -1708 0
1707 -1445 -1449 0
-1707 1445 0
-1707 1449 0
1708 -1444 -1455 0
-1708 1444 0
-1708 1455 0
-1709 1710 1714 0
-1709 -1710 -1714 0
1709 -1710 1714 0
1709 1710 -1714 0
1710 -425 1711 0
1710 425 -1711 0
-1710 425 1711 0
-1710 -425 -1711 0
-1711 -1275 1712 1713 0
-1711 1335 1712 1713 0
1711 -1712 0
1711 -1713 0
1711 1275 -1335 0
-1712 1279 1332 0
-1712 1283 1334 0
-1712 1279 1283 0
-1712 1332 1334 0
1712 -1279 -1334 0
1712 -1283 -1332 0
1713 -1328 1392 0
-1713 1328 0
-1713 -1392 0
-1714 1715 1719 0
-1714 -1715 -1719 0
1714 -1715 1719 0
1714 1715 -1719 0
-1715 1716 1718 0
1715 -1716 0
1715 -1718 0
1716 -1450 -1717 0
-1716 1450 0
-1716 1717 0
1717 -351 -1300 0
-1717 351 0
-1717 1300 0
1718 351 -1450 -1451 0
1718 -351 -1300 1450 -1451 0
1718 1300 -1450 -1451 0
-1718 1300 1450 0
-1718 -351 -1300 -1450 0
-1718 1451 0
-1718 351 1450 0
-1719 351 1720 0
-1719 -1299 1720 0
-1719 -351 1299 -1720 0
1719 -1299 -1720 0
1719 -351 1299 1720 0
1719 351 -1720 0
-1720 -1296 1721 1722 0
-1720 1373 1721 1722 0
1720 -1721 0
1720 -1722 0
1720 1296 -1373 0
-1721 1322 1323 0
-1721 1288 1292 0
-1721 1292 1323 0
-1721 1288 1322 0
1721 -1292 -1322 0
1721 -1288 -1323 0
1722 -1325 -1336 0
-1722 1325 0
-1722 1336 0
1723 602 -1724 0
1723 -602 1724 0
-1723 -602 -1724 0
-1723 602 1724 0
1724 -1725 0
1724 -1384 -1480 0
-1724 1480 1725 0
-1724 1384 1725 0
-1725 1377 1726 0
-1725 1256 1726 0
1725 -1726 0
1725 -1256 -1377 0
-1726 1381 1382 0
-1726 1267 1271 0
-1726 1271 1382 0
-1726 1267 1381 0
1726 -1271 -1381 0
1726 -1267 -1382 0
1727 202 -1728 0
1727 -202 1728 0
-1727 -202 -1728 0
-1727 202 1728 0
1728 -1729 0
1728 -1558 -1737 0
-1728 1558 1729 0
-1728 1729 1737 0
-1729 1730 1736 0
-1729 1563 1736 0
1729 -1736 0
1729 -1563 -1730 0
-1730 -1731 -1735 0
-1730 1731 1735 0
1730 1731 -1735 0
1730 -1731 1735 0
-1731 132 160 167 1732 0
1731 -1732 0
1731 -167 0
1731 -132 0
1731 -160 0
-1732 278 287 324 1733 0
1732 -1733 0
1732 -278 0
1732 -324 0
1732 -287 0
-1733 343 1734 0
1733 -343 0
1733 -1734 0
-1734 101 250 336 0
1734 -336 0
1734 -250 0
1734 -101 0
1735 -1565 1583 0
-1735 1565 0
-1735 -1583 0
-1736 1564 1589 0
-1736 -1591 1592 0
-1736 1589 1592 0
-1736 1564 -1591 0
1736 -1564 -1592 0
1736 -1589 1591 0
1737 1738 -1741 0
1737 -1738 1741 0
-1737 -1738 -1741 0
-1737 1738 1741 0
-1738 1739 1740 0
1738 -1739 0
1738 -1740 0
1739 -1564 1591 0
-1739 1564 0
-1739 -1591 0
1740 -1594 1605 0
-1740 1594 0
-1740 -1605 0
1741 -1564 1730 0
1741 1564 -1730 0
-1741 1564 1730 0
-1741 -1564 -1730 0
1742 -1743 -1769 0
-1742 1743 0
-1742 1769 0
-1743 1758 1760 0
-1743 1744 1758 0
-1743 1744 1760 0
1743 -1744 -1758 0
1743 -1758 -1760 0
1743 -1744 -1760 0
-1744 238 243 323 1745 0
1744 -1745 0
1744 -323 0
1744 -238 0
1744 -243 0
-1745 100 209 307 1746 0
1745 -1746 0
1745 -307 0
1745 -100 0
1745 -209 0
-1746 86 182 232 1747 0
1746 -1747 0
1746 -232 0
1746 -86 0
1746 -182 0
-1747 594 1230 1748 1754 0
1747 -1754 0
1747 -594 0
1747 -1748 0
1747 -1230 0
-1748 20 95 263 1749 0
1748 -1749 0
1748 -263 0
1748 -20 0
1748 -95 0
-1749 83 222 1750 0
1749 -1750 0
1749 -222 0
1749 -83 0
-1750 91 104 131 1751 0
1750 -1751 0
1750 -131 0
1750 -91 0
1750 -104 0
-1751 497 1752 0
1751 -497 0
1751 -1752 0
-1752 108 208 1753 0
1752 -1753 0
1752 -208 0
1752 -108 0
-1753 60 349 471 0
1753 -60 0
1753 -471 0
1753 -349 0
-1754 210 295 490 1755 0
1754 -210 0
1754 -1755 0
1754 -490 0
1754 -295 0
-1755 155 304 325 1756 0
1755 -1756 0
1755 -325 0
1755 -155 0
1755 -304 0
-1756 183 339 371 1757 0
1756 -1757 0
1756 -371 0
1756 -183 0
1756 -339 0
-1757 157 267 346 664 0
1757 -157 0
1757 -664 0
1757 -346 0
1757 -267 0
1758 -190 1556 1607 0
1758 -190 -1556 -1607 0
1758 1607 -1759 0
1758 190 1556 -1607 0
-1758 -190 1556 -1607 0
-1758 -1556 1607 1759 0
-1758 190 -1556 -1607 0
-1758 190 1607 1759 0
1759 -1556 189 0
-1759 1556 0
-1759 -189 0
1760 -1616 1689 -1761 0
1760 -217 1616 -1689 0
1760 -217 -1616 1689 0
1760 1616 -1689 -1761 0
-1760 1616 1689 0
-1760 -1616 -1689 0
-1760 217 1761 0
-1761 121 159 160 1762 0
1761 -1762 0
1761 -160 0
1761 -121 0
1761 -159 0
-1762 104 227 293 1763 0
1762 -1763 0
1762 -293 0
1762 -104 0
1762 -227 0
-1763 1181 1764 1767 1768 0
1763 -1768 0
1763 -1181 0
1763 -1767 0
1763 -1764 0
-1764 259 334 1765 0
1764 -1765 0
1764 -334 0
1764 -259 0
-1765 96 344 1151 1766 0
1765 -96 0
1765 -1766 0
1765 -1151 0
1765 -344 0
-1766 283 1139 0
1766 -283 0
1766 -1139 0
-1767 86 109 237 502 0
1767 -86 0
1767 -502 0
1767 -237 0
1767 -109 0
-1768 242 653 1216 1218 0
1768 -1218 0
1768 -242 0
1768 -1216 0
1768 -653 0
-1769 -19 -187 0
-1769 19 187 0
1769 19 -187 0
1769 -19 187 0
1770 -1771 1832 0
1770 1771 -1832 0
-1770 1771 1832 0
-1770 -1771 -1832 0
1771 -1772 1829 0
1771 1772 -1829 0
-1771 1772 1829 0
-1771 -1772 -1829 0
-1772 1773 1792 0
-1772 -1773 -1792 0
1772 -1773 1792 0
1772 1773 -1792 0
-1773 202 1774 0
-1773 -202 -1774 0
1773 -202 1774 0
1773 202 -1774 0
-1774 -1775 1785 1786 0
-1774 1563 1785 1786 0
1774 -1785 0
1774 -1786 0
1774 -1563 1775 0
-1775 -1776 -1777 0
-1775 1776 1777 0
1775 1776 -1777 0
1775 -1776 1777 0
1776 1731 -1735 0
-1776 -1731 0
-1776 1735 0
1777 80 149 166 -1778 0
-1777 1778 0
-1777 -166 0
-1777 -80 0
-1777 -149 0
1778 127 159 375 -1779 0
-1778 1779 0
-1778 -375 0
-1778 -127 0
-1778 -159 0
1779 164 227 1214 -1780 0
-1779 -164 0
-1779 1780 0
-1779 -1214 0
-1779 -227 0
1780 230 -667 1781 1784 0
-1780 -1784 0
-1780 -230 0
-1780 -1781 0
-1780 667 0
-1781 146 304 321 1782 0
1781 -1782 0
1781 -321 0
1781 -146 0
1781 -304 0
-1782 67 222 252 1783 0
1782 -1783 0
1782 -252 0
1782 -67 0
1782 -222 0
-1783 177 391 0
1783 -177 0
1783 -391 0
-1784 256 319 0
1784 -256 0
1784 -319 0
-1785 1564 1730 0
-1785 1589 1592 0
-1785 1589 1730 0
-1785 1564 1592 0
1785 -1564 -1589 0
1785 -1592 -1730 0
1786 -1558 1787 0
-1786 1558 0
-1786 -1787 0
-1787 1788 1791 0
-1787 -1788 -1791 0
1787 -1788 1791 0
1787 1788 -1791 0
-1788 1789 1790 0
1788 -1789 0
1788 -1790 0
1789 -1564 -1730 0
-1789 1564 0
-1789 1730 0
1790 -1738 -1741 0
-1790 1738 0
-1790 1741 0
-1791 1730 1775 0
-1791 -1730 -1775 0
1791 -1730 1775 0
1791 1730 -1775 0
-1792 1793 1796 0
-1792 -1793 -1796 0
1792 -1793 1796 0
1792 1793 -1796 0
-1793 1794 1795 0
1793 -1794 0
1793 -1795 0
1794 -1696 -1700 0
-1794 1696 0
-1794 1700 0
1795 -1692 -1695 0
-1795 1692 0
-1795 1695 0
-1796 -1797 -1825 0
-1796 1797 1825 0
1796 1797 -1825 0
1796 -1797 1825 0
1797 -1798 1822 0
1797 1798 -1822 0
-1797 1798 1822 0
-1797 -1798 -1822 0
-1798 1799 1803 0
-1798 -1799 -1803 0
1798 -1799 1803 0
1798 1799 -1803 0
-1799 602 1800 0
-1799 -602 -1800 0
1799 -602 1800 0
1799 602 -1800 0
-1800 -1257 1801 1802 0
-1800 1377 1801 1802 0
1800 -1801 0
1800 -1802 0
1800 1257 -1377 0
-1801 1256 1381 0
-1801 1267 1382 0
-1801 1256 1267 0
-1801 1381 1382 0
1801 -1256 -1382 0
1801 -1267 -1381 0
1802 -1384 1470 0
-1802 1384 0
-1802 -1470 0
-1803 1804 1806 0
-1803 -1804 -1806 0
1803 -1804 1806 0
1803 1804 -1806 0
-1804 1706 1805 0
-1804 1805 1709 0
1804 -1805 0
1804 -1706 -1709 0
1805 -1710 -1714 0
-1805 1710 0
-1805 1714 0
-1806 -1807 -1818 0
-1806 1807 1818 0
1806 1807 -1818 0
1806 -1807 1818 0
1807 1808 -1813 0
1807 -1808 1813 0
-1807 -1808 -1813 0
-1807 1808 1813 0
-1808 1809 1812 0
1808 -1809 0
1808 -1812 0
1809 -1810 1811 0
-1809 1810 0
-1809 -1811 0
1810 -351 -1299 0
-1810 351 0
-1810 1299 0
1811 -351 -1720 0
-1811 351 0
-1811 1720 0
1812 -1715 -1719 0
-1812 1715 0
-1812 1719 0
1813 1814 -1817 0
1813 -1814 1817 0
-1813 -1814 -1817 0
-1813 1814 1817 0
-1814 1283 1815 1816 0
-1814 1323 1815 1816 0
1814 -1815 0
1814 -1816 0
1814 -1283 -1323 0
-1815 1292 1322 0
-1815 1288 1373 0
-1815 1322 1373 0
-1815 1288 1292 0
1815 -1288 -1322 0
1815 -1292 -1373 0
1816 -1325 -1366 0
-1816 1325 0
-1816 1366 0
1817 -351 -1296 0
-1817 351 0
-1817 1296 0
1818 425 -1819 0
1818 -425 1819 0
-1818 -425 -1819 0
-1818 425 1819 0
1819 -1820 0
1819 -1328 1383 0
-1819 -1383 1820 0
-1819 1328 1820 0
-1820 1335 1821 0
-1820 1271 1821 0
1820 -1821 0
1820 -1271 -1335 0
-1821 -1275 1332 0
-1821 1279 1334 0
-1821 -1275 1279 0
-1821 1332 1334 0
1821 1275 -1334 0
1821 -1279 -1332 0
-1822 1823 1824 0
1822 -1823 0
1822 -1824 0
1823 -1705 -1723 0
-1823 1705 0
-1823 1723 0
1824 -1701 -1704 0
-1824 1701 0
-1824 1704 0
1825 193 -1826 0
1825 -193 1826 0
-1825 -193 -1826 0
-1825 193 1826 0
1826 -1827 0
1826 -1260 1614 0
-1826 -1614 1827 0
-1826 1260 1827 0
-1827 -1591 1828 0
-1827 196 1828 0
1827 -1828 0
1827 -196 1591 0
-1828 203 1590 0
-1828 1255 1258 0
-1828 1255 1590 0
-1828 203 1258 0
1828 -203 -1255 0
1828 -1258 -1590 0
-1829 1830 1831 0
1829 -1830 0
1829 -1831 0
1830 -1691 -1727 0
-1830 1691 0
-1830 1727 0
1831 -188 -1690 0
-1831 188 0
-1831 1690 0
-1832 101 183 247 1833 0
1832 -1833 0
1832 -247 0
1832 -101 0
1832 -183 0
-1833 143 405 413 1834 0
1833 -1834 0
1833 -143 0
1833 -413 0
1833 -405 0
-1834 497 817 1155 1835 0
1834 -1835 0
1834 -497 0
1834 -1155 0
1834 -817 0
-1835 177 644 0
1835 -177 0
1835 -644 0
-1836 1743 1769 0
-1836 -1743 -1769 0
1836 -1743 1769 0
1836 1743 -1769 0
1837 1838 -3722 0
1837 -1838 3722 0
-1837 -1838 -3722 0
-1837 1838 3722 0
1838 1839 -3658 0
1838 -1839 3658 0
-1838 -1839 -3658 0
-1838 1839 3658 0
-1839 1840 3634 0
1839 -1840 0
1839 -3634 0
1840 -1841 -2025 0
-1840 1841 0
-1840 2025 0
-1841 1842 1934 1944 1992 0
1841 -1992 0
1841 -1842 0
1841 -1944 0
1841 -1934 0
-1842 1843 1910 1925 1930 0
1842 -1930 0
1842 -1843 0
1842 -1925 0
1842 -1910 0
-1843 1844 1883 1889 1895 0
1843 -1895 0
1843 -1889 0
1843 -1844 0
1843 -1883 0
1844 -1845 1872 0
-1844 1845 0
-1844 -1872 0
1845 -1846 -1870 0
-1845 1846 0
-1845 1870 0
1846 -1847 1867 0
-1846 1847 0
-1846 -1867 0
-1847 -5372 -1848 0
-1847 5372 1848 0
1847 5372 -1848 0
1847 -5372 1848 0
1848 5374 -1849 0
-1848 -5374 0
-1848 1849 0
-1849 5371 1850 0
1849 -5371 0
1849 -1850 0
-1850 5370 1851 0
1850 -5370 0
1850 -1851 0
-1851 5369 1852 0
1851 -5369 0
1851 -1852 0
-1852 5368 1853 0
1852 -5368 0
1852 -1853 0
-1853 5367 1854 0
1853 -5367 0
1853 -1854 0
-1854 5366 1855 0
1854 -5366 0
1854 -1855 0
-1855 5365 1856 0
1855 -5365 0
1855 -1856 0
-1856 5364 1857 0
1856 -5364 0
1856 -1857 0
-1857 5363 1858 0
1857 -5363 0
1857 -1858 0
-1858 5362 1859 0
1858 -5362 0
1858 -1859 0
-1859 5361 1860 0
1859 -5361 0
1859 -1860 0
-1860 5360 1861 0
1860 -5360 0
1860 -1861 0
-1861 5359 1862 0
1861 -5359 0
1861 -1862 0
-1862 5358 1863 0
1862 -5358 0
1862 -1863 0
-1863 5357 1864 0
1863 -5357 0
1863 -1864 0
-1864 5356 1865 0
1864 -5356 0
1864 -1865 0
-1865 5354 5355 1866 0
1865 -1866 0
1865 -5355 0
1865 -5354 0
-1866 5352 5353 0
1866 -5352 0
1866 -5353 0
1867 5373 -1868 0
1867 -5373 1868 0
-1867 -5373 -1868 0
-1867 5373 1868 0
1868 5374 -1869 0
-1868 -5374 0
-1868 1869 0
-1869 5372 1849 0
1869 -5372 0
1869 -1849 0
-1870 -5367 -1871 0
-1870 5367 1871 0
1870 5367 -1871 0
1870 -5367 1871 0
1871 5374 -1854 0
-1871 -5374 0
-1871 1854 0
-1872 1873 1878 0
1872 -1873 0
1872 -1878 0
-1873 1874 1876 0
1873 -1874 0
1873 -1876 0
-1874 -5369 -1875 0
-1874 5369 1875 0
1874 5369 -1875 0
1874 -5369 1875 0
1875 5374 -1852 0
-1875 -5374 0
-1875 1852 0
-1876 -5368 -1877 0
-1876 5368 1877 0
1876 5368 -1877 0
1876 -5368 1877 0
1877 5374 -1853 0
-1877 -5374 0
-1877 1853 0
-1878 1879 1881 0
1878 -1879 0
1878 -1881 0
-1879 -5371 -1880 0
-1879 5371 1880 0
1879 5371 -1880 0
1879 -5371 1880 0
1880 5374 -1850 0
-1880 -5374 0
-1880 1850 0
-1881 -5370 -1882 0
-1881 5370 1882 0
1881 5370 -1882 0
1881 -5370 1882 0
1882 5374 -1851 0
-1882 -5374 0
-1882 1851 0
1883 -1884 -1886 0
-1883 1884 0
-1883 1886 0
1884 -1870 -1885 0
-1884 1870 0
-1884 1885 0
1885 -1847 -1867 0
-1885 1847 0
-1885 1867 0
1886 -1887 -1888 0
-1886 1887 0
-1886 1888 0
1887 1874 -1876 0
-1887 -1874 0
-1887 1876 0
1888 -1879 -1881 0
-1888 1879 0
-1888 1881 0
1889 -1890 -1892 0
-1889 1890 0
-1889 1892 0
1890 1870 -1891 0
-1890 -1870 0
-1890 1891 0
1891 1847 -1867 0
-1891 -1847 0
-1891 1867 0
1892 -1893 -1894 0
-1892 1893 0
-1892 1894 0
1893 -1879 1881 0
-1893 1879 0
-1893 -1881 0
1894 -1874 -1876 0
-1894 1874 0
-1894 1876 0
-1895 1896 1903 1909 0
1895 -1896 0
1895 -1903 0
1895 -1909 0
-1896 1897 1900 0
1896 -1897 0
1896 -1900 0
1897 -1890 -1898 0
-1897 1890 0
-1897 1898 0
1898 1873 -1899 0
-1898 -1873 0
-1898 1899 0
1899 1879 -1881 0
-1899 -1879 0
-1899 1881 0
1900 1870 -1901 0
-1900 -1870 0
-1900 1901 0
1901 -1885 -1902 0
-1901 1885 0
-1901 1902 0
1902 1873 -1888 0
-1902 -1873 0
-1902 1888 0
-1903 1904 1907 0
1903 -1904 0
1903 -1907 0
1904 1870 -1905 0
-1904 -1870 0
-1904 1905 0
1905 -1892 1906 0
-1905 1892 0
-1905 -1906 0
-1906 1847 1867 0
1906 -1847 0
1906 -1867 0
1907 -1845 -1908 0
-1907 1845 0
-1907 1908 0
1908 -1887 -1893 0
-1908 1887 0
-1908 1893 0
1909 -1870 -1901 0
-1909 1870 0
-1909 1901 0
-1910 1911 1916 1918 1921 0
1910 -1921 0
1910 -1918 0
1910 -1911 0
1910 -1916 0
-1911 1912 1914 0
1911 -1912 0
1911 -1914 0
1912 -1884 -1913 0
-1912 1884 0
-1912 1913 0
1913 1878 -1887 0
-1913 -1878 0
-1913 1887 0
1914 1870 -1915 0
-1914 -1870 0
-1914 1915 0
1915 -1846 -1892 0
-1915 1846 0
-1915 1892 0
1916 -1898 -1917 0
-1916 1898 0
-1916 1917 0
1917 -1870 -1891 0
-1917 1870 0
-1917 1891 0
1918 -1919 -1920 0
-1918 1919 0
-1918 1920 0
1919 1870 -1885 0
-1919 -1870 0
-1919 1885 0
1920 -1888 -1894 0
-1920 1888 0
-1920 1894 0
1921 -1870 -1922 0
-1921 1870 0
-1921 1922 0
1922 -1891 -1923 0
-1922 1891 0
-1922 1923 0
1923 -1893 -1924 0
-1923 1893 0
-1923 1924 0
1924 -1874 1876 0
-1924 1874 0
-1924 -1876 0
-1925 1926 1927 0
1925 -1926 0
1925 -1927 0
1926 -1902 -1917 0
-1926 1902 0
-1926 1917 0
1927 1870 -1928 0
-1927 -1870 0
-1927 1928 0
1928 -1885 -1929 0
-1928 1885 0
-1928 1929 0
1929 1878 -1894 0
-1929 -1878 0
-1929 1894 0
-1930 1931 1933 0
1930 -1931 0
1930 -1933 0
1931 -1886 -1932 0
-1931 1886 0
-1931 1932 0
1932 -1846 1870 0
-1932 1846 0
-1932 -1870 0
1933 -1892 -1917 0
-1933 1892 0
-1933 1917 0
-1934 1935 1936 1937 1943 0
1934 -1935 0
1934 -1943 0
1934 -1937 0
1934 -1936 0
1935 -1908 -1917 0
-1935 1908 0
-1935 1917 0
1936 -1845 -1898 0
-1936 1845 0
-1936 1898 0
-1937 1938 1941 0
1937 -1938 0
1937 -1941 0
1938 1939 -1940 0
-1938 -1939 0
-1938 1940 0
-1939 1870 1906 0
1939 -1870 0
1939 -1906 0
1940 -1888 -1924 0
-1940 1888 0
-1940 1924 0
1941 -1932 -1942 0
-1941 1932 0
-1941 1942 0
1942 1873 -1893 0
-1942 -1873 0
-1942 1893 0
1943 -1902 -1932 0
-1943 1902 0
-1943 1932 0
-1944 1945 1977 1978 1989 0
1944 -1989 0
1944 -1945 0
1944 -1978 0
1944 -1977 0
-1945 1946 1960 1963 1968 0
1945 -1968 0
1945 -1946 0
1945 -1963 0
1945 -1960 0
-1946 1947 1951 1955 0
1946 -1947 0
1946 -1951 0
1946 -1955 0
-1947 1948 1949 0
1947 -1948 0
1947 -1949 0
1948 -1845 -1940 0
-1948 1845 0
-1948 1940 0
1949 -1932 -1950 0
-1949 1932 0
-1949 1950 0
1950 -1887 -1899 0
-1950 1887 0
-1950 1899 0
-1951 1952 1953 0
1951 -1952 0
1951 -1953 0
1952 -1919 -1923 0
-1952 1919 0
-1952 1923 0
1953 1870 -1954 0
-1953 -1870 0
-1953 1954 0
1954 -1885 -1892 0
-1954 1885 0
-1954 1892 0
-1955 1956 1959 0
1955 -1956 0
1955 -1959 0
1956 -1957 -1958 0
-1956 1957 0
-1956 1958 0
1957 -1894 -1899 0
-1957 1894 0
-1957 1899 0
1958 -1870 1906 0
-1958 1870 0
-1958 -1906 0
1959 -1884 -1940 0
-1959 1884 0
-1959 1940 0
-1960 1961 1962 0
1960 -1961 0
1960 -1962 0
1961 -1884 -1957 0
-1961 1884 0
-1961 1957 0
1962 -1919 -1957 0
-1962 1919 0
-1962 1957 0
-1963 1964 1966 0
1963 -1964 0
1963 -1966 0
1964 -1870 -1965 0
-1964 1870 0
-1964 1965 0
1965 -1885 -1908 0
-1965 1885 0
-1965 1908 0
1966 -1870 -1967 0
-1966 1870 0
-1966 1967 0
1967 -1891 -1940 0
-1967 1891 0
-1967 1940 0
-1968 1969 1973 1974 0
1968 -1969 0
1968 -1973 0
1968 -1974 0
-1969 1970 1971 0
1969 -1970 0
1969 -1971 0
1970 1870 -1965 0
-1970 -1870 0
-1970 1965 0
1971 -1919 -1972 0
-1971 1919 0
-1971 1972 0
1972 -1899 -1924 0
-1972 1899 0
-1972 1924 0
1973 -1958 -1972 0
-1973 1958 0
-1973 1972 0
-1974 1975 1976 0
1974 -1975 0
1974 -1976 0
1975 -1932 -1940 0
-1975 1932 0
-1975 1940 0
1976 -1886 -1919 0
-1976 1886 0
-1976 1919 0
1977 -1884 -1923 0
-1977 1884 0
-1977 1923 0
-1978 1979 1985 1988 0
1978 -1979 0
1978 -1985 0
1978 -1988 0
-1979 1980 1982 1983 0
1979 -1980 0
1979 -1983 0
1979 -1982 0
1980 -1845 -1981 0
-1980 1845 0
-1980 1981 0
1981 1878 -1924 0
-1981 -1878 0
-1981 1924 0
1982 -1917 -1972 0
-1982 1917 0
-1982 1972 0
1983 1870 -1984 0
-1983 -1870 0
-1983 1984 0
1984 -1885 -1950 0
-1984 1885 0
-1984 1950 0
-1985 1986 1987 0
1985 -1986 0
1985 -1987 0
1986 -1890 -1942 0
-1986 1890 0
-1986 1942 0
1987 -1913 1939 0
-1987 1913 0
-1987 -1939 0
1988 -1919 -1940 0
-1988 1919 0
-1988 1940 0
-1989 1990 1991 0
1989 -1990 0
1989 -1991 0
1990 -1890 -1913 0
-1990 1890 0
-1990 1913 0
1991 -1917 -1920 0
-1991 1917 0
-1991 1920 0
-1992 1993 2019 2020 2024 0
1992 -2020 0
1992 -2024 0
1992 -1993 0
1992 -2019 0
-1993 1994 2003 2006 2011 0
1993 -2011 0
1993 -1994 0
1993 -2006 0
1993 -2003 0
-1994 1995 1998 2001 2002 0
1994 -1998 0
1994 -2002 0
1994 -1995 0
1994 -2001 0
-1995 1996 1997 0
1995 -1996 0
1995 -1997 0
1996 -1845 -1929 0
-1996 1845 0
-1996 1929 0
1997 -1940 -1958 0
-1997 1940 0
-1997 1958 0
-1998 1999 2000 0
1998 -1999 0
1998 -2000 0
1999 -1929 -1958 0
-1999 1929 0
-1999 1958 0
2000 -1958 -1981 0
-2000 1958 0
-2000 1981 0
2001 -1917 -1950 0
-2001 1917 0
-2001 1950 0
2002 -1898 -1958 0
-2002 1898 0
-2002 1958 0
-2003 2004 2005 0
2003 -2004 0
2003 -2005 0
2004 -1870 -1928 0
-2004 1870 0
-2004 1928 0
2005 -1913 -1919 0
-2005 1913 0
-2005 1919 0
-2006 2007 2008 2009 2010 0
2006 -2010 0
2006 -2009 0
2006 -2007 0
2006 -2008 0
2007 -1870 -1984 0
-2007 1870 0
-2007 1984 0
2008 -1923 -1932 0
-2008 1923 0
-2008 1932 0
2009 -1890 -1902 0
-2009 1890 0
-2009 1902 0
2010 -1884 -1972 0
-2010 1884 0
-2010 1972 0
-2011 2012 2013 2014 0
2011 -2014 0
2011 -2013 0
2011 -2012 0
2012 1870 -1967 0
-2012 -1870 0
-2012 1967 0
2013 -1908 -1958 0
-2013 1908 0
-2013 1958 0
-2014 2015 2016 2017 2018 0
2014 -2018 0
2014 -2017 0
2014 -2015 0
2014 -2016 0
2015 -1845 -1923 0
-2015 1845 0
-2015 1923 0
2016 -1884 -1942 0
-2016 1884 0
-2016 1942 0
2017 -1870 -1954 0
-2017 1870 0
-2017 1954 0
2018 -1886 -1917 0
-2018 1886 0
-2018 1917 0
2019 -1950 -1958 0
-2019 1950 0
-2019 1958 0
-2020 2021 2022 0
2020 -2021 0
2020 -2022 0
2021 -1845 -1920 0
-2021 1845 0
-2021 1920 0
2022 1870 -2023 0
-2022 -1870 0
-2022 2023 0
2023 1872 -1891 0
-2023 -1872 0
-2023 1891 0
2024 1872 -1884 0
-2024 -1872 0
-2024 1884 0
2025 2026 -3585 0
2025 -2026 3585 0
-2025 -2026 -3585 0
-2025 2026 3585 0
-2026 2027 3503 0
2026 -2027 0
2026 -3503 0
2027 -2028 -3456 0
-2027 2028 0
-2027 3456 0
2028 2029 -3413 0
2028 -2029 3413 0
-2028 -2029 -3413 0
-2028 2029 3413 0
-2029 2030 3328 0
2029 -2030 0
2029 -3328 0
2030 -2031 -3222 0
-2030 2031 0
-2030 3222 0
2031 2032 -3161 0
2031 -2032 3161 0
-2031 -2032 -3161 0
-2031 2032 3161 0
-2032 2033 3112 0
2032 -2033 0
2032 -3112 0
2033 -2034 -2948 0
-2033 2034 0
-2033 2948 0
2034 2035 -2875 0
2034 -2035 2875 0
-2034 -2035 -2875 0
-2034 2035 2875 0
-2035 2036 2816 0
2035 -2036 0
2035 -2816 0
2036 -2037 -2677 0
-2036 2037 0
-2036 2677 0
2037 -2038 -2676 0
-2037 2038 0
-2037 2676 0
-2038 -2039 -2100 0
-2038 2039 2100 0
2038 2039 -2100 0
2038 -2039 2100 0
-2039 2040 2057 2066 2090 0
2039 -2090 0
2039 -2040 0
2039 -2066 0
2039 -2057 0
-2040 1941 2041 2044 2045 0
2040 -2041 0
2040 -2044 0
2040 -1941 0
2040 -2045 0
-2041 1962 2010 2042 2043 0
2041 -2043 0
2041 -2042 0
2041 -1962 0
2041 -2010 0
2042 -1898 -1919 0
-2042 1898 0
-2042 1919 0
2043 -1890 -1908 0
-2043 1890 0
-2043 1908 0
2044 1939 -1950 0
-2044 -1939 0
-2044 1950 0
-2045 2046 2050 2052 2054 0
2045 -2054 0
2045 -2046 0
2045 -2052 0
2045 -2050 0
-2046 2047 2048 2049 0
2046 -2047 0
2046 -2049 0
2046 -2048 0
2047 -1845 -1972 0
-2047 1845 0
-2047 1972 0
2048 -1908 1939 0
-2048 1908 0
-2048 -1939 0
2049 -1917 -1957 0
-2049 1917 0
-2049 1957 0
-2050 1977 2017 2051 0
2050 -1977 0
2050 -2051 0
2050 -2017 0
2051 -1884 -1920 0
-2051 1884 0
-2051 1920 0
-2052 1931 2053 0
2052 -1931 0
2052 -2053 0
2053 -1870 -2023 0
-2053 1870 0
-2053 2023 0
-2054 2013 2055 0
2054 -2013 0
2054 -2055 0
2055 -1870 -2056 0
-2055 1870 0
-2055 2056 0
2056 -1891 -1929 0
-2056 1891 0
-2056 1929 0
-2057 2058 2060 2064 2065 0
2057 -2065 0
2057 -2058 0
2057 -2064 0
2057 -2060 0
-2058 1933 1935 2008 2059 0
2058 -2059 0
2058 -2008 0
2058 -1933 0
2058 -1935 0
2059 -1913 -1958 0
-2059 1913 0
-2059 1958 0
-2060 1909 2061 2062 2063 0
2060 -2063 0
2060 -2062 0
2060 -1909 0
2060 -2061 0
2061 -1908 -1932 0
-2061 1908 0
-2061 1932 0
2062 1870 -2056 0
-2062 -1870 0
-2062 2056 0
2063 -1886 1939 0
-2063 1886 0
-2063 -1939 0
-2064 1938 2002 0
2064 -1938 0
2064 -2002 0
-2065 1917 1990 0
-2065 1886 1981 1990 0
2065 -1990 0
2065 -1917 -1981 0
2065 -1886 -1917 0
-2066 2067 2069 2071 2079 0
2066 -2079 0
2066 -2067 0
2066 -2071 0
2066 -2069 0
-2067 1900 1918 1988 2068 0
2067 -2068 0
2067 -1988 0
2067 -1900 0
2067 -1918 0
2068 -1845 -1886 0
-2068 1845 0
-2068 1886 0
-2069 2000 2070 0
2069 -2000 0
2069 -2070 0
2070 1939 -1972 0
-2070 -1939 0
-2070 1972 0
-2071 1956 2072 2077 0
2071 -2077 0
2071 -2072 0
2071 -1956 0
-2072 2073 2074 0
2072 -2073 0
2072 -2074 0
2073 -1913 -1932 0
-2073 1913 0
-2073 1932 0
-2074 2075 2076 0
2074 -2075 0
2074 -2076 0
2075 -1890 -1972 0
-2075 1890 0
-2075 1972 0
2076 -1845 -1913 0
-2076 1845 0
-2076 1913 0
-2077 1973 2078 0
2077 -1973 0
2077 -2078 0
2078 -1845 -1942 0
-2078 1845 0
-2078 1942 0
-2079 2080 2085 2087 0
2079 -2080 0
2079 -2085 0
2079 -2087 0
-2080 2081 2082 2083 2084 0
2080 -2082 0
2080 -2084 0
2080 -2081 0
2080 -2083 0
2081 1872 -1932 0
-2081 -1872 0
-2081 1932 0
-2082 1983 2024 0
2082 -1983 0
2082 -2024 0
2083 1872 -1919 0
-2083 -1872 0
-2083 1919 0
2084 -1845 -1902 0
-2084 1845 0
-2084 1902 0
-2085 1844 2086 0
2085 -1844 0
2085 -2086 0
-2086 1916 2001 0
2086 -1916 0
2086 -2001 0
-2087 1966 2088 2089 0
2087 -1966 0
2087 -2088 0
2087 -2089 0
-2088 1975 1986 0
2088 -1975 0
2088 -1986 0
2089 -1845 -1950 0
-2089 1845 0
-2089 1950 0
-2090 1921 2091 2096 2097 0
2090 -2091 0
2090 -2096 0
2090 -1921 0
2090 -2097 0
-2091 2005 2092 2094 2095 0
2091 -2092 0
2091 -2095 0
2091 -2005 0
2091 -2094 0
-2092 1889 2093 0
2092 -1889 0
2092 -2093 0
2093 -1902 1939 0
-2093 1902 0
-2093 -1939 0
2094 1870 -1922 0
-2094 -1870 0
-2094 1922 0
2095 1872 -1958 0
-2095 -1872 0
-2095 1958 0
2096 -1898 1939 0
-2096 1898 0
-2096 -1939 0
-2097 1914 2098 2099 0
2097 -1914 0
2097 -2099 0
2097 -2098 0
2098 -1932 -1981 0
-2098 1932 0
-2098 1981 0
2099 -1886 -1890 0
-2099 1886 0
-2099 1890 0
2100 2101 -2552 0
2100 -2101 2552 0
-2100 -2101 -2552 0
-2100 2101 2552 0
-2101 2102 2522 0
-2101 -2102 -2522 0
2101 -2102 2522 0
2101 2102 -2522 0
-2102 2103 2493 0
2102 -2103 0
2102 -2493 0
2103 -2104 2457 0
-2103 2104 0
-2103 -2457 0
-2104 2105 2399 0
2104 -2105 0
2104 -2399 0
2105 -2106 -2158 0
-2105 2106 0
-2105 2158 0
2106 -2107 -2156 0
-2106 2107 0
-2106 2156 0
2107 -2108 2155 0
-2107 2108 0
-2107 -2155 0
-2108 2109 2139 0
2108 -2109 0
2108 -2139 0
-2109 2110 2123 2124 2125 0
2109 -2125 0
2109 -2110 0
2109 -2124 0
2109 -2123 0
-2110 1905 2093 2111 2122 0
2110 -1905 0
2110 -2122 0
2110 -2111 0
2110 -2093 0
-2111 2085 2112 2113 2115 0
2111 -2115 0
2111 -2085 0
2111 -2113 0
2111 -2112 0
-2112 1938 2063 0
2112 -1938 0
2112 -2063 0
-2113 1897 2114 0
2113 -1897 0
2113 -2114 0
2114 -1890 -1950 0
-2114 1890 0
-2114 1950 0
-2115 2116 2119 2120 2121 0
2115 -2119 0
2115 -2121 0
2115 -2116 0
2115 -2120 0
-2116 2117 2118 0
2116 -2117 0
2116 -2118 0
2117 -1902 -1958 0
-2117 1902 0
-2117 1958 0
2118 -1886 -1958 0
-2118 1886 0
-2118 1958 0
-2119 1997 2081 0
2119 -1997 0
2119 -2081 0
2120 -1920 1939 0
-2120 1920 0
-2120 -1939 0
2121 -1920 -1958 0
-2121 1920 0
-2121 1958 0
2122 -1923 -1958 0
-2122 1923 0
-2122 1958 0
2123 -1942 -1958 0
-2123 1942 0
-2123 1958 0
-2124 -1906 0
-2124 1908 1923 0
-2124 -1870 1908 0
2124 1906 -1908 0
2124 1870 1906 -1923 0
-2125 2126 2128 2134 2137 0
2125 -2137 0
2125 -2126 0
2125 -2134 0
2125 -2128 0
-2126 2055 2127 0
2126 -2055 0
2126 -2127 0
2127 -1890 -1981 0
-2127 1890 0
-2127 1981 0
-2128 1943 2023 2129 2132 0
2128 -1943 0
2128 -2132 0
2128 -2129 0
2128 -2023 0
-2129 2130 2131 0
2129 -2130 0
2129 -2131 0
2130 -1917 -1981 0
-2130 1917 0
-2130 1981 0
2131 -1913 -1917 0
-2131 1913 0
-2131 1917 0
-2132 2075 2133 0
2132 -2075 0
2132 -2133 0
2133 -1920 -1932 0
-2133 1920 0
-2133 1932 0
-2134 1915 1948 2135 0
2134 -2135 0
2134 -1948 0
2134 -1915 0
-2135 1931 2136 0
2135 -1931 0
2135 -2136 0
-2136 2068 2084 0
2136 -2068 0
2136 -2084 0
-2137 1990 2015 2062 2138 0
2137 -2138 0
2137 -2062 0
2137 -1990 0
2137 -2015 0
-2138 1975 2021 0
2138 -1975 0
2138 -2021 0
-2139 2140 2149 0
2139 -2140 0
2139 -2149 0
-2140 2086 2113 2125 2141 0
2140 -2141 0
2140 -2086 0
2140 -2125 0
2140 -2113 0
-2141 2142 2145 2146 0
2141 -2142 0
2141 -2145 0
2141 -2146 0
-2142 2047 2061 2078 2143 0
2142 -2143 0
2142 -2078 0
2142 -2047 0
2142 -2061 0
-2143 2008 2144 0
2143 -2008 0
2143 -2144 0
2144 -1845 -1957 0
-2144 1845 0
-2144 1957 0
-2145 1907 1941 0
2145 -1907 0
2145 -1941 0
-2146 2089 2147 2148 0
2146 -2089 0
2146 -2148 0
2146 -2147 0
2147 -1932 -1957 0
-2147 1932 0
-2147 1957 0
2148 -1932 -1972 0
-2148 1932 0
-2148 1972 0
-2149 1949 2150 0
2149 -1949 0
2149 -2150 0
-2150 1980 1996 2151 2154 0
2150 -1980 0
2150 -2154 0
2150 -2151 0
2150 -1996 0
-2151 2076 2098 2152 2153 0
2151 -2076 0
2151 -2153 0
2151 -2152 0
2151 -2098 0
-2152 1936 2073 0
2152 -1936 0
2152 -2073 0
2153 -1929 -1932 0
-2153 1929 0
-2153 1932 0
2154 -1898 -1932 0
-2154 1898 0
-2154 1932 0
2155 -2109 -2139 0
-2155 2109 0
-2155 2139 0
-2156 -5355 -2157 0
-2156 5355 2157 0
2156 5355 -2157 0
2156 -5355 2157 0
2157 5374 -1866 0
2157 -5354 5374 0
-2157 -5374 0
-2157 5354 1866 0
-2158 2159 2364 0
2158 -2159 0
2158 -2364 0
2159 -2160 -2274 0
-2159 2160 0
-2159 2274 0
2160 2161 2264 -2268 0
2160 -2264 2266 -2268 0
-2160 2268 0
-2160 -2264 -2266 0
-2160 -2161 2264 0
2161 -2162 -2229 0
-2161 2162 0
-2161 2229 0
-2162 2163 2198 0
2162 -2163 0
2162 -2198 0
2163 1980 2164 -2172 2186 0
-2163 -1980 0
-2163 -2186 0
-2163 2172 0
-2163 -2164 0
-2164 1918 2165 2167 2169 0
2164 -1918 0
2164 -2169 0
2164 -2167 0
2164 -2165 0
-2165 1947 2072 2166 0
2165 -1947 0
2165 -2072 0
2165 -2166 0
2166 -1890 -1957 0
-2166 1890 0
-2166 1957 0
-2167 2012 2053 2168 0
2167 -2012 0
2167 -2168 0
2167 -2053 0
2168 1939 -1981 0
-2168 -1939 0
-2168 1981 0
-2169 2021 2060 2122 2170 0
2169 -2060 0
2169 -2122 0
2169 -2021 0
2169 -2170 0
-2170 2016 2051 2099 2171 0
2170 -2171 0
2170 -2099 0
2170 -2016 0
2170 -2051 0
-2171 2005 2042 0
2171 -2005 0
2171 -2042 0
2172 -2173 2175 2178 2183 0
-2172 -2183 0
-2172 2173 0
-2172 -2178 0
-2172 -2175 0
2173 1935 -2174 0
-2173 -1935 0
-2173 2174 0
-2174 1872 1939 0
2174 -1872 0
2174 -1939 0
-2175 2009 2126 2176 2177 0
2175 -2009 0
2175 -2177 0
2175 -2176 0
2175 -2126 0
-2176 2095 2098 2123 2144 0
2176 -2144 0
2176 -2123 0
2176 -2095 0
2176 -2098 0
-2177 1883 2024 0
2177 -1883 0
2177 -2024 0
-2178 1966 1971 2179 2182 0
2178 -1966 0
2178 -2182 0
2178 -2179 0
2178 -1971 0
-2179 2180 2181 0
2179 -2180 0
2179 -2181 0
2180 -1884 -1981 0
-2180 1884 0
-2180 1981 0
2181 -1884 -1898 0
-2181 1884 0
-2181 1898 0
2182 -1917 -1942 0
-2182 1917 0
-2182 1942 0
-2183 1915 2184 2185 0
2183 -2185 0
2183 -2184 0
2183 -1915 0
-2184 1997 2015 0
2184 -1997 0
2184 -2015 0
-2185 1922 1936 0
2185 -1922 0
2185 -1936 0
-2186 2187 2189 2195 2196 0
2186 -2196 0
2186 -2187 0
2186 -2195 0
2186 -2189 0
-2187 1927 2188 0
2187 -1927 0
2187 -2188 0
2188 1939 -1957 0
-2188 -1939 0
-2188 1957 0
-2189 1896 2043 2190 2194 0
2189 -2194 0
2189 -1896 0
2189 -2190 0
2189 -2043 0
-2190 1916 1961 2191 2193 0
2190 -1916 0
2190 -2193 0
2190 -2191 0
2190 -1961 0
-2191 2078 2084 2192 0
2191 -2192 0
2191 -2084 0
2191 -2078 0
-2192 1943 2047 0
2192 -1943 0
2192 -2047 0
2193 -1870 -1905 0
-2193 1870 0
-2193 1905 0
-2194 2019 2130 0
2194 -2019 0
2194 -2130 0
-2195 1984 2069 2120 0
2195 -1984 0
2195 -2069 0
2195 -2120 0
-2196 1931 2197 0
2196 -1931 0
2196 -2197 0
-2197 2013 2096 0
2197 -2013 0
2197 -2096 0
2198 2199 -2210 2222 2225 0
-2198 -2225 0
-2198 -2199 0
-2198 -2222 0
-2198 2210 0
-2199 1952 2200 2208 2209 0
2199 -1952 0
2199 -2209 0
2199 -2208 0
2199 -2200 0
-2200 2044 2201 2203 2206 0
2200 -2044 0
2200 -2206 0
2200 -2203 0
2200 -2201 0
-2201 1959 2181 2202 0
2201 -1959 0
2201 -2202 0
2201 -2181 0
2202 1939 -1942 0
-2202 -1939 0
-2202 1942 0
-2203 2010 2051 2129 2204 0
2203 -2010 0
2203 -2204 0
2203 -2129 0
2203 -2051 0
-2204 2197 2205 0
2204 -2197 0
2204 -2205 0
-2205 1909 1935 0
2205 -1909 0
2205 -1935 0
-2206 2022 2153 2207 0
2206 -2207 0
2206 -2153 0
2206 -2022 0
-2207 1962 2016 2118 0
2207 -1962 0
2207 -2118 0
2207 -2016 0
-2208 2007 2049 0
2208 -2007 0
2208 -2049 0
-2209 1907 1918 1988 2183 0
2209 -2183 0
2209 -1988 0
2209 -1907 0
2209 -1918 0
2210 2211 2216 2218 -2220 0
-2210 2220 0
-2210 -2211 0
-2210 -2218 0
-2210 -2216 0
-2211 2024 2092 2212 2213 0
2211 -2024 0
2211 -2213 0
2211 -2212 0
2211 -2092 0
-2212 2043 2188 0
2212 -2043 0
2212 -2188 0
-2213 1912 2059 2075 2214 0
2213 -2214 0
2213 -2075 0
2213 -1912 0
2213 -2059 0
-2214 2083 2215 0
2214 -2083 0
2214 -2215 0
2215 -1890 -1920 0
-2215 1890 0
-2215 1920 0
-2216 1933 2002 2095 2217 0
2216 -2217 0
2216 -2095 0
2216 -1933 0
2216 -2002 0
-2217 1886 2193 0
-2217 1891 2193 0
2217 -2193 0
2217 -1886 -1891 0
-2218 1966 1986 2219 0
2218 -1966 0
2218 -2219 0
2218 -1986 0
2219 -1923 1939 0
-2219 1923 0
-2219 -1939 0
2220 1956 2086 2182 -2221 0
-2220 -2086 0
-2220 -2182 0
-2220 -1956 0
-2220 2221 0
2221 1987 -2174 0
-2221 -1987 0
-2221 2174 0
-2222 1969 2135 2143 2223 0
2222 -2223 0
2222 -1969 0
2222 -2143 0
2222 -2135 0
-2223 1943 1983 2224 0
2223 -2224 0
2223 -1983 0
2223 -1943 0
-2224 1975 2042 0
2224 -1975 0
2224 -2042 0
-2225 2004 2021 2063 2226 0
2225 -2226 0
2225 -2063 0
2225 -2004 0
2225 -2021 0
-2226 1953 2073 2227 0
2226 -2227 0
2226 -2073 0
2226 -1953 0
-2227 2081 2098 2147 2228 0
2227 -2228 0
2227 -2147 0
2227 -2081 0
2227 -2098 0
-2228 2055 2089 2154 0
2228 -2055 0
2228 -2154 0
2228 -2089 0
2229 -2230 2263 0
-2229 2230 0
-2229 -2263 0
2230 2152 2231 2242 -2243 0
-2230 2243 0
-2230 -2152 0
-2230 -2242 0
-2230 -2231 0
-2231 1918 2091 2232 2234 0
2231 -1918 0
2231 -2234 0
2231 -2232 0
2231 -2091 0
-2232 1974 2188 2193 2233 0
2232 -2233 0
2232 -2193 0
2232 -1974 0
2232 -2188 0
-2233 2000 2052 0
2233 -2000 0
2233 -2052 0
-2234 1926 2235 2240 2241 0
2234 -1926 0
2234 -2241 0
2234 -2240 0
2234 -2235 0
-2235 2236 2237 2238 2239 0
2235 -2239 0
2235 -2236 0
2235 -2238 0
2235 -2237 0
-2236 1982 1988 2180 0
2236 -1982 0
2236 -2180 0
2236 -1988 0
-2237 1941 2153 0
2237 -1941 0
2237 -2153 0
-2238 2007 2021 0
2238 -2007 0
2238 -2021 0
-2239 2049 2215 0
2239 -2049 0
2239 -2215 0
-2240 2144 2192 0
2240 -2144 0
2240 -2192 0
-2241 1953 1956 2076 0
2241 -1953 0
2241 -2076 0
2241 -1956 0
-2242 1916 1933 2010 0
2242 -1916 0
2242 -2010 0
2242 -1933 0
2243 -2173 2244 2258 2261 0
-2243 -2261 0
-2243 2173 0
-2243 -2258 0
-2243 -2244 0
-2244 1987 2201 2245 2256 0
2244 -1987 0
2244 -2256 0
2244 -2245 0
2244 -2201 0
-2245 2246 2250 2253 2254 0
2245 -2254 0
2245 -2246 0
2245 -2253 0
2245 -2250 0
-2246 1977 2120 2247 2248 0
2246 -1977 0
2246 -2248 0
2246 -2247 0
2246 -2120 0
-2247 1961 1986 2182 0
2247 -1961 0
2247 -2182 0
2247 -1986 0
-2248 2008 2249 0
2248 -2008 0
2248 -2249 0
2249 -1929 1939 0
-2249 1929 0
-2249 -1939 0
-2250 1949 2004 2251 2252 0
2250 -1949 0
2250 -2252 0
2250 -2251 0
2250 -2004 0
-2251 2048 2123 2127 2133 0
2251 -2133 0
2251 -2127 0
2251 -2048 0
2251 -2123 0
-2252 1970 2166 0
2252 -1970 0
2252 -2166 0
-2253 1920 1996 1999 0
-2253 1958 1996 1999 0
2253 -1999 0
2253 -1996 0
2253 -1920 -1958 0
-2254 2043 2255 0
2254 -2043 0
2254 -2255 0
-2255 1883 2061 0
2255 -1883 0
2255 -2061 0
-2256 1991 2257 0
2256 -1991 0
2256 -2257 0
-2257 2130 2168 0
2257 -2130 0
2257 -2168 0
-2258 2117 2259 2260 0
2258 -2260 0
2258 -2259 0
2258 -2117 0
-2259 1966 2024 0
2259 -1966 0
2259 -2024 0
-2260 1897 1921 2009 2059 0
2260 -2059 0
2260 -2009 0
2260 -1897 0
2260 -1921 0
-2261 1997 2262 0
2261 -1997 0
2261 -2262 0
-2262 1914 2051 0
2262 -1914 0
2262 -2051 0
2263 -2163 -2198 0
-2263 2163 0
-2263 2198 0
-2264 -5362 -2265 0
-2264 5362 2265 0
2264 5362 -2265 0
2264 -5362 2265 0
2265 5374 -1859 0
-2265 -5374 0
-2265 1859 0
2266 2263 -2267 0
-2266 -2263 0
-2266 2267 0
2267 -2162 2230 0
-2267 2162 0
-2267 -2230 0
-2268 2271 2273 0
-2268 2269 -2271 0
2268 2271 -2273 0
2268 -2269 -2271 0
-2269 2229 2270 0
2269 -2229 0
2269 -2270 0
2270 -2162 2263 0
-2270 2162 0
-2270 -2263 0
-2271 -5361 -2272 0
-2271 5361 2272 0
2271 5361 -2272 0
2271 -5361 2272 0
2272 5374 -1860 0
-2272 -5374 0
-2272 1860 0
-2273 2267 2270 0
2273 -2267 0
2273 -2270 0
2274 2275 2359 -2363 0
2274 2275 -2359 -2361 0
-2274 -2275 0
-2274 2359 2363 0
-2274 -2359 2361 0
-2275 2276 2355 0
-2275 -2355 2357 0
2275 -2276 2355 0
2275 -2355 -2357 0
2276 -2277 2339 0
-2276 2277 0
-2276 -2339 0
2277 -2278 2338 0
-2277 2278 0
-2277 -2338 0
-2278 2279 2304 0
2278 -2279 0
2278 -2304 0
-2279 2280 2288 2289 2298 0
2279 -2298 0
2279 -2280 0
2279 -2289 0
2279 -2288 0
-2280 2063 2187 2281 2284 0
2280 -2063 0
2280 -2284 0
2280 -2281 0
2280 -2187 0
-2281 1949 2075 2282 2283 0
2281 -1949 0
2281 -2283 0
2281 -2282 0
2281 -2075 0
-2282 1962 2016 0
2282 -1962 0
2282 -2016 0
-2283 2009 2094 0
2283 -2009 0
2283 -2094 0
-2284 2077 2138 2285 2286 0
2284 -2286 0
2284 -2077 0
2284 -2285 0
2284 -2138 0
-2285 1986 2048 0
2285 -1986 0
2285 -2048 0
-2286 2019 2287 0
2286 -2019 0
2286 -2287 0
-2287 1897 2002 0
2287 -1897 0
2287 -2002 0
-2288 2024 2047 2181 0
2288 -2024 0
2288 -2181 0
2288 -2047 0
-2289 1967 2042 2065 2290 0
2289 -1967 0
2289 -2290 0
2289 -2065 0
2289 -2042 0
-2290 2058 2291 2292 2296 0
2290 -2296 0
2290 -2058 0
2290 -2292 0
2290 -2291 0
-2291 1938 2000 0
2291 -1938 0
2291 -2000 0
-2292 2061 2076 2293 2295 0
2292 -2061 0
2292 -2295 0
2292 -2293 0
2292 -2076 0
-2293 2202 2294 0
2293 -2202 0
2293 -2294 0
2294 -1919 -1942 0
-2294 1919 0
-2294 1942 0
-2295 1997 2148 0
2295 -1997 0
2295 -2148 0
-2296 1970 2085 2144 2297 0
2296 -2085 0
2296 -2144 0
2296 -1970 0
2296 -2297 0
-2297 1980 2084 0
2297 -1980 0
2297 -2084 0
-2298 1999 2299 2302 0
2298 -2302 0
2298 -2299 0
2298 -1999 0
-2299 1961 2153 2300 2301 0
2299 -1961 0
2299 -2301 0
2299 -2300 0
2299 -2153 0
-2300 1904 2049 2121 0
2300 -1904 0
2300 -2121 0
2300 -2049 0
2301 -1870 -1915 0
-2301 1870 0
-2301 1915 0
-2302 2003 2219 2154 2303 0
2302 -2303 0
2302 -2154 0
2302 -2003 0
2302 -2219 0
-2303 1931 2083 2093 2095 0
2303 -2095 0
2303 -2093 0
2303 -1931 0
2303 -2083 0
-2304 2305 2315 2330 2334 0
2304 -2334 0
2304 -2305 0
2304 -2330 0
2304 -2315 0
-2305 2051 2202 2306 0
2305 -2306 0
2305 -2202 0
2305 -2051 0
-2306 2001 2307 2310 2313 0
2306 -2001 0
2306 -2313 0
2306 -2310 0
2306 -2307 0
-2307 1956 2017 2308 2309 0
2307 -1956 0
2307 -2309 0
2307 -2308 0
2307 -2017 0
-2308 2075 2114 0
2308 -2075 0
2308 -2114 0
-2309 2119 2179 0
2309 -2119 0
2309 -2179 0
-2310 1951 2147 2311 2312 0
2310 -2312 0
2310 -1951 0
2310 -2311 0
2310 -2147 0
-2311 1912 1959 0
2311 -1912 0
2311 -1959 0
-2312 2042 2044 0
2312 -2042 0
2312 -2044 0
-2313 2143 2314 0
2313 -2143 0
2313 -2314 0
-2314 1927 1988 0
2314 -1927 0
2314 -1988 0
-2315 2316 2327 2328 2329 0
2315 -2329 0
2315 -2316 0
2315 -2328 0
2315 -2327 0
-2316 2317 2322 2323 2324 0
2316 -2324 0
2316 -2317 0
2316 -2323 0
2316 -2322 0
-2317 2004 2099 2318 2319 0
2317 -2004 0
2317 -2319 0
2317 -2318 0
2317 -2099 0
-2318 1900 1964 2021 0
2318 -1900 0
2318 -2021 0
2318 -1964 0
-2319 2320 2321 0
2319 -2320 0
2319 -2321 0
2320 -1919 -1981 0
-2320 1919 0
-2320 1981 0
-2321 1977 2127 0
2321 -1977 0
2321 -2127 0
-2322 1907 1926 2013 2133 0
2322 -2133 0
2322 -2013 0
2322 -1907 0
2322 -1926 0
-2323 1883 1943 2093 0
2323 -1883 0
2323 -2093 0
2323 -1943 0
-2324 2325 2326 0
2324 -2325 0
2324 -2326 0
-2325 2094 2153 0
2325 -2094 0
2325 -2153 0
-2326 1938 1966 0
2326 -1938 0
2326 -1966 0
-2327 1844 1918 1936 2205 0
2327 -2205 0
2327 -1936 0
2327 -1844 0
2327 -1918 0
-2328 2018 2043 0
2328 -2018 0
2328 -2043 0
-2329 1976 2182 0
2329 -1976 0
2329 -2182 0
-2330 1980 2084 2331 0
2330 -2331 0
2330 -2084 0
2330 -1980 0
-2331 1987 2219 2194 2332 0
2331 -1987 0
2331 -2332 0
2331 -2194 0
2331 -2219 0
-2332 1947 2333 0
2332 -1947 0
2332 -2333 0
-2333 2131 2249 0
2333 -2131 0
2333 -2249 0
-2334 2098 2335 2336 0
2334 -2336 0
2334 -2335 0
2334 -2098 0
-2335 2059 2193 0
2335 -2059 0
2335 -2193 0
-2336 1999 2118 2337 0
2336 -2337 0
2336 -2118 0
2336 -1999 0
-2337 1931 2012 0
2337 -1931 0
2337 -2012 0
2338 -2279 -2304 0
-2338 2279 0
-2338 2304 0
-2339 2340 2346 2351 2352 0
2339 -2352 0
2339 -2340 0
2339 -2351 0
2339 -2346 0
-2340 2341 2343 2344 0
2340 -2341 0
2340 -2343 0
2340 -2344 0
-2341 1941 2061 2122 2342 0
2341 -2342 0
2341 -2122 0
2341 -1941 0
2341 -2061 0
-2342 1918 1936 0
2342 -1918 0
2342 -1936 0
-2343 2078 2081 2133 0
2343 -2078 0
2343 -2133 0
2343 -2081 0
-2344 2055 2242 2294 2345 0
2344 -2242 0
2344 -2294 0
2344 -2055 0
2344 -2345 0
-2345 2021 2093 0
2345 -2021 0
2345 -2093 0
-2346 2188 2347 2348 2350 0
2346 -2188 0
2346 -2350 0
2346 -2348 0
2346 -2347 0
-2347 2009 2062 2068 2114 0
2347 -2114 0
2347 -2068 0
2347 -2009 0
2347 -2062 0
-2348 2001 2008 2349 0
2348 -2349 0
2348 -2008 0
2348 -2001 0
-2349 1921 2012 2202 0
2349 -1921 0
2349 -2202 0
2349 -2012 0
-2350 1926 2249 0
2350 -1926 0
2350 -2249 0
-2351 1945 2016 2154 0
2351 -1945 0
2351 -2154 0
2351 -2016 0
-2352 2075 2217 2353 2354 0
2352 -2075 0
2352 -2354 0
2352 -2353 0
2352 -2217 0
-2353 1843 1988 2168 2253 0
2353 -2253 0
2353 -2168 0
2353 -1843 0
2353 -1988 0
-2354 2050 2195 0
2354 -2050 0
2354 -2195 0
-2355 -5358 -2356 0
-2355 5358 2356 0
2355 5358 -2356 0
2355 -5358 2356 0
2356 5374 -1863 0
-2356 -5374 0
-2356 1863 0
2357 -2278 -2358 0
-2357 2278 0
-2357 2358 0
2358 2338 -2339 0
-2358 -2338 0
-2358 2339 0
-2359 -5357 -2360 0
-2359 5357 2360 0
2359 5357 -2360 0
2359 -5357 2360 0
2360 5374 -1864 0
-2360 -5374 0
-2360 1864 0
-2361 2277 2362 0
2361 -2277 0
2361 -2362 0
2362 -2278 2339 0
-2362 2278 0
-2362 -2339 0
-2363 2277 2358 0
2363 -2277 0
2363 -2358 0
2364 -2365 -2398 0
-2364 2365 0
-2364 2398 0
2365 2366 2395 -2397 0
2365 2366 2394 -2395 0
-2365 -2366 0
-2365 -2394 -2395 0
-2365 2395 2397 0
-2366 2367 2391 0
-2366 -2391 2393 0
2366 -2367 2391 0
2366 -2391 -2393 0
2367 2368 -2389 0
-2367 -2368 0
-2367 2389 0
2368 -2279 2369 0
-2368 2279 0
-2368 -2369 0
2369 2230 -2370 0
-2369 -2230 0
-2369 2370 0
-2370 2307 2371 2376 2379 0
2370 -2379 0
2370 -2307 0
2370 -2376 0
2370 -2371 0
-2371 2009 2154 2372 2374 0
2371 -2009 0
2371 -2374 0
2371 -2372 0
2371 -2154 0
-2372 2055 2373 0
2372 -2055 0
2372 -2373 0
-2373 1907 2301 0
2373 -1907 0
2373 -2301 0
-2374 1996 2147 2375 0
2374 -2375 0
2374 -2147 0
2374 -1996 0
-2375 1959 2094 0
2375 -1959 0
2375 -2094 0
-2376 1904 1916 2377 0
2376 -2377 0
2376 -1916 0
2376 -1904 0
-2377 1889 2378 0
2377 -1889 0
2377 -2378 0
-2378 1914 2047 0
2378 -1914 0
2378 -2047 0
-2379 2061 2380 2385 2388 0
2379 -2061 0
2379 -2388 0
2379 -2385 0
2379 -2380 0
-2380 1909 2188 2293 2381 0
2380 -1909 0
2380 -2381 0
2380 -2293 0
2380 -2188 0
-2381 2170 2382 2383 2384 0
2381 -2384 0
2381 -2170 0
2381 -2383 0
2381 -2382 0
-2382 2010 2067 2320 0
2382 -2010 0
2382 -2067 0
2382 -2320 0
-2383 1844 1883 1989 2337 0
2383 -1844 0
2383 -2337 0
2383 -1989 0
2383 -1883 0
-2384 2013 2251 0
2384 -2013 0
2384 -2251 0
-2385 1976 2153 2218 2386 0
2385 -1976 0
2385 -2386 0
2385 -2218 0
2385 -2153 0
-2386 2053 2166 2387 0
2386 -2387 0
2386 -2166 0
2386 -2053 0
-2387 2121 2122 0
2387 -2121 0
2387 -2122 0
-2388 1969 2043 2120 0
2388 -1969 0
2388 -2120 0
2388 -2043 0
-2389 2369 2390 0
2389 -2369 0
2389 -2390 0
2390 -2230 2370 0
-2390 2230 0
-2390 -2370 0
-2391 -5359 -2392 0
-2391 5359 2392 0
2391 5359 -2392 0
2391 -5359 2392 0
2392 5374 -1862 0
-2392 -5374 0
-2392 1862 0
-2393 2279 2390 0
-2393 2369 2390 0
2393 -2390 0
2393 -2279 -2369 0
2394 -2368 2390 0
-2394 2368 0
-2394 -2390 0
-2395 -5360 -2396 0
-2395 5360 2396 0
2395 5360 -2396 0
2395 -5360 2396 0
2396 5374 -1861 0
-2396 -5374 0
-2396 1861 0
-2397 2279 2389 0
2397 -2279 0
2397 -2389 0
2398 2160 -2274 0
2398 -2160 2274 0
-2398 -2160 -2274 0
-2398 2160 2274 0
2399 -2400 -2456 0
-2399 2400 0
-2399 2456 0
2400 2401 -2451 0
2400 -2401 2451 0
-2400 -2401 -2451 0
-2400 2401 2451 0
2401 2402 -2426 0
-2401 -2402 0
-2401 2426 0
-2402 2163 2403 2424 0
-2402 2163 -2403 2422 0
-2402 -2163 2403 -2424 0
2402 -2163 -2403 0
2402 -2163 2424 0
2402 -2403 -2422 0
2402 2163 2403 -2424 0
2403 2019 -2404 2413 2419 0
-2403 -2019 0
-2403 -2419 0
-2403 -2413 0
-2403 2404 0
2404 1936 1983 2405 -2410 0
-2404 -1936 0
-2404 2410 0
-2404 -2405 0
-2404 -1983 0
-2405 1900 2096 2406 2409 0
2405 -1900 0
2405 -2409 0
2405 -2406 0
2405 -2096 0
-2406 1889 1935 2407 2408 0
2406 -1889 0
2406 -2408 0
2406 -2407 0
2406 -1935 0
-2407 2257 2333 0
2407 -2257 0
2407 -2333 0
-2408 2133 2188 2238 0
2408 -2238 0
2408 -2188 0
2408 -2133 0
-2409 1987 2089 0
2409 -1987 0
2409 -2089 0
2410 2053 -2174 2411 2412 0
-2410 -2053 0
-2410 -2412 0
-2410 -2411 0
-2410 2174 0
-2411 2008 2055 2081 2117 0
2411 -2117 0
2411 -2081 0
2411 -2008 0
2411 -2055 0
-2412 1844 1956 2061 0
2412 -1844 0
2412 -2061 0
2412 -1956 0
-2413 1986 1996 2414 2418 0
2413 -1986 0
2413 -2418 0
2413 -2414 0
2413 -1996 0
-2414 2259 2311 2415 2417 0
2414 -2417 0
2414 -2259 0
2414 -2415 0
2414 -2311 0
-2415 2347 2416 0
2415 -2347 0
2415 -2416 0
-2416 2010 2325 0
2416 -2010 0
2416 -2325 0
-2417 2022 2063 0
2417 -2022 0
2417 -2063 0
-2418 2099 2120 2294 0
2418 -2099 0
2418 -2294 0
2418 -2120 0
-2419 2064 2420 0
2419 -2064 0
2419 -2420 0
-2420 1925 1977 2004 2421 0
2420 -2421 0
2420 -2004 0
2420 -1925 0
2420 -1977 0
-2421 1951 2018 0
2421 -1951 0
2421 -2018 0
-2422 -5363 -2423 0
-2422 5363 2423 0
2422 5363 -2423 0
2422 -5363 2423 0
2423 5374 -1858 0
-2423 -5374 0
-2423 1858 0
-2424 -5364 -2425 0
-2424 5364 2425 0
2424 5364 -2425 0
2424 -5364 2425 0
2425 5374 -1857 0
-2425 -5374 0
-2425 1857 0
2426 -2427 2448 0
-2426 2427 0
-2426 -2448 0
2427 -2109 2428 0
-2427 2109 0
-2427 -2428 0
2428 -2339 -2429 0
-2428 2339 0
-2428 2429 0
-2429 1896 2207 2430 2439 0
2429 -2439 0
2429 -1896 0
2429 -2430 0
2429 -2207 0
-2430 2305 2431 2434 2437 0
2430 -2437 0
2430 -2305 0
2430 -2434 0
2430 -2431 0
-2431 1969 2064 2432 2433 0
2431 -2433 0
2431 -1969 0
2431 -2432 0
2431 -2064 0
-2432 2010 2070 2078 2148 0
2432 -2148 0
2432 -2078 0
2432 -2010 0
2432 -2070 0
-2433 1844 1964 0
2433 -1844 0
2433 -1964 0
-2434 2019 2053 2435 2436 0
2434 -2019 0
2434 -2436 0
2434 -2435 0
2434 -2053 0
-2435 1907 1961 2082 0
2435 -2082 0
2435 -1961 0
2435 -1907 0
-2436 2062 2117 0
2436 -2062 0
2436 -2117 0
-2437 1916 2096 2438 0
2437 -2438 0
2437 -2096 0
2437 -1916 0
-2438 1913 1941 2294 0
-2438 1919 1941 2294 0
2438 -2294 0
2438 -1941 0
2438 -1913 -1919 0
-2439 2120 2440 2441 2445 0
2439 -2120 0
2439 -2445 0
2439 -2441 0
2439 -2440 0
-2440 2055 2089 0
2440 -2055 0
2440 -2089 0
-2441 2004 2131 2442 0
2441 -2442 0
2441 -2131 0
2441 -2004 0
-2442 1976 2121 2443 2444 0
2442 -1976 0
2442 -2444 0
2442 -2443 0
2442 -2121 0
-2443 1989 2319 0
2443 -1989 0
2443 -2319 0
-2444 1973 2007 0
2444 -1973 0
2444 -2007 0
-2445 2188 2417 2446 0
2445 -2446 0
2445 -2417 0
2445 -2188 0
-2446 2047 2214 2447 0
2446 -2447 0
2446 -2214 0
2446 -2047 0
-2447 1909 1918 2130 2255 0
2447 -2255 0
2447 -2130 0
2447 -1909 0
2447 -1918 0
2448 -2156 -2449 0
-2448 2156 0
-2448 2449 0
2449 2428 -2450 0
-2449 -2428 0
-2449 2450 0
-2450 2339 2429 0
2450 -2339 0
2450 -2429 0
2451 2452 -2454 0
2451 -2452 2454 0
-2451 -2452 -2454 0
-2451 2452 2454 0
2452 2367 2395 -2453 0
2452 2393 -2395 -2453 0
-2452 2453 0
-2452 -2367 2395 0
-2452 -2393 -2395 0
2453 2271 -2397 0
2453 -2271 2394 0
-2453 -2271 -2394 0
-2453 2271 2397 0
2454 -2355 -2361 2455 0
2454 2355 -2363 2455 0
-2454 -2455 0
-2454 -2355 2361 0
-2454 2355 2363 0
-2455 2357 -2391 0
-2455 2276 2391 0
2455 -2357 -2391 0
2455 -2276 2391 0
2456 -2106 2158 0
2456 2106 -2158 0
-2456 2106 2158 0
-2456 -2106 -2158 0
2457 2458 -2483 0
2457 -2458 2483 0
-2457 -2458 -2483 0
-2457 2458 2483 0
-2458 -2459 -2464 0
-2458 2459 2464 0
2458 2459 -2464 0
2458 -2459 2464 0
-2459 2163 -2403 2460 0
-2459 2163 2403 2462 0
-2459 -2163 2403 -2462 0
2459 -2163 -2403 0
2459 -2163 2462 0
2459 -2403 -2460 0
2459 2163 2403 -2462 0
-2460 -5365 -2461 0
-2460 5365 2461 0
2460 5365 -2461 0
2460 -5365 2461 0
2461 5374 -1856 0
-2461 -5374 0
-2461 1856 0
2462 5366 -2463 0
2462 -5366 2463 0
-2462 -5366 -2463 0
-2462 5366 2463 0
2463 5374 -1855 0
-2463 -5374 0
-2463 1855 0
2464 2106 -2465 0
-2464 -2106 0
-2464 2465 0
2465 2155 -2466 0
-2465 -2155 0
-2465 2466 0
-2466 2311 2467 2473 2475 0
2466 -2475 0
2466 -2311 0
2466 -2473 0
2466 -2467 0
-2467 1976 2177 2468 2469 0
2467 -1976 0
2467 -2469 0
2467 -2468 0
2467 -2177 0
-2468 1935 2041 2181 2247 0
2468 -2041 0
2468 -2181 0
2468 -1935 0
2468 -2247 0
-2469 1964 2470 2471 2472 0
2469 -1964 0
2469 -2472 0
2469 -2471 0
2469 -2470 0
-2470 1991 2083 0
2470 -1991 0
2470 -2083 0
-2471 1988 2005 0
2471 -1988 0
2471 -2005 0
-2472 2009 2099 2420 0
2472 -2420 0
2472 -2099 0
2472 -2009 0
-2473 1901 1967 2474 0
2473 -2474 0
2473 -1967 0
2473 -1901 0
-2474 2017 2215 0
2474 -2017 0
2474 -2215 0
-2475 1885 2476 0
-2475 2476 2482 0
2475 -2476 0
2475 -1885 -2482 0
-2476 1922 2016 2477 2481 0
2476 -1922 0
2476 -2481 0
2476 -2477 0
2476 -2016 0
-2477 1984 2049 2478 2480 0
2477 -1984 0
2477 -2480 0
2477 -2478 0
2477 -2049 0
-2478 1971 2479 0
2478 -1971 0
2478 -2479 0
-2479 1982 2166 0
2479 -1982 0
2479 -2166 0
-2480 1889 2294 0
2480 -1889 0
2480 -2294 0
-2481 1933 1970 0
2481 -1933 0
2481 -1970 0
-2482 1920 1981 0
2482 -1920 0
2482 -1981 0
2483 2484 -2486 0
2483 -2484 2486 0
-2483 -2484 -2486 0
-2483 2484 2486 0
2484 -2269 -2422 2485 0
2484 -2273 2422 2485 0
-2484 -2485 0
-2484 2273 2422 0
-2484 2269 -2422 0
-2485 2266 -2424 0
-2485 2161 2424 0
2485 -2266 -2424 0
2485 -2161 2424 0
2486 2107 -2489 0
2486 2466 -2487 -2489 0
2486 -2466 2487 -2489 0
-2486 2489 0
-2486 -2107 -2466 -2487 0
-2486 -2107 2466 2487 0
-2487 -5356 -2488 0
-2487 5356 2488 0
2487 5356 -2488 0
2487 -5356 2488 0
2488 5374 -1865 0
-2488 -5374 0
-2488 1865 0
2489 -2156 -2491 0
2489 2156 -2490 0
-2489 2156 2490 0
-2489 -2156 2491 0
-2490 2107 2465 0
2490 -2107 0
2490 -2465 0
-2491 2107 2492 0
2491 -2107 0
2491 -2492 0
2492 -2108 2466 0
-2492 2108 0
-2492 -2466 0
2493 2494 -2495 0
-2493 -2494 0
-2493 2495 0
-2494 -2104 -2457 0
-2494 2104 2457 0
2494 2104 -2457 0
2494 -2104 2457 0
2495 2496 -2514 0
2495 -2496 2514 0
-2495 -2496 -2514 0
-2495 2496 2514 0
2496 -2497 2500 0
2496 2497 -2500 0
-2496 2497 2500 0
-2496 -2497 -2500 0
-2497 2498 2499 0
2497 -2498 0
2497 -2499 0
2498 -2452 -2454 0
-2498 2452 0
-2498 2454 0
2499 -2401 -2451 0
-2499 2401 0
-2499 2451 0
-2500 2501 2505 0
2500 -2501 0
2500 -2505 0
2501 2502 -2503 0
-2501 -2502 0
-2501 2503 0
-2502 2163 2403 2460 0
-2502 2163 -2403 2424 0
-2502 -2163 2403 -2460 0
2502 -2163 -2403 0
2502 -2163 2460 0
2502 -2403 -2424 0
2502 2163 2403 -2460 0
2503 2266 -2422 -2504 0
2503 2161 2422 -2504 0
-2503 2504 0
-2503 -2266 -2422 0
-2503 -2161 2422 0
-2504 -2264 2269 0
-2504 2264 2273 0
2504 2264 -2273 0
2504 -2264 -2269 0
2505 -2506 2513 0
-2505 2506 0
-2505 -2513 0
2506 2359 2507 -2510 0
2506 -2359 2509 -2510 0
-2506 2510 0
-2506 -2359 -2509 0
-2506 2359 -2507 0
2507 2428 -2508 0
-2507 -2428 0
-2507 2508 0
2508 2109 -2450 0
-2508 -2109 0
-2508 2450 0
2509 -2427 -2450 0
-2509 2427 0
-2509 2450 0
-2510 -2487 2511 0
-2510 2487 2512 0
2510 2487 -2512 0
2510 -2487 -2511 0
-2511 2449 2508 0
2511 -2449 0
2511 -2508 0
-2512 2427 2449 0
2512 -2427 0
2512 -2449 0
-2513 -2502 -2503 0
-2513 2502 2503 0
2513 2502 -2503 0
2513 -2502 2503 0
2514 2515 -2517 0
2514 -2515 2517 0
-2514 -2515 -2517 0
-2514 2515 2517 0
2515 -2264 2394 2516 0
2515 2264 -2397 2516 0
-2515 -2516 0
-2515 -2264 -2394 0
-2515 2264 2397 0
-2516 2271 2367 0
-2516 -2271 2393 0
2516 2271 -2367 0
2516 -2271 -2393 0
2517 2518 -2520 0
2517 -2518 2520 0
-2517 -2518 -2520 0
-2517 2518 2520 0
2518 2357 -2395 -2519 0
2518 2276 2395 -2519 0
-2518 2519 0
-2518 -2357 -2395 0
-2518 -2276 2395 0
-2519 2363 2391 0
-2519 2361 -2391 0
2519 -2361 -2391 0
2519 -2363 2391 0
2520 -2359 -2511 2521 0
2520 2359 -2512 2521 0
-2520 -2521 0
-2520 -2359 2511 0
-2520 2359 2512 0
2521 2355 -2507 0
2521 -2355 -2509 0
-2521 -2355 2509 0
-2521 2355 2507 0
-2522 2523 2535 0
-2522 -2523 -2535 0
2522 -2523 2535 0
2522 2523 -2535 0
2523 2524 -2527 0
2523 -2524 2527 0
-2523 -2524 -2527 0
-2523 2524 2527 0
-2524 2525 2526 0
2524 -2525 0
2524 -2526 0
2525 -2497 -2500 0
-2525 2497 0
-2525 2500 0
2526 -2496 -2514 0
-2526 2496 0
-2526 2514 0
2527 2528 -2531 0
2527 -2528 2531 0
-2527 -2528 -2531 0
-2527 2528 2531 0
-2528 2529 2530 0
2528 -2529 0
2528 -2530 0
2529 -2518 -2520 0
-2529 2518 0
-2529 2520 0
2530 -2515 -2517 0
-2530 2515 0
-2530 2517 0
2531 2532 -2533 0
2531 -2532 2533 0
-2531 -2532 -2533 0
-2531 2532 2533 0
2532 2459 -2464 0
-2532 -2459 0
-2532 2464 0
2533 2107 -2534 0
2533 2359 -2466 -2534 0
2533 -2359 2466 -2534 0
-2533 2534 0
-2533 -2107 -2359 -2466 0
-2533 -2107 2359 2466 0
2534 -2487 -2491 0
2534 2487 -2490 0
-2534 2487 2490 0
-2534 -2487 2491 0
-2535 -2536 -2544 0
-2535 2536 2544 0
2535 2536 -2544 0
2535 -2536 2544 0
-2536 -2537 -2543 0
-2536 2537 2543 0
2536 2537 -2543 0
2536 -2537 2543 0
-2537 2538 2540 0
-2537 -2538 -2540 0
2537 -2538 2540 0
2537 2538 -2540 0
2538 2266 -2460 -2539 0
2538 2161 2460 -2539 0
-2538 2539 0
-2538 -2266 -2460 0
-2538 -2161 2460 0
-2539 2273 2424 0
-2539 2269 -2424 0
2539 -2269 -2424 0
2539 -2273 2424 0
-2540 2541 2542 0
-2540 -2541 -2542 0
2540 -2541 2542 0
2540 2541 -2542 0
2541 -2156 -2466 0
-2541 2156 0
-2541 2466 0
-2542 2163 2462 0
-2542 2163 2403 0
2542 -2163 0
2542 -2403 -2462 0
2543 2458 -2484 0
2543 -2484 -2486 0
2543 2458 -2486 0
-2543 -2458 2486 0
-2543 2484 2486 0
-2543 -2458 2484 0
2544 2545 -2547 0
2544 -2545 2547 0
-2544 -2545 -2547 0
-2544 2545 2547 0
2545 -2391 2509 -2546 0
2545 2391 2507 -2546 0
-2545 2546 0
-2545 -2391 -2509 0
-2545 2391 -2507 0
2546 2355 -2512 0
2546 -2355 -2511 0
-2546 -2355 2511 0
-2546 2355 2512 0
2547 2548 -2550 0
2547 -2548 2550 0
-2547 -2548 -2550 0
-2547 2548 2550 0
2548 -2361 -2395 2549 0
2548 -2363 2395 2549 0
-2548 -2549 0
-2548 2363 2395 0
-2548 2361 -2395 0
-2549 -2271 2357 0
-2549 2271 2276 0
2549 2271 -2276 0
2549 -2271 -2357 0
2550 2394 -2422 2551 0
2550 -2397 2422 2551 0
-2550 -2551 0
-2550 2397 2422 0
-2550 -2394 -2422 0
-2551 2264 2367 0
-2551 -2264 2393 0
2551 2264 -2367 0
2551 -2264 -2393 0
2552 -2575 -2675 0
2552 2553 -2576 0
2552 2553 -2575 0
2552 2553 -2675 0
2552 -2575 -2576 0
-2552 -2553 2575 0
-2552 -2553 2576 2675 0
-2552 2575 2576 2675 0
-2553 2554 2572 0
2553 -2554 0
2553 -2572 0
2554 -2555 2571 0
-2554 2555 0
-2554 -2571 0
-2555 2556 2560 0
2555 -2556 0
2555 -2560 0
2556 -2557 2559 0
-2556 2557 0
-2556 -2559 0
2557 2487 2507 -2558 0
2557 -2487 2509 -2558 0
-2557 2558 0
-2557 -2487 -2509 0
-2557 2487 -2507 0
-2558 -2156 2511 0
-2558 2156 2512 0
2558 2156 -2512 0
2558 -2156 -2511 0
-2559 -2402 -2426 0
-2559 2402 2426 0
2559 2402 -2426 0
2559 -2402 2426 0
2560 -2561 2570 0
-2560 2561 0
-2560 -2570 0
-2561 2562 2566 0
2561 -2562 0
2561 -2566 0
2562 2563 -2564 0
-2562 -2563 0
-2562 2564 0
-2563 2163 2264 -2403 0
-2563 2163 2403 2422 0
-2563 -2163 2403 -2422 0
2563 -2163 -2403 0
2563 2163 2403 -2422 0
2563 -2163 2422 0
2563 -2264 -2403 0
2564 -2269 -2395 2565 0
2564 -2273 2395 2565 0
-2564 -2565 0
-2564 2273 2395 0
-2564 2269 -2395 0
-2565 2266 -2271 0
-2565 2161 2271 0
2565 -2266 -2271 0
2565 -2161 2271 0
2566 -2567 2569 0
-2566 2567 0
-2566 -2569 0
2567 -2391 2394 2568 0
2567 2391 -2397 2568 0
-2567 -2568 0
-2567 -2391 -2394 0
-2567 2391 2397 0
-2568 2355 2367 0
-2568 -2355 2393 0
2568 2355 -2367 0
2568 -2355 -2393 0
-2569 -2563 -2564 0
-2569 2563 2564 0
2569 2563 -2564 0
2569 -2563 2564 0
-2570 2557 2559 0
-2570 -2557 -2559 0
2570 -2557 2559 0
2570 2557 -2559 0
-2571 2506 2513 0
-2571 -2506 -2513 0
2571 -2506 2513 0
2571 2506 -2513 0
2572 -2573 2574 0
-2572 2573 0
-2572 -2574 0
2573 2400 -2456 0
2573 -2400 2456 0
-2573 -2400 -2456 0
-2573 2400 2456 0
-2574 2555 2571 0
-2574 -2555 -2571 0
2574 -2555 2571 0
2574 2555 -2571 0
-2575 -2494 -2495 0
-2575 2494 2495 0
2575 2494 -2495 0
2575 -2494 2495 0
2576 2577 2589 -2593 0
2576 2577 2589 -2592 0
-2576 -2577 0
-2576 -2589 0
-2576 2592 2593 0
2577 -2578 -2588 0
-2577 2578 0
-2577 2588 0
-2578 2579 2586 0
2578 -2579 0
2578 -2586 0
2579 -2580 -2584 0
-2579 2580 0
-2579 2584 0
2580 2581 -2582 0
-2580 -2581 0
-2580 2582 0
-2581 -2163 -2264 2403 0
-2581 2163 2264 2403 0
-2581 2163 2271 -2403 0
2581 -2271 -2403 0
2581 2163 -2264 2403 0
2581 -2163 2264 0
2581 -2163 -2403 0
2582 -2358 2583 0
-2582 2358 0
-2582 -2583 0
2583 -2156 -2277 0
-2583 2156 0
-2583 2277 0
2584 2357 -2359 -2585 0
2584 2276 2359 -2585 0
-2584 2585 0
-2584 -2357 -2359 0
-2584 -2276 2359 0
2585 -2361 -2487 0
2585 -2363 2487 0
-2585 2363 2487 0
-2585 2361 -2487 0
2586 -2448 -2587 0
-2586 2448 0
-2586 2587 0
2587 2580 -2584 0
2587 -2580 2584 0
-2587 -2580 -2584 0
-2587 2580 2584 0
2588 2365 -2398 0
2588 -2365 2398 0
-2588 -2365 -2398 0
-2588 2365 2398 0
2589 -2590 2591 0
-2589 2590 0
-2589 -2591 0
2590 2578 -2588 0
2590 -2578 2588 0
-2590 -2578 -2588 0
-2590 2578 2588 0
-2591 2561 2570 0
-2591 -2561 -2570 0
2591 -2561 2570 0
2591 2561 -2570 0
-2592 2573 2574 0
-2592 -2573 -2574 0
2592 -2573 2574 0
2592 2573 -2574 0
-2593 -2594 -2674 0
-2593 2610 -2674 0
-2593 -2594 2610 0
-2593 2610 2611 0
-2593 -2594 2611 0
2593 2594 -2610 0
2593 2594 -2611 2674 0
2593 -2610 -2611 2674 0
-2594 2595 2607 0
2594 -2595 0
2594 -2607 0
2595 -2596 2606 0
-2595 2596 0
-2595 -2606 0
-2596 2597 2602 0
2596 -2597 0
2596 -2602 0
2597 -2598 -2600 0
-2597 2598 0
-2597 2600 0
2598 2266 -2395 -2599 0
2598 2161 2395 -2599 0
-2598 2599 0
-2598 -2266 -2395 0
-2598 -2161 2395 0
2599 -2269 -2391 0
2599 -2273 2391 0
-2599 2273 2391 0
-2599 2269 -2391 0
2600 2359 2367 -2601 0
2600 -2359 2393 -2601 0
-2600 2601 0
-2600 -2359 -2393 0
-2600 2359 -2367 0
2601 2355 -2397 0
2601 -2355 2394 0
-2601 -2355 -2394 0
-2601 2355 2397 0
2602 -2603 -2605 0
-2602 2603 0
-2602 2605 0
2603 2357 -2487 -2604 0
2603 2276 2487 -2604 0
-2603 2604 0
-2603 -2357 -2487 0
-2603 -2276 2487 0
-2604 -2156 2361 0
-2604 2156 2363 0
2604 2156 -2363 0
2604 -2156 -2361 0
2605 2598 -2600 0
2605 -2598 2600 0
-2605 -2598 -2600 0
-2605 2598 2600 0
-2606 2567 2569 0
-2606 -2567 -2569 0
2606 -2567 2569 0
2606 2567 -2569 0
2607 -2608 2609 0
-2607 2608 0
-2607 -2609 0
2608 2448 -2587 0
2608 -2448 2587 0
-2608 -2448 -2587 0
-2608 2448 2587 0
-2609 2596 2606 0
-2609 -2596 -2606 0
2609 -2596 2606 0
2609 2596 -2606 0
-2610 2590 2591 0
-2610 -2590 -2591 0
2610 -2590 2591 0
2610 2590 -2591 0
-2611 2612 -2669 2673 0
-2611 2612 2672 2673 0
2611 -2612 0
2611 -2673 0
2611 2669 -2672 0
2612 -2628 2635 -2646 0
2612 2613 2635 -2646 0
2612 2613 -2628 2635 0
-2612 -2613 2628 0
-2612 -2613 2646 0
-2612 -2635 0
-2612 2628 2646 0
2613 2614 -2626 0
2613 -2614 2626 0
-2613 -2614 -2626 0
-2613 2614 2626 0
-2614 2615 2620 0
2614 -2615 0
2614 -2620 0
2615 -2616 -2618 0
-2615 2616 0
-2615 2618 0
2616 -2269 -2359 2617 0
2616 -2273 2359 2617 0
-2616 -2617 0
-2616 2273 2359 0
-2616 2269 -2359 0
-2617 2266 -2355 0
-2617 2161 2355 0
2617 -2266 -2355 0
2617 -2161 2355 0
2618 2394 -2487 2619 0
2618 -2397 2487 2619 0
-2618 -2619 0
-2618 2397 2487 0
-2618 -2394 -2487 0
-2619 2156 2367 0
-2619 -2156 2393 0
2619 2156 -2367 0
2619 -2156 -2393 0
2620 2621 -2625 0
-2620 -2621 0
-2620 2625 0
-2621 -2622 -2623 0
-2621 2622 2623 0
2621 2622 -2623 0
2621 -2622 2623 0
-2622 2163 2391 -2403 0
-2622 -2163 -2395 2403 0
-2622 2163 2395 2403 0
2622 -2163 -2403 0
2622 -2391 -2403 0
2622 -2163 2395 0
2622 2163 -2395 2403 0
2623 -2368 2624 0
-2623 2368 0
-2623 -2624 0
2624 -2156 2389 0
-2624 2156 0
-2624 -2389 0
2625 2616 -2618 0
2625 -2616 2618 0
-2625 -2616 -2618 0
-2625 2616 2618 0
2626 2583 -2627 0
2626 -2583 2627 0
-2626 -2583 -2627 0
-2626 2583 2627 0
2627 2622 -2623 0
-2627 -2622 0
-2627 2623 0
-2628 2629 2631 0
-2628 -2629 -2631 0
2628 -2629 2631 0
2628 2629 -2631 0
2629 -2359 2394 2630 0
2629 2359 -2397 2630 0
-2629 -2630 0
-2629 -2359 -2394 0
-2629 2359 2397 0
-2630 2393 -2487 0
-2630 2367 2487 0
2630 -2367 2487 0
2630 -2393 -2487 0
-2631 2632 2634 0
-2631 -2632 -2634 0
2631 -2632 2634 0
2631 2632 -2634 0
2632 2266 -2391 -2633 0
2632 2161 2391 -2633 0
-2632 2633 0
-2632 -2266 -2391 0
-2632 -2161 2391 0
-2633 2273 2355 0
-2633 2269 -2355 0
2633 -2269 -2355 0
2633 -2273 2355 0
-2634 -2163 -2271 2403 0
-2634 2163 2271 2403 0
-2634 2163 2395 -2403 0
2634 -2395 -2403 0
2634 2163 -2271 2403 0
2634 -2163 2271 0
2634 -2163 -2403 0
2635 -2636 2639 0
-2635 2636 0
-2635 -2639 0
-2636 2637 2638 0
2636 -2637 0
2636 -2638 0
2637 -2583 -2627 0
-2637 2583 0
-2637 2627 0
2638 -2614 -2626 0
-2638 2614 0
-2638 2626 0
-2639 -2640 -2645 0
-2639 2640 2645 0
2639 2640 -2645 0
2639 -2640 2645 0
-2640 2641 2642 0
-2640 -2641 -2642 0
2640 -2641 2642 0
2640 2641 -2642 0
-2641 -2581 -2582 0
-2641 2581 2582 0
2641 2581 -2582 0
2641 -2581 2582 0
-2642 2643 2644 0
2642 -2643 0
2642 -2644 0
2643 -2632 2634 0
-2643 2632 0
-2643 -2634 0
2644 -2629 2631 0
-2644 2629 0
-2644 -2631 0
2645 2603 -2605 0
2645 -2603 2605 0
-2645 -2603 -2605 0
-2645 2603 2605 0
2646 2648 -2659 0
2646 -2647 -2659 0
-2646 2659 0
-2646 2647 -2648 0
-2647 -2621 -2625 0
-2647 2621 2625 0
2647 2621 -2625 0
2647 -2621 2625 0
-2648 2649 2653 0
2648 -2649 0
2648 -2653 0
2649 2650 -2651 0
-2649 -2650 0
-2649 2651 0
-2650 2163 2355 -2403 0
-2650 -2163 -2391 2403 0
-2650 2163 2391 2403 0
2650 -2163 -2403 0
2650 -2355 -2403 0
2650 -2163 2391 0
2650 2163 -2391 2403 0
2651 2266 -2359 -2652 0
2651 2161 2359 -2652 0
-2651 2652 0
-2651 -2266 -2359 0
-2651 -2161 2359 0
-2652 2273 2487 0
-2652 2269 -2487 0
2652 -2269 -2487 0
2652 -2273 2487 0
2653 -2654 2658 0
-2653 2654 0
-2653 -2658 0
2654 -2655 2657 0
-2654 2655 0
-2654 -2657 0
2655 -2267 2656 0
-2655 2267 0
-2655 -2656 0
2656 -2156 -2270 0
-2656 2156 0
-2656 2270 0
-2657 -2163 -2355 2403 0
-2657 2163 2355 2403 0
-2657 2163 2359 -2403 0
2657 -2359 -2403 0
2657 2163 -2355 2403 0
2657 -2163 2355 0
2657 -2163 -2403 0
-2658 -2650 -2651 0
-2658 2650 2651 0
2658 2650 -2651 0
2658 -2650 2651 0
-2659 -2624 2667 2668 0
-2659 -2624 2660 2668 0
-2659 2660 2667 2668 0
2659 2624 -2667 0
2659 -2660 -2667 0
2659 -2668 0
2659 2624 -2660 0
-2660 2664 -2665 0
-2660 2661 2662 2664 0
-2660 2661 2662 -2665 0
2660 -2662 2665 0
2660 -2661 -2664 0
2660 -2661 2665 0
2660 -2664 2665 0
2660 -2662 -2664 0
2661 -2156 2270 0
-2661 2156 0
-2661 -2270 0
-2662 -2163 -2359 2663 0
-2662 2163 2359 2663 0
-2662 -2359 -2403 2663 0
2662 -2663 0
2662 -2163 2359 0
2662 2163 -2359 2403 0
2663 -2403 -2487 0
2663 -2163 2656 0
2663 -2163 -2403 0
2663 -2487 2656 0
-2663 2403 -2656 0
-2663 2163 2487 0
-2664 2655 2657 0
-2664 -2655 -2657 0
2664 -2655 2657 0
2664 2655 -2657 0
2665 2266 -2487 -2666 0
2665 2161 2487 -2666 0
-2665 2666 0
-2665 -2266 -2487 0
-2665 -2161 2487 0
2666 -2156 -2229 0
2666 -2273 2661 0
2666 -2229 -2273 0
2666 -2156 2661 0
-2666 2229 -2661 0
-2666 2156 2273 0
-2667 2654 2658 0
-2667 -2654 -2658 0
2667 -2654 2658 0
2667 2654 -2658 0
2668 -2647 2648 0
-2668 2647 0
-2668 -2648 0
-2669 2670 2671 0
2669 -2670 0
2669 -2671 0
2670 2641 -2642 0
-2670 -2641 0
-2670 2642 0
2671 2640 -2645 0
-2671 -2640 0
-2671 2645 0
-2672 2608 2609 0
-2672 -2608 -2609 0
2672 -2608 2609 0
2672 2608 -2609 0
2673 2636 -2639 0
-2673 -2636 0
-2673 2639 0
2674 -2669 2672 0
-2674 2669 0
-2674 -2672 0
2675 -2592 -2593 0
-2675 2592 0
-2675 2593 0
-2676 2422 2424 0
-2676 -2422 -2424 0
2676 -2422 2424 0
2676 2422 -2424 0
2677 -2678 2748 0
-2677 2678 0
-2677 -2748 0
2678 -2422 2679 2747 0
-2678 2422 0
-2678 -2679 0
-2678 -2747 0
-2679 2680 2744 0
-2679 2741 2744 0
2679 -2744 0
2679 -2680 -2741 0
-2680 -2038 -2681 0
-2680 2038 2681 0
2680 2038 -2681 0
2680 -2038 2681 0
2681 -2682 2683 0
2681 2682 -2683 0
-2681 2682 2683 0
-2681 -2682 -2683 0
2682 2039 -2100 0
-2682 -2039 0
-2682 2100 0
-2683 -2684 -2700 0
-2683 2684 2700 0
2683 2684 -2700 0
2683 -2684 2700 0
-2684 1935 2685 2693 2698 0
2684 -1935 0
2684 -2698 0
2684 -2693 0
2684 -2685 0
-2685 2119 2686 0
2685 -2119 0
2685 -2686 0
-2686 2062 2687 2689 2690 0
2686 -2062 0
2686 -2690 0
2686 -2689 0
2686 -2687 0
-2687 1954 1971 2133 2688 0
2687 -2688 0
2687 -2133 0
2687 -1954 0
2687 -1971 0
-2688 2070 2182 0
2688 -2070 0
2688 -2182 0
-2689 2154 2188 0
2689 -2154 0
2689 -2188 0
-2690 1956 2131 2691 0
2690 -2691 0
2690 -2131 0
2690 -1956 0
-2691 1883 1973 2089 2692 0
2691 -2692 0
2691 -2089 0
2691 -1883 0
2691 -1973 0
2692 -1890 -2482 0
-2692 1890 0
-2692 2482 0
-2693 1989 2694 2696 2697 0
2693 -2697 0
2693 -1989 0
2693 -2696 0
2693 -2694 0
-2694 2192 2286 2695 0
2694 -2192 0
2694 -2286 0
2694 -2695 0
-2695 2044 2122 2145 2252 0
2695 -2044 0
2695 -2252 0
2695 -2145 0
2695 -2122 0
-2696 2068 2193 0
2696 -2068 0
2696 -2193 0
-2697 1964 1983 0
2697 -1964 0
2697 -1983 0
-2698 1921 2147 2336 2699 0
2698 -1921 0
2698 -2699 0
2698 -2336 0
2698 -2147 0
-2699 2015 2048 2294 0
2699 -2015 0
2699 -2294 0
2699 -2048 0
2700 -2701 2704 0
2700 2701 -2704 0
-2700 2701 2704 0
-2700 -2701 -2704 0
2701 2702 -2703 0
-2701 -2702 0
-2701 2703 0
2702 -2102 2522 0
-2702 2102 0
-2702 -2522 0
-2703 2101 2552 0
2703 -2101 0
2703 -2552 0
-2704 2705 2708 0
-2704 -2705 -2708 0
2704 -2705 2708 0
2704 2705 -2708 0
-2705 2706 2707 0
2705 -2706 0
2705 -2707 0
2706 -2524 -2527 0
-2706 2524 0
-2706 2527 0
2707 -2523 2535 0
-2707 2523 0
-2707 -2535 0
-2708 2709 2723 0
-2708 -2709 -2723 0
2708 -2709 2723 0
2708 2709 -2723 0
2709 2710 -2713 0
2709 -2710 2713 0
-2709 -2710 -2713 0
-2709 2710 2713 0
-2710 2711 2712 0
2710 -2711 0
2710 -2712 0
2711 2537 -2543 0
-2711 -2537 0
-2711 2543 0
2712 2536 -2544 0
-2712 -2536 0
-2712 2544 0
2713 -2714 2720 0
2713 2714 -2720 0
-2713 2714 2720 0
-2713 -2714 -2720 0
2714 -2715 2717 0
2714 2715 -2717 0
-2714 2715 2717 0
-2714 -2715 -2717 0
2715 2359 -2490 2716 0
2715 -2359 -2491 2716 0
-2715 -2716 0
-2715 -2359 2491 0
-2715 2359 2490 0
2716 -2107 -2355 -2466 0
2716 -2107 2355 2466 0
-2716 2107 0
-2716 2355 -2466 0
-2716 -2355 2466 0
-2717 2718 2719 0
2717 -2718 0
2717 -2719 0
2718 -2541 2542 0
-2718 2541 0
-2718 -2542 0
2719 -2538 2540 0
-2719 2538 0
-2719 -2540 0
-2720 2721 2722 0
2720 -2721 0
2720 -2722 0
2721 -2548 -2550 0
-2721 2548 0
-2721 2550 0
2722 -2545 -2547 0
-2722 2545 0
-2722 2547 0
-2723 -2724 -2733 0
-2723 2724 2733 0
2723 2724 -2733 0
2723 -2724 2733 0
-2724 2725 2728 0
-2724 -2725 -2728 0
2724 -2725 2728 0
2724 2725 -2728 0
-2725 2726 2727 0
2725 -2726 0
2725 -2727 0
2726 -2532 -2533 0
-2726 2532 0
-2726 2533 0
2727 -2528 -2531 0
-2727 2528 0
-2727 2531 0
-2728 2729 2731 0
-2728 -2729 -2731 0
2728 -2729 2731 0
2728 2729 -2731 0
2729 2161 2462 -2730 0
2729 2266 -2462 -2730 0
-2729 2730 0
-2729 -2266 -2462 0
-2729 -2161 2462 0
2730 -2269 -2460 0
2730 -2273 2460 0
-2730 2273 2460 0
-2730 2269 -2460 0
-2731 -2163 -2732 0
-2731 2163 2732 0
2731 2163 -2732 0
2731 -2163 2732 0
2732 -2466 -2487 0
-2732 2466 0
-2732 2487 0
2733 2734 -2736 0
2733 -2734 2736 0
-2733 -2734 -2736 0
-2733 2734 2736 0
2734 -2395 2509 -2735 0
2734 2395 2507 -2735 0
-2734 2735 0
-2734 -2395 -2509 0
-2734 2395 -2507 0
2735 2391 -2512 0
2735 -2391 -2511 0
-2735 -2391 2511 0
-2735 2391 2512 0
2736 2737 -2739 0
2736 -2737 2739 0
-2736 -2737 -2739 0
-2736 2737 2739 0
2737 -2271 -2361 2738 0
2737 2271 -2363 2738 0
-2737 -2738 0
-2737 -2271 2361 0
-2737 2271 2363 0
-2738 -2264 2357 0
-2738 2264 2276 0
2738 2264 -2276 0
2738 -2264 -2357 0
2739 2367 2422 -2740 0
2739 2393 -2422 -2740 0
-2739 2740 0
-2739 -2367 2422 0
-2739 -2393 -2422 0
2740 2394 -2424 0
2740 -2397 2424 0
-2740 2397 2424 0
-2740 -2394 -2424 0
2741 -2742 -2743 0
-2741 2742 0
-2741 2743 0
-2742 2271 2395 0
-2742 -2271 -2395 0
2742 -2271 2395 0
2742 2271 -2395 0
-2743 2264 2422 0
-2743 -2264 -2422 0
2743 -2264 2422 0
2743 2264 -2422 0
-2744 2038 2746 0
-2744 2681 2745 0
-2744 2745 2746 0
-2744 2038 2681 0
2744 -2681 -2746 0
2744 -2038 -2745 0
2745 -2264 2271 2395 0
2745 2264 -2271 -2395 0
-2745 2271 -2395 0
-2745 2264 2395 0
-2745 -2264 -2271 0
2746 -2742 2743 0
-2746 2742 0
-2746 -2743 0
2747 -2038 -2742 0
-2747 2038 0
-2747 2742 0
-2748 -2749 2811 2814 0
-2748 2746 2811 2814 0
2748 -2814 0
2748 -2811 0
2748 -2746 2749 0
-2749 -2750 -2753 0
-2749 2750 2753 0
2749 2750 -2753 0
2749 -2750 2753 0
2750 2751 -2752 0
-2750 -2751 0
-2750 2752 0
2751 -2684 2700 0
-2751 2684 0
-2751 -2700 0
-2752 2682 2683 0
2752 -2682 0
2752 -2683 0
2753 2754 -2770 0
2753 -2754 2770 0
-2753 -2754 -2770 0
-2753 2754 2770 0
2754 1945 2235 -2755 2764 0
-2754 -2764 0
-2754 -1945 0
-2754 2755 0
-2754 -2235 0
2755 1986 2170 -2173 2756 0
-2755 -1986 0
-2755 -2756 0
-2755 2173 0
-2755 -2170 0
-2756 2064 2757 2758 2760 0
2756 -2760 0
2756 -2064 0
2756 -2758 0
2756 -2757 0
-2757 2022 2059 2095 2146 0
2757 -2146 0
2757 -2095 0
2757 -2022 0
2757 -2059 0
-2758 2098 2384 2759 0
2758 -2759 0
2758 -2384 0
2758 -2098 0
-2759 1999 2188 2301 0
2759 -1999 0
2759 -2301 0
2759 -2188 0
-2760 2387 2696 2761 2763 0
2760 -2763 0
2760 -2387 0
2760 -2761 0
2760 -2696 0
-2761 1943 2073 2118 2762 0
2761 -2762 0
2761 -2118 0
2761 -1943 0
2761 -2073 0
-2762 2096 2168 0
2762 -2096 0
2762 -2168 0
-2763 2063 2154 0
2763 -2063 0
2763 -2154 0
-2764 2000 2055 2320 2765 0
2764 -2765 0
2764 -2320 0
2764 -2000 0
2764 -2055 0
-2765 2328 2480 2766 2768 0
2765 -2768 0
2765 -2328 0
2765 -2766 0
2765 -2480 0
-2766 1936 2078 2120 2767 0
2766 -2767 0
2766 -2120 0
2766 -1936 0
2766 -2078 0
-2767 2015 2113 2470 0
2767 -2470 0
2767 -2113 0
2767 -2015 0
-2768 2024 2769 0
2768 -2024 0
2768 -2769 0
-2769 2144 2202 0
2769 -2144 0
2769 -2202 0
2770 -2771 2774 0
2770 2771 -2774 0
-2770 2771 2774 0
-2770 -2771 -2774 0
2771 2772 -2773 0
-2771 -2772 0
-2771 2773 0
2772 -2705 2708 0
-2772 2705 0
-2772 -2708 0
-2773 2701 2704 0
2773 -2701 0
2773 -2704 0
-2774 2775 2778 0
-2774 -2775 -2778 0
2774 -2775 2778 0
2774 2775 -2778 0
-2775 2776 2777 0
2775 -2776 0
2775 -2777 0
2776 -2710 -2713 0
-2776 2710 0
-2776 2713 0
2777 -2709 2723 0
-2777 2709 0
-2777 -2723 0
-2778 2779 2793 0
-2778 -2779 -2793 0
2778 -2779 2793 0
2778 2779 -2793 0
2779 2780 -2783 0
2779 -2780 2783 0
-2779 -2780 -2783 0
-2779 2780 2783 0
-2780 2781 2782 0
2780 -2781 0
2780 -2782 0
2781 -2725 2728 0
-2781 2725 0
-2781 -2728 0
2782 2724 -2733 0
-2782 -2724 0
-2782 2733 0
2783 -2784 2790 0
2783 2784 -2790 0
-2783 2784 2790 0
-2783 -2784 -2790 0
2784 -2785 2787 0
2784 2785 -2787 0
-2784 2785 2787 0
-2784 -2785 -2787 0
2785 2107 -2786 0
2785 2391 -2466 -2786 0
2785 -2391 2466 -2786 0
-2785 2786 0
-2785 -2107 -2391 -2466 0
-2785 -2107 2391 2466 0
2786 -2355 -2491 0
2786 2355 -2490 0
-2786 2355 2490 0
-2786 -2355 2491 0
-2787 2788 2789 0
2787 -2788 0
2787 -2789 0
2788 2163 -2732 0
-2788 -2163 0
-2788 2732 0
2789 -2729 2731 0
-2789 2729 0
-2789 -2731 0
-2790 2791 2792 0
2790 -2791 0
2790 -2792 0
2791 -2737 -2739 0
-2791 2737 0
-2791 2739 0
2792 -2734 -2736 0
-2792 2734 0
-2792 2736 0
-2793 2794 2797 0
-2793 -2794 -2797 0
2793 -2794 2797 0
2793 2794 -2797 0
-2794 2795 2796 0
2794 -2795 0
2794 -2796 0
2795 -2715 -2717 0
-2795 2715 0
-2795 2717 0
2796 -2714 -2720 0
-2796 2714 0
-2796 2720 0
-2797 2798 2806 0
-2797 -2798 -2806 0
2797 -2798 2806 0
2797 2798 -2806 0
2798 2799 -2801 0
2798 -2799 2801 0
-2798 -2799 -2801 0
-2798 2799 2801 0
2799 -2395 -2511 2800 0
2799 2395 -2512 2800 0
-2799 -2800 0
-2799 -2395 2511 0
-2799 2395 2512 0
2800 2271 -2507 0
2800 -2271 -2509 0
-2800 -2271 2509 0
-2800 2271 2507 0
2801 2802 -2804 0
2801 -2802 2804 0
-2801 -2802 -2804 0
-2801 2802 2804 0
2802 2394 -2460 2803 0
2802 -2397 2460 2803 0
-2802 -2803 0
-2802 2397 2460 0
-2802 -2394 -2460 0
-2803 2393 -2424 0
-2803 2367 2424 0
2803 -2367 2424 0
2803 -2393 -2424 0
2804 2357 -2422 -2805 0
2804 2276 2422 -2805 0
-2804 2805 0
-2804 -2357 -2422 0
-2804 -2276 2422 0
-2805 -2264 2361 0
-2805 2264 2363 0
2805 2264 -2363 0
2805 -2264 -2361 0
-2806 -2807 -2809 0
-2806 2807 2809 0
2806 2807 -2809 0
2806 -2807 2809 0
-2807 -2163 -2808 0
-2807 2163 2808 0
2807 2163 -2808 0
2807 -2163 2808 0
2808 -2359 -2466 0
-2808 2359 0
-2808 2466 0
2809 -2267 2810 0
2809 -2229 -2810 0
-2809 2267 2810 0
-2809 2229 -2810 0
2810 2270 -2462 0
-2810 -2270 0
-2810 2462 0
2811 -2741 2812 0
-2811 2741 0
-2811 -2812 0
2812 -2813 2749 0
2812 2813 -2749 0
-2812 2813 2749 0
-2812 -2813 -2749 0
2813 2038 -2681 0
-2813 -2038 0
-2813 2681 0
-2814 2745 2815 0
-2814 2038 2681 0
-2814 2681 2815 0
-2814 2038 2745 0
2814 -2681 -2745 0
2814 -2038 -2815 0
2815 -2264 -2271 -2395 2422 0
2815 2264 2271 2395 -2422 0
-2815 -2271 -2422 0
-2815 2264 2422 0
-2815 2271 -2395 0
-2815 -2264 2395 0
2816 -2817 -2818 0
-2816 2817 0
-2816 2818 0
2817 2037 -2677 0
2817 -2037 2677 0
-2817 -2037 -2677 0
-2817 2037 2677 0
2818 -2422 2819 0
2818 2422 -2819 0
-2818 2422 2819 0
-2818 -2422 -2819 0
-2819 2820 2870 2874 0
-2819 2746 2870 2874 0
2819 -2874 0
2819 -2870 0
2819 -2746 -2820 0
2820 -2821 2824 0
2820 2821 -2824 0
-2820 2821 2824 0
-2820 -2821 -2824 0
2821 -2822 2823 0
-2821 2822 0
-2821 -2823 0
-2822 2754 2770 0
2822 -2754 0
2822 -2770 0
2823 2750 -2753 0
-2823 -2750 0
-2823 2753 0
-2824 -2825 -2830 0
-2824 2825 2830 0
2824 2825 -2830 0
2824 -2825 2830 0
-2825 2040 2290 2826 2828 0
2825 -2828 0
2825 -2040 0
2825 -2826 0
2825 -2290 0
-2826 2012 2350 2766 2827 0
2826 -2012 0
2826 -2827 0
2826 -2766 0
2826 -2350 0
-2827 1947 2004 0
2827 -1947 0
2827 -2004 0
-2828 2067 2117 2688 2829 0
2828 -2829 0
2828 -2067 0
2828 -2688 0
2828 -2117 0
-2829 1987 1996 2016 2193 0
2829 -2193 0
2829 -2016 0
2829 -1987 0
2829 -1996 0
2830 -2831 2834 0
2830 2831 -2834 0
-2830 2831 2834 0
-2830 -2831 -2834 0
2831 2832 -2833 0
-2831 -2832 0
-2831 2833 0
2832 -2775 2778 0
-2832 2775 0
-2832 -2778 0
-2833 2771 2774 0
2833 -2771 0
2833 -2774 0
-2834 2835 2838 0
-2834 -2835 -2838 0
2834 -2835 2838 0
2834 2835 -2838 0
-2835 2836 2837 0
2835 -2836 0
2835 -2837 0
2836 -2780 -2783 0
-2836 2780 0
-2836 2783 0
2837 -2779 2793 0
-2837 2779 0
-2837 -2793 0
-2838 -2839 -2854 0
-2838 2839 2854 0
2838 2839 -2854 0
2838 -2839 2854 0
-2839 2840 2843 0
-2839 -2840 -2843 0
2839 -2840 2843 0
2839 2840 -2843 0
-2840 2841 2842 0
2840 -2841 0
2840 -2842 0
2841 -2798 2806 0
-2841 2798 0
-2841 -2806 0
2842 -2794 2797 0
-2842 2794 0
-2842 -2797 0
-2843 2844 2847 0
-2843 -2844 -2847 0
2843 -2844 2847 0
2843 2844 -2847 0
-2844 2845 2846 0
2844 -2845 0
2844 -2846 0
2845 2163 -2808 0
-2845 -2163 0
-2845 2808 0
2846 2807 -2809 0
-2846 -2807 0
-2846 2809 0
-2847 2848 2850 0
-2847 -2848 -2850 0
2847 -2848 2850 0
2847 2848 -2850 0
2848 -2361 -2422 2849 0
2848 -2363 2422 2849 0
-2848 -2849 0
-2848 2363 2422 0
-2848 2361 -2422 0
-2849 2357 -2424 0
-2849 2276 2424 0
2849 -2357 -2424 0
2849 -2276 2424 0
-2850 2851 2852 0
-2850 -2851 -2852 0
2850 -2851 2852 0
2850 2851 -2852 0
2851 -2355 -2466 0
-2851 2355 0
-2851 2466 0
-2852 -2163 2853 0
-2852 2267 2853 0
2852 -2853 0
2852 2163 -2267 0
2853 -2163 -2230 0
-2853 2163 0
-2853 2230 0
2854 2855 -2858 0
2854 -2855 2858 0
-2854 -2855 -2858 0
-2854 2855 2858 0
-2855 2856 2857 0
2855 -2856 0
2855 -2857 0
2856 -2785 -2787 0
-2856 2785 0
-2856 2787 0
2857 -2784 -2790 0
-2857 2784 0
-2857 2790 0
2858 2859 -2862 0
2858 -2859 2862 0
-2858 -2859 -2862 0
-2858 2859 2862 0
-2859 2860 2861 0
2859 -2860 0
2859 -2861 0
2860 -2802 -2804 0
-2860 2802 0
-2860 2804 0
2861 -2799 -2801 0
-2861 2799 0
-2861 2801 0
2862 2863 -2865 0
2862 -2863 2865 0
-2862 -2863 -2865 0
-2862 2863 2865 0
2863 -2397 2462 2864 0
2863 2394 -2462 2864 0
-2863 -2864 0
-2863 2397 2462 0
-2863 -2394 -2462 0
-2864 2393 -2460 0
-2864 2367 2460 0
2864 -2367 2460 0
2864 -2393 -2460 0
2865 2866 -2868 0
2865 -2866 2868 0
-2865 -2866 -2868 0
-2865 2866 2868 0
2866 -2264 2509 -2867 0
2866 2264 2507 -2867 0
-2866 2867 0
-2866 -2264 -2509 0
-2866 2264 -2507 0
2867 2271 -2512 0
2867 -2271 -2511 0
-2867 -2271 2511 0
-2867 2271 2512 0
2868 2107 -2869 0
2868 2395 -2466 -2869 0
2868 -2395 2466 -2869 0
-2868 2869 0
-2868 -2107 -2395 -2466 0
-2868 -2107 2395 2466 0
2869 -2391 -2491 0
2869 2391 -2490 0
-2869 2391 2490 0
-2869 -2391 2491 0
2870 -2741 2871 0
-2870 2741 0
-2870 -2871 0
2871 -2872 2873 0
2871 2872 -2873 0
-2871 2872 2873 0
-2871 -2872 -2873 0
2872 -2038 -2681 0
2872 -2681 2749 0
-2872 2681 0
-2872 2038 -2749 0
-2873 -2749 -2820 0
-2873 2749 2820 0
2873 2749 -2820 0
2873 -2749 2820 0
-2874 -2749 2815 0
-2874 2681 2745 0
-2874 2745 2815 0
-2874 2681 -2749 0
2874 -2745 2749 0
2874 -2681 -2815 0
2875 2876 -2885 0
2875 -2876 2885 0
-2875 -2876 -2885 0
-2875 2876 2885 0
2876 2877 -2883 0
2876 -2877 2883 0
-2876 -2877 -2883 0
-2876 2877 2883 0
-2877 2680 2880 0
-2877 2878 2880 0
2877 -2880 0
2877 -2680 -2878 0
2878 -2676 -2879 0
-2878 2676 0
-2878 2879 0
2879 2460 -2462 0
2879 -2460 2462 0
-2879 -2460 -2462 0
-2879 2460 2462 0
-2880 2038 2882 0
-2880 2681 2881 0
-2880 2881 2882 0
-2880 2038 2681 0
2880 -2681 -2882 0
2880 -2038 -2881 0
2881 2422 2424 -2460 0
2881 -2422 -2424 2460 0
-2881 2422 2460 0
-2881 -2424 -2460 0
-2881 -2422 2424 0
2882 -2676 2879 0
-2882 2676 0
-2882 -2879 0
2883 -2676 -2884 0
-2883 2676 0
-2883 2884 0
2884 -2462 -2038 0
-2884 2462 0
-2884 2038 0
2885 -2422 2886 0
2885 2422 -2886 0
-2885 2422 2886 0
-2885 -2422 -2886 0
-2886 2887 2943 2947 0
-2886 2746 2943 2947 0
2886 -2947 0
2886 -2943 0
2886 -2746 -2887 0
2887 -2888 2891 0
2887 2888 -2891 0
-2887 2888 2891 0
-2887 -2888 -2891 0
2888 2889 -2890 0
-2888 -2889 0
-2888 2890 0
2889 -2825 2830 0
-2889 2825 0
-2889 -2830 0
-2890 2821 2824 0
2890 -2821 0
2890 -2824 0
-2891 -2892 -2908 0
-2891 2892 2908 0
2891 2892 -2908 0
2891 -2892 2908 0
-2892 2893 2898 2900 2905 0
2892 -2905 0
2892 -2893 0
2892 -2900 0
2892 -2898 0
-2893 1956 2375 2894 0
2893 -2894 0
2893 -2375 0
2893 -1956 0
-2894 2013 2348 2895 2897 0
2894 -2013 0
2894 -2897 0
2894 -2895 0
2894 -2348 0
-2895 1966 2227 2896 0
2895 -2896 0
2895 -2227 0
2895 -1966 0
-2896 2120 2219 2321 0
2896 -2321 0
2896 -2219 0
2896 -2120 0
-2897 1889 1948 2064 0
2897 -2064 0
2897 -1948 0
2897 -1889 0
-2898 1933 2051 2444 2899 0
2898 -1933 0
2898 -2899 0
2898 -2444 0
2898 -2051 0
-2899 1915 1918 2063 2078 0
2899 -2078 0
2899 -2063 0
2899 -1915 0
2899 -1918 0
-2900 2232 2901 2902 2903 0
2900 -2903 0
2900 -2232 0
2900 -2902 0
2900 -2901 0
-2901 1912 1999 0
2901 -1912 0
2901 -1999 0
-2902 1916 1927 2166 0
2902 -1916 0
2902 -2166 0
2902 -1927 0
-2903 2061 2308 2904 0
2903 -2904 0
2903 -2308 0
2903 -2061 0
-2904 1991 2068 2070 0
2904 -1991 0
2904 -2070 0
2904 -2068 0
-2905 2133 2906 0
2905 -2133 0
2905 -2906 0
-2906 1969 2168 2239 2907 0
2906 -2907 0
2906 -1969 0
2906 -2239 0
2906 -2168 0
-2907 2099 2184 0
2907 -2099 0
2907 -2184 0
2908 -2909 2912 0
2908 2909 -2912 0
-2908 2909 2912 0
-2908 -2909 -2912 0
2909 2910 -2911 0
-2909 -2910 0
-2909 2911 0
2910 -2835 2838 0
-2910 2835 0
-2910 -2838 0
-2911 2831 2834 0
2911 -2831 0
2911 -2834 0
-2912 2913 2916 0
-2912 -2913 -2916 0
2912 -2913 2916 0
2912 2913 -2916 0
-2913 2914 2915 0
2913 -2914 0
2913 -2915 0
2914 -2840 2843 0
-2914 2840 0
-2914 -2843 0
2915 2839 -2854 0
-2915 -2839 0
-2915 2854 0
-2916 2917 2924 0
-2916 -2917 -2924 0
2916 -2917 2924 0
2916 2917 -2924 0
2917 -2918 2921 0
2917 2918 -2921 0
-2917 2918 2921 0
-2917 -2918 -2921 0
-2918 2919 2920 0
2918 -2919 0
2918 -2920 0
2919 -2848 2850 0
-2919 2848 0
-2919 -2850 0
2920 -2844 2847 0
-2920 2844 0
-2920 -2847 0
-2921 2922 2923 0
2921 -2922 0
2921 -2923 0
2922 -2859 -2862 0
-2922 2859 0
-2922 2862 0
2923 -2855 -2858 0
-2923 2855 0
-2923 2858 0
-2924 2925 2933 0
-2924 -2925 -2933 0
2924 -2925 2933 0
2924 2925 -2933 0
2925 2926 -2928 0
2925 -2926 2928 0
-2925 -2926 -2928 0
-2925 2926 2928 0
-2926 2853 2927 0
2926 -2853 0
2926 -2927 0
2927 -2851 2852 0
-2927 2851 0
-2927 -2852 0
2928 2929 -2931 0
2928 -2929 2931 0
-2928 -2929 -2931 0
-2928 2929 2931 0
2929 -2422 2509 -2930 0
2929 2422 2507 -2930 0
-2929 2930 0
-2929 -2422 -2509 0
-2929 2422 -2507 0
2930 2264 -2512 0
2930 -2264 -2511 0
-2930 -2264 2511 0
-2930 2264 2512 0
2931 2395 -2490 2932 0
2931 -2395 -2491 2932 0
-2931 -2932 0
-2931 -2395 2491 0
-2931 2395 2490 0
2932 -2107 -2271 -2466 0
2932 -2107 2271 2466 0
-2932 2107 0
-2932 2271 -2466 0
-2932 -2271 2466 0
-2933 2934 2937 0
-2933 -2934 -2937 0
2933 -2934 2937 0
2933 2934 -2937 0
-2934 2935 2936 0
2934 -2935 0
2934 -2936 0
2935 -2866 -2868 0
-2935 2866 0
-2935 2868 0
2936 -2863 -2865 0
-2936 2863 0
-2936 2865 0
-2937 2938 2940 0
-2937 -2938 -2940 0
2937 -2938 2940 0
2937 2938 -2940 0
2938 2357 -2460 -2939 0
2938 2276 2460 -2939 0
-2938 2939 0
-2938 -2357 -2460 0
-2938 -2276 2460 0
2939 -2361 -2424 0
2939 -2363 2424 0
-2939 2363 2424 0
-2939 2361 -2424 0
-2940 -2941 -2942 0
-2940 2941 2942 0
2940 2941 -2942 0
2940 -2941 2942 0
2941 -2391 -2466 0
-2941 2391 0
-2941 2466 0
2942 -2368 -2397 2462 0
2942 2393 -2397 -2462 0
-2942 2397 0
-2942 -2393 -2462 0
-2942 2368 2462 0
2943 -2741 -2944 0
-2943 2741 0
-2943 2944 0
2944 2945 -2946 0
2944 -2945 2946 0
-2944 -2945 -2946 0
-2944 2945 2946 0
-2945 -2749 2820 0
-2945 2872 2820 0
-2945 -2749 2872 0
2945 2749 -2872 0
2945 -2872 -2820 0
2945 2749 -2820 0
2946 2820 -2887 0
2946 -2820 2887 0
-2946 -2820 -2887 0
-2946 2820 2887 0
-2947 2815 2820 0
-2947 2745 -2749 0
-2947 -2749 2820 0
-2947 2745 2815 0
2947 2749 -2815 0
2947 -2745 -2820 0
-2948 2395 2949 0
-2948 -2395 -2949 0
2948 -2395 2949 0
2948 2395 -2949 0
-2949 2995 3108 3111 0
-2949 2950 2995 3108 0
2949 -3108 0
2949 -2995 0
2949 -2950 -3111 0
2950 -2951 2954 0
2950 2951 -2954 0
-2950 2951 2954 0
-2950 -2951 -2954 0
2951 2952 -2953 0
-2951 -2952 0
-2951 2953 0
2952 -2892 2908 0
-2952 2892 0
-2952 -2908 0
-2953 2888 2891 0
2953 -2888 0
2953 -2891 0
-2954 -2955 -2963 0
-2954 2955 2963 0
2954 2955 -2963 0
2954 -2955 2963 0
-2955 2694 2757 2956 2962 0
2955 -2962 0
2955 -2694 0
2955 -2956 0
2955 -2757 0
-2956 2381 2957 2960 2961 0
2956 -2961 0
2956 -2381 0
2956 -2960 0
2956 -2957 0
-2957 2958 2959 0
2957 -2958 0
2957 -2959 0
-2958 2075 2291 0
2958 -2075 0
2958 -2291 0
-2959 1948 1962 0
2959 -1948 0
2959 -1962 0
-2960 1953 1997 2185 2208 0
2960 -1953 0
2960 -2208 0
2960 -2185 0
2960 -1997 0
-2961 2001 2076 0
2961 -2001 0
2961 -2076 0
-2962 2246 2311 2436 0
2962 -2246 0
2962 -2311 0
2962 -2436 0
2963 -2964 2967 0
2963 2964 -2967 0
-2963 2964 2967 0
-2963 -2964 -2967 0
2964 2965 -2966 0
-2964 -2965 0
-2964 2966 0
2965 -2913 2916 0
-2965 2913 0
-2965 -2916 0
-2966 2909 2912 0
2966 -2909 0
2966 -2912 0
-2967 2968 2971 0
-2967 -2968 -2971 0
2967 -2968 2971 0
2967 2968 -2971 0
-2968 2969 2970 0
2968 -2969 0
2968 -2970 0
2969 -2918 -2921 0
-2969 2918 0
-2969 2921 0
2970 -2917 2924 0
-2970 2917 0
-2970 -2924 0
-2971 2972 2984 0
-2971 -2972 -2984 0
2971 -2972 2984 0
2971 2972 -2984 0
2972 2973 -2976 0
2972 -2973 2976 0
-2972 -2973 -2976 0
-2972 2973 2976 0
-2973 2974 2975 0
2973 -2974 0
2973 -2975 0
2974 -2934 2937 0
-2974 2934 0
-2974 -2937 0
2975 -2925 2933 0
-2975 2925 0
-2975 -2933 0
2976 2977 -2979 0
2976 -2977 2979 0
-2976 -2977 -2979 0
-2976 2977 2979 0
2977 2107 -2978 0
2977 2264 -2466 -2978 0
2977 -2264 2466 -2978 0
-2977 2978 0
-2977 -2107 -2264 -2466 0
-2977 -2107 2264 2466 0
2978 -2271 -2491 0
2978 2271 -2490 0
-2978 2271 2490 0
-2978 -2271 2491 0
2979 2980 -2982 0
2979 -2980 2982 0
-2979 -2980 -2982 0
-2979 2980 2982 0
2980 2276 2462 -2981 0
2980 2357 -2462 -2981 0
-2980 2981 0
-2980 -2357 -2462 0
-2980 -2276 2462 0
2981 -2361 -2460 0
2981 -2363 2460 0
-2981 2363 2460 0
-2981 2361 -2460 0
2982 -2422 -2511 2983 0
2982 2422 -2512 2983 0
-2982 -2983 0
-2982 -2422 2511 0
-2982 2422 2512 0
-2983 -2424 2509 0
-2983 2424 2507 0
2983 2424 -2507 0
2983 -2424 -2509 0
-2984 2985 2992 0
-2984 -2985 -2992 0
2984 -2985 2992 0
2984 2985 -2992 0
2985 -2986 2989 0
2985 2986 -2989 0
-2985 2986 2989 0
-2985 -2986 -2989 0
-2986 2987 2988 0
2986 -2987 0
2986 -2988 0
2987 -2929 -2931 0
-2987 2929 0
-2987 2931 0
2988 -2926 -2928 0
-2988 2926 0
-2988 2928 0
-2989 2990 2991 0
2989 -2990 0
2989 -2991 0
2990 2941 -2942 0
-2990 -2941 0
-2990 2942 0
2991 -2938 2940 0
-2991 2938 0
-2991 -2940 0
-2992 2993 2994 0
-2992 -2993 -2994 0
2992 -2993 2994 0
2992 2993 -2994 0
2993 -2395 -2466 0
-2993 2395 0
-2993 2466 0
-2994 -2368 -2941 0
-2994 2368 2941 0
2994 2368 -2941 0
2994 -2368 2941 0
2995 -2996 2999 0
-2995 2996 0
-2995 -2999 0
2996 -2997 -2998 0
-2996 2997 0
-2996 2998 0
-2997 2355 2359 0
-2997 -2355 -2359 0
2997 -2355 2359 0
2997 2355 -2359 0
-2998 2391 2395 0
-2998 -2391 -2395 0
2998 -2391 2395 0
2998 2391 -2395 0
-2999 3000 3060 0
-2999 -3000 -3060 0
2999 -3000 3060 0
2999 3000 -3060 0
-3000 3001 3051 0
3000 -3001 0
3000 -3051 0
3001 -3002 -2950 0
-3001 3002 0
-3001 2950 0
3002 -3003 3006 0
3002 3003 -3006 0
-3002 3003 3006 0
-3002 -3003 -3006 0
3003 3004 -3005 0
-3003 -3004 0
-3003 3005 0
3004 -2955 2963 0
-3004 2955 0
-3004 -2963 0
-3005 2951 2954 0
3005 -2951 0
3005 -2954 0
-3006 -3007 -3021 0
-3006 3007 3021 0
3006 3007 -3021 0
3006 -3007 3021 0
-3007 3008 3009 3014 3015 0
3007 -3015 0
3007 -3008 0
3007 -3014 0
3007 -3009 0
-3008 1938 2044 2231 0
3008 -2231 0
3008 -2044 0
3008 -1938 0
-3009 2042 2078 2320 3010 0
3009 -3010 0
3009 -2320 0
3009 -2042 0
3009 -2078 0
-3010 2197 2301 2417 3011 0
3010 -3011 0
3010 -2197 0
3010 -2417 0
3010 -2301 0
-3011 1969 2133 2258 3012 0
3011 -3012 0
3011 -1969 0
3011 -2258 0
3011 -2133 0
-3012 2131 2294 3013 0
3012 -3013 0
3012 -2294 0
3012 -2131 0
-3013 1977 2219 0
3013 -1977 0
3013 -2219 0
-3014 1912 2048 2136 0
3014 -2136 0
3014 -2048 0
3014 -1912 0
-3015 2004 3016 3018 0
3015 -3018 0
3015 -3016 0
3015 -2004 0
-3016 2001 2016 2019 3017 0
3016 -3017 0
3016 -2019 0
3016 -2001 0
3016 -2016 0
-3017 1948 2122 0
3017 -1948 0
3017 -2122 0
-3018 1962 2017 3019 3020 0
3018 -1962 0
3018 -3020 0
3018 -3019 0
3018 -2017 0
-3019 1996 2147 0
3019 -1996 0
3019 -2147 0
-3020 1844 1904 1935 2008 0
3020 -2008 0
3020 -1935 0
3020 -1844 0
3020 -1904 0
3021 -3022 3025 0
3021 3022 -3025 0
-3021 3022 3025 0
-3021 -3022 -3025 0
3022 3023 -3024 0
-3022 -3023 0
-3022 3024 0
3023 -2968 2971 0
-3023 2968 0
-3023 -2971 0
-3024 2964 2967 0
3024 -2964 0
3024 -2967 0
-3025 3026 3029 0
-3025 -3026 -3029 0
3025 -3026 3029 0
3025 3026 -3029 0
-3026 3027 3028 0
3026 -3027 0
3026 -3028 0
3027 -2973 -2976 0
-3027 2973 0
-3027 2976 0
3028 -2972 2984 0
-3028 2972 0
-3028 -2984 0
-3029 -3030 -3041 0
-3029 3030 3041 0
3029 3030 -3041 0
3029 -3030 3041 0
-3030 3031 3034 0
-3030 -3031 -3034 0
3030 -3031 3034 0
3030 3031 -3034 0
-3031 3032 3033 0
3031 -3032 0
3031 -3033 0
3032 -2986 -2989 0
-3032 2986 0
-3032 2989 0
3033 -2985 2992 0
-3033 2985 0
-3033 -2992 0
-3034 3035 3037 0
-3034 -3035 -3037 0
3034 -3035 3037 0
3034 3035 -3037 0
3035 -2424 -2511 3036 0
3035 2424 -2512 3036 0
-3035 -3036 0
-3035 -2424 2511 0
-3035 2424 2512 0
-3036 -2460 2509 0
-3036 2460 2507 0
3036 2460 -2507 0
3036 -2460 -2509 0
-3037 3038 3039 0
-3037 -3038 -3039 0
3037 -3038 3039 0
3037 3038 -3039 0
3038 -2271 -2466 0
-3038 2271 0
-3038 2466 0
-3039 2358 3040 0
-3039 2362 -3040 0
3039 -2362 -3040 0
3039 -2358 3040 0
3040 2277 -2462 0
-3040 -2277 0
-3040 2462 0
3041 3042 -3045 0
3041 -3042 3045 0
-3041 -3042 -3045 0
-3041 3042 3045 0
-3042 3043 3044 0
3042 -3043 0
3042 -3044 0
3043 -2980 -2982 0
-3043 2980 0
-3043 2982 0
3044 -2977 -2979 0
-3044 2977 0
-3044 2979 0
3045 -3046 3048 0
3045 3046 -3048 0
-3045 3046 3048 0
-3045 -3046 -3048 0
3046 2107 -3047 0
3046 2422 -2466 -3047 0
3046 -2422 2466 -3047 0
-3046 3047 0
-3046 -2107 -2422 -2466 0
-3046 -2107 2422 2466 0
3047 -2264 -2491 0
3047 2264 -2490 0
-3047 2264 2490 0
-3047 -2264 2491 0
-3048 3049 3050 0
3048 -3049 0
3048 -3050 0
3049 2368 -2941 0
-3049 -2368 0
-3049 2941 0
3050 -2993 2994 0
-3050 2993 0
-3050 -2994 0
3051 -3052 -3059 0
-3051 3052 0
-3051 3059 0
-3052 3053 3054 0
3052 -3053 0
3052 -3054 0
3053 -2887 -2950 0
-3053 2887 0
-3053 2950 0
3054 -3055 -3058 0
-3054 3055 0
-3054 3058 0
-3055 3056 3057 0
3055 -3056 0
3055 -3057 0
3056 -2820 -2887 0
-3056 2820 0
-3056 2887 0
3057 -2945 -2946 0
-3057 2945 0
-3057 2946 0
3058 2887 -2950 0
3058 -2887 2950 0
-3058 -2887 -2950 0
-3058 2887 2950 0
3059 3002 -2950 0
3059 -3002 2950 0
-3059 -3002 -2950 0
-3059 3002 2950 0
-3060 3002 3061 0
-3060 -3002 -3061 0
3060 -3002 3061 0
3060 3002 -3061 0
-3061 -3062 -3065 0
-3061 3062 3065 0
3061 3062 -3065 0
3061 -3062 3065 0
3062 3063 -3064 0
-3062 -3063 0
-3062 3064 0
3063 -3007 3021 0
-3063 3007 0
-3063 -3021 0
-3064 3003 3006 0
3064 -3003 0
3064 -3006 0
3065 3066 -3083 0
3065 -3066 3083 0
-3065 -3066 -3083 0
-3065 3066 3083 0
3066 1883 3067 3074 -3082 0
-3066 -1883 0
-3066 3082 0
-3066 -3074 0
-3066 -3067 0
-3067 1953 2002 2193 3068 0
3067 -3068 0
3067 -2193 0
3067 -1953 0
3067 -2002 0
-3068 2087 2348 3069 3071 0
3068 -3071 0
3068 -2087 0
3068 -3069 0
3068 -2348 0
-3069 1995 2194 2214 3070 0
3069 -3070 0
3069 -1995 0
3069 -2214 0
3069 -2194 0
-3070 1991 2114 2320 0
3070 -1991 0
3070 -2320 0
3070 -2114 0
-3071 1980 2051 3072 3073 0
3071 -1980 0
3071 -3073 0
3071 -3072 0
3071 -2051 0
-3072 2007 2018 0
3072 -2007 0
3072 -2018 0
-3073 1964 2004 2123 0
3073 -1964 0
3073 -2123 0
3073 -2004 0
-3074 3075 3079 3081 0
3074 -3075 0
3074 -3079 0
3074 -3081 0
-3075 2073 2096 2135 3076 0
3075 -2073 0
3075 -3076 0
3075 -2135 0
3075 -2096 0
-3076 2314 2480 3077 3078 0
3076 -3078 0
3076 -2314 0
3076 -3077 0
3076 -2480 0
-3077 1900 2121 2148 0
3077 -1900 0
3077 -2148 0
3077 -2121 0
-3078 1970 2120 2154 0
3078 -1970 0
3078 -2154 0
3078 -2120 0
-3079 1971 2131 2168 3080 0
3079 -3080 0
3079 -2168 0
3079 -1971 0
3079 -2131 0
-3080 1949 2043 2147 2322 0
3080 -2322 0
3080 -2147 0
3080 -1949 0
3080 -2043 0
-3081 2049 2056 2171 2416 0
3081 -2049 0
3081 -2416 0
3081 -2171 0
3081 -2056 0
3082 1933 -2173 2759 0
-3082 -2759 0
-3082 2173 0
-3082 -1933 0
3083 -3084 3087 0
3083 3084 -3087 0
-3083 3084 3087 0
-3083 -3084 -3087 0
3084 3085 -3086 0
-3084 -3085 0
-3084 3086 0
3085 -3026 3029 0
-3085 3026 0
-3085 -3029 0
-3086 3022 3025 0
3086 -3022 0
3086 -3025 0
-3087 3088 3091 0
-3087 -3088 -3091 0
3087 -3088 3091 0
3087 3088 -3091 0
-3088 3089 3090 0
3088 -3089 0
3088 -3090 0
3089 -3031 3034 0
-3089 3031 0
-3089 -3034 0
3090 3030 -3041 0
-3090 -3030 0
-3090 3041 0
-3091 -3092 -3099 0
-3091 3092 3099 0
3091 3092 -3099 0
3091 -3092 3099 0
-3092 3093 3096 0
-3092 -3093 -3096 0
3092 -3093 3096 0
3092 3093 -3096 0
-3093 3094 3095 0
3093 -3094 0
3093 -3095 0
3094 -3046 -3048 0
-3094 3046 0
-3094 3048 0
3095 -3042 -3045 0
-3095 3042 0
-3095 3045 0
-3096 3097 3098 0
-3096 -3097 -3098 0
3096 -3097 3098 0
3096 3097 -3098 0
3097 -2264 -2466 0
-3097 2264 0
-3097 2466 0
-3098 -2358 -3038 0
-3098 2358 3038 0
3098 2358 -3038 0
3098 -2358 3038 0
3099 3100 -3103 0
3099 -3100 3103 0
-3099 -3100 -3103 0
-3099 3100 3103 0
-3100 3101 3102 0
3100 -3101 0
3100 -3102 0
3101 3038 -3039 0
-3101 -3038 0
-3101 3039 0
3102 -3035 3037 0
-3102 3035 0
-3102 -3037 0
3103 3104 -3106 0
3103 -3104 3106 0
-3103 -3104 -3106 0
-3103 3104 3106 0
3104 2462 2507 -3105 0
3104 -2462 2509 -3105 0
-3104 3105 0
-3104 2462 -2507 0
-3104 -2462 -2509 0
-3105 -2460 2511 0
-3105 2460 2512 0
3105 2460 -2512 0
3105 -2460 -2511 0
3106 2422 -2490 3107 0
3106 -2422 -2491 3107 0
-3106 -3107 0
-3106 -2422 2491 0
-3106 2422 2490 0
3107 -2107 -2424 -2466 0
3107 -2107 2424 2466 0
-3107 2107 0
-3107 2424 -2466 0
-3107 -2424 2466 0
-3108 -3061 3109 0
-3108 3002 3110 0
-3108 3109 3110 0
-3108 3002 -3061 0
3108 -3002 -3109 0
3108 3061 -3110 0
3109 2355 2359 -2391 0
3109 -2355 -2359 2391 0
-3109 2355 2391 0
-3109 -2359 -2391 0
-3109 -2355 2359 0
3110 -2997 2998 0
-3110 2997 0
-3110 -2998 0
3111 -2355 -2359 -2391 2395 0
3111 2355 2359 2391 -2395 0
-3111 -2359 -2395 0
-3111 2355 2395 0
-3111 2359 -2391 0
-3111 -2355 2391 0
3112 -3113 -3160 0
-3112 3113 0
-3112 3160 0
-3113 3114 3121 0
3113 -3114 0
3113 -3121 0
3114 -3115 -3116 0
-3114 3115 0
-3114 3116 0
3115 2817 -2818 0
3115 -2817 2818 0
-3115 -2817 -2818 0
-3115 2817 2818 0
-3116 2395 3117 0
-3116 -2395 -3117 0
3116 -2395 3117 0
3116 2395 -3117 0
-3117 3111 3118 3120 0
-3117 2887 3118 3120 0
3117 -3120 0
3117 -3118 0
3117 -2887 -3111 0
3118 -2996 -3119 0
-3118 2996 0
-3118 3119 0
3119 3052 -3059 0
3119 -3052 3059 0
-3119 -3052 -3059 0
-3119 3052 3059 0
-3120 3109 3110 0
-3120 3002 2950 0
-3120 2950 3110 0
-3120 3002 3109 0
3120 -2950 -3109 0
3120 -3002 -3110 0
3121 -3122 -3159 0
-3121 3122 0
-3121 3159 0
-3122 3123 3131 0
3122 -3123 0
3122 -3131 0
3123 -3124 -3129 0
-3123 3124 0
-3123 3129 0
-3124 2395 3125 0
-3124 -2395 -3125 0
3124 -2395 3125 0
3124 2395 -3125 0
-3125 3111 3126 3128 0
-3125 2820 3126 3128 0
3125 -3128 0
3125 -3126 0
3125 -2820 -3111 0
3126 -2996 -3127 0
-3126 2996 0
-3126 3127 0
3127 3055 -3058 0
3127 -3055 3058 0
-3127 -3055 -3058 0
-3127 3055 3058 0
-3128 2950 3109 0
-3128 2887 3110 0
-3128 3109 3110 0
-3128 2887 2950 0
3128 -2887 -3109 0
3128 -2950 -3110 0
3129 2748 -3130 0
3129 -2748 3130 0
-3129 -2748 -3130 0
-3129 2748 3130 0
3130 -2422 2678 0
-3130 2422 0
-3130 -2678 0
3131 -3132 -3158 0
-3131 3132 0
-3131 3158 0
-3132 3133 3140 0
3132 -3133 0
3132 -3140 0
3133 -3134 -3138 0
-3133 3134 0
-3133 3138 0
-3134 2395 3135 0
-3134 -2395 -3135 0
3134 -2395 3135 0
3134 2395 -3135 0
-3135 3111 3136 3137 0
-3135 -2749 3136 3137 0
3135 -3137 0
3135 -3136 0
3135 2749 -3111 0
3136 -2944 -2996 0
-3136 2944 0
-3136 2996 0
-3137 2887 3109 0
-3137 2820 3110 0
-3137 3109 3110 0
-3137 2820 2887 0
3137 -2820 -3109 0
3137 -2887 -3110 0
3138 2679 -3139 0
3138 -2679 3139 0
-3138 -2679 -3139 0
-3138 2679 3139 0
3139 -2422 -2747 0
-3139 2422 0
-3139 2747 0
3140 -3141 -3157 0
-3140 3141 0
-3140 3157 0
-3141 3142 3151 0
3141 -3142 0
3141 -3151 0
3142 -2747 -3143 0
-3142 2747 0
-3142 3143 0
3143 -3144 3148 0
-3143 3144 0
-3143 -3148 0
3144 -2395 3145 3147 0
-3144 2395 0
-3144 -3145 0
-3144 -3147 0
-3145 2680 3146 0
-3145 2996 3146 0
3145 -3146 0
3145 -2680 -2996 0
-3146 2038 3110 0
-3146 2681 3109 0
-3146 3109 3110 0
-3146 2038 2681 0
3146 -2681 -3110 0
3146 -2038 -3109 0
3147 -2038 -2997 0
-3147 2038 0
-3147 2997 0
-3148 3110 3149 3150 0
-3148 -2749 3149 3150 0
3148 -3150 0
3148 -3149 0
3148 2749 -3110 0
3149 2812 -2996 0
-3149 -2812 0
-3149 2996 0
-3150 3109 3111 0
-3150 2038 2681 0
-3150 2681 3111 0
-3150 2038 3109 0
3150 -2681 -3109 0
3150 -2038 -3111 0
3151 -3152 -3153 0
-3151 3152 0
-3151 3153 0
3152 2747 -3143 0
3152 -2747 3143 0
-3152 -2747 -3143 0
-3152 2747 3143 0
3153 -2395 3154 0
3153 2395 -3154 0
-3153 2395 3154 0
-3153 -2395 -3154 0
-3154 3110 3155 3156 0
-3154 2820 3155 3156 0
3154 -3156 0
3154 -3155 0
3154 -2820 -3110 0
3155 2871 -2996 0
-3155 -2871 0
-3155 2996 0
-3156 3109 3111 0
-3156 2681 -2749 0
-3156 -2749 3111 0
-3156 2681 3109 0
3156 2749 -3109 0
3156 -2681 -3111 0
3157 3134 -3138 0
3157 -3134 3138 0
-3157 -3134 -3138 0
-3157 3134 3138 0
3158 3124 -3129 0
3158 -3124 3129 0
-3158 -3124 -3129 0
-3158 3124 3129 0
3159 -3115 3116 0
3159 3115 -3116 0
-3159 3115 3116 0
-3159 -3115 -3116 0
3160 -2034 2948 0
3160 2034 -2948 0
-3160 2034 2948 0
-3160 -2034 -2948 0
3161 -3162 3178 0
3161 3162 -3178 0
-3161 3162 3178 0
-3161 -3162 -3178 0
3162 3163 -3166 0
3162 -3163 3166 0
-3162 -3163 -3166 0
-3162 3163 3166 0
-3163 3164 3165 0
3163 -3164 0
3163 -3165 0
3164 -2876 -2885 0
-3164 2876 0
-3164 2885 0
3165 -2035 -2875 0
-3165 2035 0
-3165 2875 0
3166 3167 -3171 0
3166 -3167 3171 0
-3166 -3167 -3171 0
-3166 3167 3171 0
-3167 2422 3168 0
-3167 -2422 -3168 0
3167 -2422 3168 0
3167 2422 -3168 0
-3168 2820 3169 3170 0
-3168 2815 3169 3170 0
3168 -3170 0
3168 -3169 0
3168 -2815 -2820 0
3169 -2741 -3127 0
-3169 2741 0
-3169 3127 0
-3170 2746 2887 0
-3170 2745 2950 0
-3170 2887 2950 0
-3170 2745 2746 0
3170 -2745 -2887 0
3170 -2746 -2950 0
3171 3172 -3176 0
3171 -3172 3176 0
-3171 -3172 -3176 0
-3171 3172 3176 0
-3172 2882 3173 3174 0
-3172 -2749 3173 3174 0
3172 -3174 0
3172 -3173 0
3172 2749 -2882 0
3173 2812 -2878 0
-3173 -2812 0
-3173 2878 0
-3174 2881 3175 0
-3174 2038 2681 0
-3174 2681 3175 0
-3174 2038 2881 0
3174 -2681 -2881 0
3174 -2038 -3175 0
3175 -2422 -2424 -2460 2462 0
3175 2422 2424 2460 -2462 0
-3175 -2424 -2462 0
-3175 2422 2462 0
-3175 2424 -2460 0
-3175 -2422 2460 0
3176 -2462 3177 0
-3176 2462 0
-3176 -3177 0
3177 -2462 2037 2877 0
-3177 2462 0
-3177 -2037 0
-3177 -2877 0
-3178 2395 3179 0
-3178 -2395 -3179 0
3178 -2395 3179 0
3178 2395 -3179 0
-3179 3111 3180 3221 0
-3179 3002 3180 3221 0
3179 -3221 0
3179 -3180 0
3179 -3002 -3111 0
3180 -2996 3181 0
-3180 2996 0
-3180 -3181 0
-3181 3182 3185 0
-3181 -3182 -3185 0
3181 -3182 3185 0
3181 3182 -3185 0
-3182 3183 3184 0
3182 -3183 0
3182 -3184 0
3183 -3002 3061 0
-3183 3002 0
-3183 -3061 0
3184 -3000 3060 0
-3184 3000 0
-3184 -3060 0
-3185 -3061 -3186 0
-3185 3061 3186 0
3185 3061 -3186 0
3185 -3061 3186 0
3186 -3187 3190 0
3186 3187 -3190 0
-3186 3187 3190 0
-3186 -3187 -3190 0
3187 -3188 3189 0
-3187 3188 0
-3187 -3189 0
-3188 3066 3083 0
3188 -3066 0
3188 -3083 0
3189 3062 -3065 0
-3189 -3062 0
-3189 3065 0
-3190 -3191 -3198 0
-3190 3191 3198 0
3190 3191 -3198 0
3190 -3191 3198 0
-3191 3068 3192 3196 3197 0
3191 -3197 0
3191 -3068 0
3191 -3196 0
3191 -3192 0
-3192 2017 2099 2435 3193 0
3192 -2017 0
3192 -3193 0
3192 -2435 0
3192 -2099 0
-3193 1935 2059 2341 3194 0
3193 -1935 0
3193 -3194 0
3193 -2341 0
3193 -2059 0
-3194 1943 1990 2233 3195 0
3194 -1943 0
3194 -3195 0
3194 -2233 0
3194 -1990 0
-3195 1949 2301 0
3195 -1949 0
3195 -2301 0
-3196 1955 2180 2417 3077 0
3196 -3077 0
3196 -1955 0
3196 -2417 0
3196 -2180 0
-3197 2046 2116 2344 2688 0
3197 -2688 0
3197 -2046 0
3197 -2344 0
3197 -2116 0
3198 -3199 3202 0
3198 3199 -3202 0
-3198 3199 3202 0
-3198 -3199 -3202 0
3199 3200 -3201 0
-3199 -3200 0
-3199 3201 0
3200 -3088 3091 0
-3200 3088 0
-3200 -3091 0
-3201 3084 3087 0
3201 -3084 0
3201 -3087 0
-3202 3203 3206 0
-3202 -3203 -3206 0
3202 -3203 3206 0
3202 3203 -3206 0
-3203 3204 3205 0
3203 -3204 0
3203 -3205 0
3204 -3093 3096 0
-3204 3093 0
-3204 -3096 0
3205 3092 -3099 0
-3205 -3092 0
-3205 3099 0
-3206 -3207 -3214 0
-3206 3207 3214 0
3206 3207 -3214 0
3206 -3207 3214 0
-3207 3208 3210 0
-3207 -3208 -3210 0
3207 -3208 3210 0
3207 3208 -3210 0
3208 2107 -3209 0
3208 2460 -2466 -3209 0
3208 -2460 2466 -3209 0
-3208 3209 0
-3208 -2107 -2460 -2466 0
-3208 -2107 2460 2466 0
3209 -2424 -2491 0
3209 2424 -2490 0
-3209 2424 2490 0
-3209 -2424 2491 0
-3210 3211 3212 0
-3210 -3211 -3212 0
3210 -3211 3212 0
3210 3211 -3212 0
3211 -2422 -2466 0
-3211 2422 0
-3211 2466 0
-3212 2427 3213 0
-3212 2508 -3213 0
3212 -2508 -3213 0
3212 -2427 3213 0
3213 2449 -2462 0
-3213 -2449 0
-3213 2462 0
3214 -3215 3218 0
3214 3215 -3218 0
-3214 3215 3218 0
-3214 -3215 -3218 0
-3215 3216 3217 0
3215 -3216 0
3215 -3217 0
3216 2358 -3038 0
-3216 -2358 0
-3216 3038 0
3217 -3097 3098 0
-3217 3097 0
-3217 -3098 0
-3218 3219 3220 0
3218 -3219 0
3218 -3220 0
3219 -3104 -3106 0
-3219 3104 0
-3219 3106 0
3220 -3100 -3103 0
-3220 3100 0
-3220 3103 0
-3221 3109 3110 0
-3221 -3061 3186 0
-3221 3109 3186 0
-3221 -3061 3110 0
3221 3061 -3109 0
3221 -3110 -3186 0
-3222 2359 3223 0
-3222 -2359 -3223 0
3222 -2359 3223 0
3222 2359 -3223 0
-3223 3252 3324 3327 0
-3223 3224 3252 3324 0
3223 -3324 0
3223 -3252 0
3223 -3224 -3327 0
3224 -3225 3228 0
3224 3225 -3228 0
-3224 3225 3228 0
-3224 -3225 -3228 0
3225 3226 -3227 0
-3225 -3226 0
-3225 3227 0
3226 -3191 3198 0
-3226 3191 0
-3226 -3198 0
-3227 3187 3190 0
3227 -3187 0
3227 -3190 0
-3228 -3229 -3234 0
-3228 3229 3234 0
3228 3229 -3234 0
3228 -3229 3234 0
-3229 2164 2371 3230 3233 0
3229 -3233 0
3229 -2164 0
3229 -3230 0
3229 -2371 0
-3230 1974 2119 3231 3232 0
3230 -3232 0
3230 -1974 0
3230 -3231 0
3230 -2119 0
-3231 1904 1999 2214 0
3231 -2214 0
3231 -1999 0
3231 -1904 0
-3232 2058 2084 2098 2131 0
3232 -2131 0
3232 -2098 0
3232 -2058 0
3232 -2084 0
-3233 2236 2323 2431 0
3233 -2236 0
3233 -2323 0
3233 -2431 0
3234 -3235 3238 0
3234 3235 -3238 0
-3234 3235 3238 0
-3234 -3235 -3238 0
3235 3236 -3237 0
-3235 -3236 0
-3235 3237 0
3236 -3203 3206 0
-3236 3203 0
-3236 -3206 0
-3237 3199 3202 0
3237 -3199 0
3237 -3202 0
-3238 3239 3242 0
-3238 -3239 -3242 0
3238 -3239 3242 0
3238 3239 -3242 0
-3239 3240 3241 0
3239 -3240 0
3239 -3241 0
3240 -3215 -3218 0
-3240 3215 0
-3240 3218 0
3241 3207 -3214 0
-3241 -3207 0
-3241 3214 0
-3242 3243 3249 0
-3242 -3243 -3249 0
3242 -3243 3249 0
3242 3243 -3249 0
3243 -3244 3246 0
3243 3244 -3246 0
-3243 3244 3246 0
-3243 -3244 -3246 0
3244 2460 -2490 3245 0
3244 -2460 -2491 3245 0
-3244 -3245 0
-3244 -2460 2491 0
-3244 2460 2490 0
3245 -2107 2462 2466 0
3245 -2107 -2462 -2466 0
-3245 2107 0
-3245 -2462 2466 0
-3245 2462 -2466 0
-3246 3247 3248 0
3246 -3247 0
3246 -3248 0
3247 3211 -3212 0
-3247 -3211 0
-3247 3212 0
3248 -3208 3210 0
-3248 3208 0
-3248 -3210 0
-3249 3250 3251 0
-3249 -3250 -3251 0
3249 -3250 3251 0
3249 3250 -3251 0
3250 -2424 -2466 0
-3250 2424 0
-3250 2466 0
-3251 -2427 -3211 0
-3251 2427 3211 0
3251 2427 -3211 0
3251 -2427 3211 0
3252 -3253 3258 0
-3252 3253 0
-3252 -3258 0
3253 -3254 -3257 0
-3253 3254 0
-3253 3257 0
-3254 2156 3255 0
-3254 -2156 -3255 0
3254 -2156 3255 0
3254 2156 -3255 0
-3255 -5354 -3256 0
-3255 5354 3256 0
3255 5354 -3256 0
3255 -5354 3256 0
3256 5374 -1866 0
-3256 -5374 0
-3256 1866 0
-3257 2359 2487 0
-3257 -2359 -2487 0
3257 -2359 2487 0
3257 2359 -2487 0
-3258 3259 3301 0
-3258 -3259 -3301 0
3258 -3259 3301 0
3258 3259 -3301 0
-3259 3260 3292 0
3259 -3260 0
3259 -3292 0
3260 -3261 -3224 0
-3260 3261 0
-3260 3224 0
3261 -3262 3265 0
3261 3262 -3265 0
-3261 3262 3265 0
-3261 -3262 -3265 0
3262 3263 -3264 0
-3262 -3263 0
-3262 3264 0
3263 -3229 3234 0
-3263 3229 0
-3263 -3234 0
-3264 3225 3228 0
3264 -3225 0
3264 -3228 0
-3265 -3266 -3277 0
-3265 3266 3277 0
3265 3266 -3277 0
3265 -3266 3277 0
-3266 2120 3267 3268 3276 0
3266 -2120 0
3266 -3276 0
3266 -3268 0
3266 -3267 0
-3267 2066 2144 0
3267 -2066 0
3267 -2144 0
-3268 2287 2320 3269 3275 0
3268 -3275 0
3268 -2287 0
3268 -3269 0
3268 -2320 0
-3269 3270 3272 3273 3274 0
3269 -3274 0
3269 -3270 0
3269 -3273 0
3269 -3272 0
-3270 2044 2098 2114 3271 0
3270 -3271 0
3270 -2114 0
3270 -2044 0
3270 -2098 0
-3271 1990 2117 0
3271 -1990 0
3271 -2117 0
-3272 1914 1933 1980 2249 0
3272 -2249 0
3272 -1980 0
3272 -1914 0
3272 -1933 0
-3273 2009 2021 2063 0
3273 -2009 0
3273 -2063 0
3273 -2021 0
-3274 2012 2059 0
3274 -2012 0
3274 -2059 0
-3275 1951 2329 2479 0
3275 -1951 0
3275 -2329 0
3275 -2479 0
-3276 2016 2299 3073 3079 0
3276 -2016 0
3276 -3079 0
3276 -3073 0
3276 -2299 0
3277 -3278 3281 0
3277 3278 -3281 0
-3277 3278 3281 0
-3277 -3278 -3281 0
3278 3279 -3280 0
-3278 -3279 0
-3278 3280 0
3279 -3239 3242 0
-3279 3239 0
-3279 -3242 0
-3280 3235 3238 0
3280 -3235 0
3280 -3238 0
-3281 3282 3285 0
-3281 -3282 -3285 0
3281 -3282 3285 0
3281 3282 -3285 0
-3282 3283 3284 0
3282 -3283 0
3282 -3284 0
3283 -3244 -3246 0
-3283 3244 0
-3283 3246 0
3284 -3243 3249 0
-3284 3243 0
-3284 -3249 0
-3285 3286 3289 0
-3285 -3286 -3289 0
3285 -3286 3289 0
3285 3286 -3289 0
-3286 3287 3288 0
3286 -3287 0
3286 -3288 0
3287 2427 -3211 0
-3287 -2427 0
-3287 3211 0
3288 -3250 3251 0
-3288 3250 0
-3288 -3251 0
-3289 3290 3291 0
-3289 -3290 -3291 0
3289 -3290 3291 0
3289 3290 -3291 0
3290 -2460 -2466 0
-3290 2460 0
-3290 2466 0
-3291 2462 2465 0
-3291 2107 -2462 2492 0
-3291 -2107 2465 0
3291 -2107 -2465 0
3291 2462 -2465 0
3291 2107 -2462 -2492 0
3292 -3293 -3300 0
-3292 3293 0
-3292 3300 0
-3293 3294 3295 0
3293 -3294 0
3293 -3295 0
3294 -3186 -3224 0
-3294 3186 0
-3294 3224 0
3295 -3296 -3299 0
-3295 3296 0
-3295 3299 0
-3296 3297 3298 0
3296 -3297 0
3296 -3298 0
3297 3061 -3186 0
-3297 -3061 0
-3297 3186 0
3298 -3182 3185 0
-3298 3182 0
-3298 -3185 0
3299 3186 -3224 0
3299 -3186 3224 0
-3299 -3186 -3224 0
-3299 3186 3224 0
3300 3261 -3224 0
3300 -3261 3224 0
-3300 -3261 -3224 0
-3300 3261 3224 0
-3301 -3261 -3302 0
-3301 3261 3302 0
3301 3261 -3302 0
3301 -3261 3302 0
3302 3303 -3306 0
3302 -3303 3306 0
-3302 -3303 -3306 0
-3302 3303 3306 0
3303 3304 -3305 0
-3303 -3304 0
-3303 3305 0
3304 -3266 3277 0
-3304 3266 0
-3304 -3277 0
-3305 3262 3265 0
3305 -3262 0
3305 -3265 0
3306 -3307 3315 0
3306 3307 -3315 0
-3306 3307 3315 0
-3306 -3307 -3315 0
3307 2697 2893 -3308 3311 0
-3307 -3311 0
-3307 -2697 0
-3307 3308 0
-3307 -2893 0
3308 2132 -2173 2189 3309 0
-3308 -3309 0
-3308 -2132 0
-3308 -2189 0
-3308 2173 0
-3309 2235 2436 3310 0
3309 -2235 0
3309 -2436 0
3309 -3310 0
-3310 1904 2044 2166 3070 0
3310 -3070 0
3310 -2166 0
3310 -1904 0
3310 -2044 0
-3311 1985 3312 3313 0
3311 -1985 0
3311 -3312 0
3311 -3313 0
-3312 1952 2095 0
3312 -1952 0
3312 -2095 0
-3313 1909 1927 2294 3314 0
3313 -3314 0
3313 -2294 0
3313 -1909 0
3313 -1927 0
-3314 2073 2182 0
3314 -2073 0
3314 -2182 0
-3315 3316 3319 0
-3315 -3316 -3319 0
3315 -3316 3319 0
3315 3316 -3319 0
3316 3317 -3318 0
-3316 -3317 0
-3316 3318 0
3317 -3282 3285 0
-3317 3282 0
-3317 -3285 0
-3318 3278 3281 0
3318 -3278 0
3318 -3281 0
-3319 3320 3321 0
-3319 -3320 -3321 0
3319 -3320 3321 0
3319 3320 -3321 0
3320 -2155 -2466 -2879 0
3320 2155 -2466 2879 0
-3320 2466 0
-3320 -2155 2879 0
-3320 2155 -2879 0
-3321 3322 3323 0
3321 -3322 0
3321 -3323 0
3322 3290 -3291 0
-3322 -3290 0
-3322 3291 0
3323 -3286 3289 0
-3323 3286 0
-3323 -3289 0
-3324 3261 -3302 0
-3324 3325 3326 0
-3324 -3302 3325 0
-3324 3261 3326 0
3324 3302 -3326 0
3324 -3261 -3325 0
3325 -2156 2487 -3255 0
3325 2156 -2487 3255 0
-3325 2156 2487 0
-3325 -2487 -3255 0
-3325 -2156 3255 0
3326 -3254 3257 0
-3326 3254 0
-3326 -3257 0
3327 2156 -2359 2487 3255 0
3327 -2156 2359 -2487 -3255 0
-3327 -2156 3255 0
-3327 2487 -3255 0
-3327 2156 2359 0
-3327 -2359 -2487 0
3328 -3329 -3412 0
-3328 3329 0
-3328 3412 0
-3329 3330 3337 0
3329 -3330 0
3329 -3337 0
3330 -3331 -3332 0
-3330 3331 0
-3330 3332 0
3331 3113 -3160 0
3331 -3113 3160 0
-3331 -3113 -3160 0
-3331 3113 3160 0
3332 -2359 3333 0
3332 2359 -3333 0
-3332 2359 3333 0
-3332 -2359 -3333 0
-3333 3325 3334 3336 0
-3333 3224 3334 3336 0
3333 -3336 0
3333 -3334 0
3333 -3224 -3325 0
3334 -3253 -3335 0
-3334 3253 0
-3334 3335 0
3335 3293 -3300 0
3335 -3293 3300 0
-3335 -3293 -3300 0
-3335 3293 3300 0
-3336 3326 3327 0
-3336 3186 3261 0
-3336 3261 3327 0
-3336 3186 3326 0
3336 -3261 -3326 0
3336 -3186 -3327 0
3337 -3338 -3411 0
-3337 3338 0
-3337 3411 0
-3338 3339 3346 0
3338 -3339 0
3338 -3346 0
3339 -3340 -3341 0
-3339 3340 0
-3339 3341 0
3340 3122 -3159 0
3340 -3122 3159 0
-3340 -3122 -3159 0
-3340 3122 3159 0
-3341 2359 3342 0
-3341 -2359 -3342 0
3341 -2359 3342 0
3341 2359 -3342 0
-3342 3327 3343 3345 0
-3342 -3061 3343 3345 0
3342 -3345 0
3342 -3343 0
3342 3061 -3327 0
3343 -3253 -3344 0
-3343 3253 0
-3343 3344 0
3344 3296 -3299 0
3344 -3296 3299 0
-3344 -3296 -3299 0
-3344 3296 3299 0
-3345 3224 3325 0
-3345 3186 3326 0
-3345 3325 3326 0
-3345 3186 3224 0
3345 -3186 -3325 0
3345 -3224 -3326 0
3346 -3347 -3410 0
-3346 3347 0
-3346 3410 0
-3347 3348 3354 0
3347 -3348 0
3347 -3354 0
3348 -3349 -3350 0
-3348 3349 0
-3348 3350 0
3349 3132 -3158 0
3349 -3132 3158 0
-3349 -3132 -3158 0
-3349 3132 3158 0
3350 -2359 3351 0
3350 2359 -3351 0
-3350 2359 3351 0
-3350 -2359 -3351 0
-3351 3325 3352 3353 0
-3351 -3061 3352 3353 0
3351 -3353 0
3351 -3352 0
3351 3061 -3325 0
3352 3181 -3253 0
-3352 -3181 0
-3352 3253 0
-3353 3326 3327 0
-3353 3002 3186 0
-3353 3186 3327 0
-3353 3002 3326 0
3353 -3186 -3326 0
3353 -3002 -3327 0
3354 -3355 -3409 0
-3354 3355 0
-3354 3409 0
-3355 3356 3362 0
3355 -3356 0
3355 -3362 0
3356 -3357 -3358 0
-3356 3357 0
-3356 3358 0
3357 3141 -3157 0
3357 -3141 3157 0
-3357 -3141 -3157 0
-3357 3141 3157 0
3358 -2359 3359 0
3358 2359 -3359 0
-3358 2359 3359 0
-3358 -2359 -3359 0
-3359 3326 3360 3361 0
-3359 -3061 3360 3361 0
3359 -3361 0
3359 -3360 0
3359 3061 -3326 0
3360 2999 -3253 0
-3360 -2999 0
-3360 3253 0
-3361 2950 3325 0
-3361 3002 3327 0
-3361 3325 3327 0
-3361 3002 2950 0
3361 -3002 -3325 0
3361 -2950 -3327 0
3362 -3363 -3408 0
-3362 3363 0
-3362 3408 0
-3363 3364 3370 0
3363 -3364 0
3363 -3370 0
3364 -3365 -3366 0
-3364 3365 0
-3364 3366 0
3365 3152 -3153 0
3365 -3152 3153 0
-3365 -3152 -3153 0
-3365 3152 3153 0
3366 -2359 3367 0
3366 2359 -3367 0
-3366 2359 3367 0
-3366 -2359 -3367 0
-3367 3325 3368 3369 0
-3367 2950 3368 3369 0
3367 -3369 0
3367 -3368 0
3367 -2950 -3325 0
3368 -3119 -3253 0
-3368 3119 0
-3368 3253 0
-3369 3326 3327 0
-3369 2887 3002 0
-3369 3002 3327 0
-3369 2887 3326 0
3369 -3002 -3326 0
3369 -2887 -3327 0
3370 -3371 -3407 0
-3370 3371 0
-3370 3407 0
-3371 3372 3379 0
3371 -3372 0
3371 -3379 0
3372 -3373 -3377 0
-3372 3373 0
-3372 3377 0
-3373 2359 3374 0
-3373 -2359 -3374 0
3373 -2359 3374 0
3373 2359 -3374 0
-3374 3327 3375 3376 0
-3374 2820 3375 3376 0
3374 -3376 0
3374 -3375 0
3374 -2820 -3327 0
3375 -3127 -3253 0
-3375 3127 0
-3375 3253 0
-3376 2950 3325 0
-3376 2887 3326 0
-3376 3325 3326 0
-3376 2887 2950 0
3376 -2887 -3325 0
3376 -2950 -3326 0
3377 3148 -3378 0
3377 -3148 3378 0
-3377 -3148 -3378 0
-3377 3148 3378 0
3378 -2395 3144 0
-3378 2395 0
-3378 -3144 0
3379 -3380 -3406 0
-3379 3380 0
-3379 3406 0
-3380 3381 3388 0
3380 -3381 0
3380 -3388 0
3381 -3382 -3386 0
-3381 3382 0
-3381 3386 0
-3382 2359 3383 0
-3382 -2359 -3383 0
3382 -2359 3383 0
3382 2359 -3383 0
-3383 3327 3384 3385 0
-3383 -2749 3384 3385 0
3383 -3385 0
3383 -3384 0
3383 2749 -3327 0
3384 -2944 -3253 0
-3384 2944 0
-3384 3253 0
-3385 2887 3325 0
-3385 2820 3326 0
-3385 3325 3326 0
-3385 2820 2887 0
3385 -2820 -3325 0
3385 -2887 -3326 0
3386 3145 -3387 0
3386 -3145 3387 0
-3386 -3145 -3387 0
-3386 3145 3387 0
3387 -2395 -3147 0
-3387 2395 0
-3387 3147 0
3388 -3389 -3405 0
-3388 3389 0
-3388 3405 0
-3389 3390 3399 0
3389 -3390 0
3389 -3399 0
3390 -3147 -3391 0
-3390 3147 0
-3390 3391 0
3391 -3392 3396 0
-3391 3392 0
-3391 -3396 0
3392 -2359 3393 3395 0
-3392 2359 0
-3392 -3393 0
-3392 -3395 0
-3393 2680 3394 0
-3393 3253 3394 0
3393 -3394 0
3393 -2680 -3253 0
-3394 2038 3326 0
-3394 2681 3325 0
-3394 3325 3326 0
-3394 2038 2681 0
3394 -2681 -3326 0
3394 -2038 -3325 0
3395 -2038 -3254 0
-3395 2038 0
-3395 3254 0
-3396 3326 3397 3398 0
-3396 -2749 3397 3398 0
3396 -3398 0
3396 -3397 0
3396 2749 -3326 0
3397 2812 -3253 0
-3397 -2812 0
-3397 3253 0
-3398 3325 3327 0
-3398 2038 2681 0
-3398 2681 3327 0
-3398 2038 3325 0
3398 -2681 -3325 0
3398 -2038 -3327 0
3399 -3400 -3401 0
-3399 3400 0
-3399 3401 0
3400 3147 -3391 0
3400 -3147 3391 0
-3400 -3147 -3391 0
-3400 3147 3391 0
3401 -2359 3402 0
3401 2359 -3402 0
-3401 2359 3402 0
-3401 -2359 -3402 0
-3402 3326 3403 3404 0
-3402 2820 3403 3404 0
3402 -3404 0
3402 -3403 0
3402 -2820 -3326 0
3403 2871 -3253 0
-3403 -2871 0
-3403 3253 0
-3404 3325 3327 0
-3404 2681 -2749 0
-3404 -2749 3327 0
-3404 2681 3325 0
3404 2749 -3325 0
3404 -2681 -3327 0
3405 3382 -3386 0
3405 -3382 3386 0
-3405 -3382 -3386 0
-3405 3382 3386 0
3406 3373 -3377 0
3406 -3373 3377 0
-3406 -3373 -3377 0
-3406 3373 3377 0
3407 3365 -3366 0
3407 -3365 3366 0
-3407 -3365 -3366 0
-3407 3365 3366 0
3408 3357 -3358 0
3408 -3357 3358 0
-3408 -3357 -3358 0
-3408 3357 3358 0
3409 3349 -3350 0
3409 -3349 3350 0
-3409 -3349 -3350 0
-3409 3349 3350 0
3410 -3340 3341 0
3410 3340 -3341 0
-3410 3340 3341 0
-3410 -3340 -3341 0
3411 3331 -3332 0
3411 -3331 3332 0
-3411 -3331 -3332 0
-3411 3331 3332 0
3412 -2031 3222 0
3412 2031 -3222 0
-3412 2031 3222 0
-3412 -2031 -3222 0
3413 3414 -3439 0
3413 -3414 3439 0
-3413 -3414 -3439 0
-3413 3414 3439 0
3414 3415 -3418 0
3414 -3415 3418 0
-3414 -3415 -3418 0
-3414 3415 3418 0
-3415 3416 3417 0
3415 -3416 0
3415 -3417 0
3416 -3162 -3178 0
-3416 3162 0
-3416 3178 0
3417 -2032 -3161 0
-3417 2032 0
-3417 3161 0
3418 -3419 3435 0
3418 3419 -3435 0
-3418 3419 3435 0
-3418 -3419 -3435 0
3419 3420 -3423 0
3419 -3420 3423 0
-3419 -3420 -3423 0
-3419 3420 3423 0
-3420 3421 3422 0
3420 -3421 0
3420 -3422 0
3421 -3167 -3171 0
-3421 3167 0
-3421 3171 0
3422 -3163 -3166 0
-3422 3163 0
-3422 3166 0
3423 3424 -3431 0
3423 -3424 3431 0
-3423 -3424 -3431 0
-3423 3424 3431 0
3424 3425 -3429 0
3424 -3425 3429 0
-3424 -3425 -3429 0
-3424 3425 3429 0
3425 -2462 3426 0
3425 2462 -3426 0
-3425 2462 3426 0
-3425 -2462 -3426 0
-3426 2882 3427 3428 0
-3426 2820 3427 3428 0
3426 -3428 0
3426 -3427 0
3426 -2820 -2882 0
3427 2871 -2878 0
-3427 -2871 0
-3427 2878 0
-3428 2881 3175 0
-3428 2681 -2749 0
-3428 -2749 3175 0
-3428 2681 2881 0
3428 2749 -2881 0
3428 -2681 -3175 0
3429 2884 -3430 0
3429 -2884 3430 0
-3429 -2884 -3430 0
-3429 2884 3430 0
3430 3172 -3177 0
-3430 -3172 0
-3430 3177 0
3431 -2422 3432 0
3431 2422 -3432 0
-3431 2422 3432 0
-3431 -2422 -3432 0
-3432 2950 3433 3434 0
-3432 2745 3433 3434 0
3432 -3434 0
3432 -3433 0
3432 -2745 -2950 0
3433 -2741 -3119 0
-3433 2741 0
-3433 3119 0
-3434 2887 3002 0
-3434 2746 2815 0
-3434 2815 3002 0
-3434 2746 2887 0
3434 -2815 -2887 0
3434 -2746 -3002 0
-3435 2395 3436 0
-3435 -2395 -3436 0
3435 -2395 3436 0
3435 2395 -3436 0
-3436 3111 3437 3438 0
-3436 -3061 3437 3438 0
3436 -3438 0
3436 -3437 0
3436 3061 -3111 0
3437 -2996 -3344 0
-3437 2996 0
-3437 3344 0
-3438 3110 3186 0
-3438 3109 3224 0
-3438 3186 3224 0
-3438 3109 3110 0
3438 -3109 -3186 0
3438 -3110 -3224 0
3439 -2359 3440 0
3439 2359 -3440 0
-3439 2359 3440 0
-3439 -2359 -3440 0
-3440 3325 3441 3455 0
-3440 -3302 3441 3455 0
3440 -3455 0
3440 -3441 0
3440 3302 -3325 0
3441 -3253 3442 0
-3441 3253 0
-3441 -3442 0
-3442 3443 3446 0
-3442 -3443 -3446 0
3442 -3443 3446 0
3442 3443 -3446 0
-3443 3444 3445 0
3443 -3444 0
3443 -3445 0
3444 -3261 3302 0
-3444 3261 0
-3444 -3302 0
3445 -3259 3301 0
-3445 3259 0
-3445 -3301 0
-3446 3302 3447 0
-3446 -3302 -3447 0
3446 -3302 3447 0
3446 3302 -3447 0
-3447 3448 3454 0
-3447 -3448 -3454 0
3447 -3448 3454 0
3447 3448 -3454 0
-3448 1947 2072 3449 3452 0
3448 -3452 0
3448 -1947 0
3448 -3449 0
3448 -2072 0
-3449 2413 2694 3450 0
3449 -2413 0
3449 -2694 0
3449 -3450 0
-3450 2042 2318 3451 0
3450 -3451 0
3450 -2318 0
3450 -2042 0
-3451 1889 1927 2017 2219 0
3451 -2219 0
3451 -2017 0
3451 -1889 0
3451 -1927 0
-3452 2116 2442 3453 0
3452 -2116 0
3452 -2442 0
3452 -3453 0
-3453 2013 2070 2212 2262 0
3453 -2013 0
3453 -2262 0
3453 -2212 0
3453 -2070 0
-3454 3307 3315 0
-3454 3303 3307 0
-3454 3303 3315 0
3454 -3303 -3307 0
3454 -3307 -3315 0
3454 -3303 -3315 0
-3455 3327 3447 0
-3455 3261 3326 0
-3455 3261 3447 0
-3455 3326 3327 0
3455 -3261 -3327 0
3455 -3326 -3447 0
3456 -3255 3457 0
3456 3255 -3457 0
-3456 3255 3457 0
-3456 -3255 -3457 0
-3457 3483 3500 3501 0
-3457 3458 3483 3501 0
3457 -3501 0
3457 -3483 0
3457 -3458 -3500 0
-3458 3459 3478 0
-3458 -3459 -3478 0
3458 -3459 3478 0
3458 3459 -3478 0
3459 -3460 -3474 0
-3459 3460 0
-3459 3474 0
3460 -3461 3462 0
-3460 3461 0
-3460 -3462 0
3461 3448 -3454 0
-3461 -3448 0
-3461 3454 0
-3462 2280 3463 3466 3468 0
3462 -3468 0
3462 -2280 0
3462 -3466 0
3462 -3463 0
-3463 1955 2292 3464 3465 0
3463 -3465 0
3463 -1955 0
3463 -3464 0
3463 -2292 0
-3464 1926 1952 0
3464 -1926 0
3464 -1952 0
-3465 1883 2010 2053 0
3465 -1883 0
3465 -2053 0
3465 -2010 0
-3466 1979 2017 2089 3467 0
3466 -3467 0
3466 -2089 0
3466 -1979 0
3466 -2017 0
-3467 2118 2904 0
3467 -2118 0
3467 -2904 0
-3468 2127 3073 3469 3471 0
3468 -2127 0
3468 -3471 0
3468 -3469 0
3468 -3073 0
-3469 2012 2022 2098 3470 0
3469 -3470 0
3469 -2098 0
3469 -2012 0
3469 -2022 0
-3470 1937 2117 0
3470 -1937 0
3470 -2117 0
-3471 1910 2301 3472 3473 0
3471 -3473 0
3471 -1910 0
3471 -3472 0
3471 -2301 0
-3472 2073 2083 0
3472 -2073 0
3472 -2083 0
-3473 2044 2130 2329 0
3473 -2329 0
3473 -2130 0
3473 -2044 0
3474 2111 2467 -3475 3477 0
-3474 -3477 0
-3474 -2111 0
-3474 3475 0
-3474 -2467 0
3475 2333 2757 3194 -3476 0
-3475 3476 0
-3475 -2333 0
-3475 -3194 0
-3475 -2757 0
3476 1999 2021 -2221 0
-3476 2221 0
-3476 -2021 0
-3476 -1999 0
-3477 2084 2144 2378 2762 0
3477 -2084 0
3477 -2762 0
3477 -2378 0
3477 -2144 0
-3478 2111 2134 3479 3481 0
3478 -3481 0
3478 -2111 0
3478 -3479 0
3478 -2134 0
-3479 2150 2472 2478 3480 0
3479 -3480 0
3479 -2150 0
3479 -2478 0
3479 -2472 0
-3480 2208 2473 0
3480 -2208 0
3480 -2473 0
-3481 2132 2223 3482 0
3481 -2132 0
3481 -2223 0
3481 -3482 0
-3482 1964 2181 0
3482 -1964 0
3482 -2181 0
3483 -3484 3485 0
-3483 3484 0
-3483 -3485 0
3484 -5352 5353 -5354 0
3484 -5352 -5353 5354 0
-3484 5352 0
-3484 -5353 -5354 0
-3484 5353 5354 0
-3485 3486 3499 0
-3485 -3486 -3499 0
3485 -3486 3499 0
3485 3486 -3499 0
-3486 3487 3490 0
3486 -3487 0
3486 -3490 0
3487 3488 -3489 0
-3487 -3488 0
-3487 3489 0
3488 3460 -3474 0
3488 -3460 3474 0
-3488 -3460 -3474 0
-3488 3460 3474 0
-3489 3461 3462 0
-3489 -3461 -3462 0
3489 -3461 3462 0
3489 3461 -3462 0
3490 -3491 3498 0
-3490 3491 0
-3490 -3498 0
-3491 3492 3493 0
3491 -3492 0
3491 -3493 0
3492 -3447 -3489 0
-3492 3447 0
-3492 3489 0
3493 -3494 -3497 0
-3493 3494 0
-3493 3497 0
-3494 3495 3496 0
3494 -3495 0
3494 -3496 0
3495 3302 -3447 0
-3495 -3302 0
-3495 3447 0
3496 -3443 3446 0
-3496 3443 0
-3496 -3446 0
3497 3447 -3462 0
3497 -3447 3489 0
-3497 3447 3462 0
-3497 -3447 -3489 0
-3498 -3488 -3489 0
-3498 3474 3489 0
3498 -3474 3489 0
3498 3488 -3489 0
-3499 -3488 -3478 0
-3499 3488 3458 0
3499 -3488 3478 0
3499 3488 -3458 0
3500 -5352 5353 5354 0
3500 -5352 -5353 -5354 0
-3500 5352 0
-3500 -5353 5354 0
-3500 5353 -5354 0
-3501 -3488 3502 0
-3501 1592 3489 0
-3501 -3488 3489 0
-3501 1592 3502 0
3501 -3489 -3502 0
3501 -1592 3488 0
3502 -5354 1866 0
-3502 5354 0
-3502 -1866 0
3503 -3504 -3584 0
-3503 3504 0
-3503 3584 0
-3504 3505 3512 0
3504 -3505 0
3504 -3512 0
3505 -3506 -3507 0
-3505 3506 0
-3505 3507 0
3506 3329 -3412 0
3506 -3329 3412 0
-3506 -3329 -3412 0
-3506 3329 3412 0
3507 -3255 3508 0
3507 3255 -3508 0
-3507 3255 3508 0
-3507 -3255 -3508 0
-3508 3500 3509 3511 0
-3508 -3488 3509 3511 0
3508 -3511 0
3508 -3509 0
3508 3488 -3500 0
3509 -3484 3510 0
-3509 3484 0
-3509 -3510 0
-3510 3491 3498 0
-3510 -3491 -3498 0
3510 -3491 3498 0
3510 3491 -3498 0
-3511 3447 3489 0
-3511 1592 3502 0
-3511 1592 3447 0
-3511 3489 3502 0
3511 -1592 -3489 0
3511 -3447 -3502 0
3512 -3513 -3514 0
-3512 3513 0
-3512 3514 0
3513 3506 -3507 0
3513 -3506 3507 0
-3513 -3506 -3507 0
-3513 3506 3507 0
-3514 3516 3521 0
-3514 3515 3516 0
-3514 3515 3521 0
3514 -3515 -3516 0
3514 -3516 -3521 0
3514 -3515 -3521 0
3515 3338 -3411 0
3515 -3338 3411 0
-3515 -3338 -3411 0
-3515 3338 3411 0
3516 -3255 3517 0
3516 3255 -3517 0
-3516 3255 3517 0
-3516 -3255 -3517 0
-3517 3500 3518 3520 0
-3517 3489 3518 3520 0
3517 -3520 0
3517 -3518 0
3517 -3489 -3500 0
3518 -3484 -3519 0
-3518 3484 0
-3518 3519 0
3519 3494 -3497 0
3519 -3494 3497 0
-3519 -3494 -3497 0
-3519 3494 3497 0
-3520 -3302 3447 0
-3520 1592 3502 0
-3520 1592 -3302 0
-3520 3447 3502 0
3520 -1592 -3447 0
3520 3302 -3502 0
-3521 3523 3527 0
-3521 3522 3523 0
-3521 3522 3527 0
3521 -3522 -3523 0
3521 -3523 -3527 0
3521 -3522 -3527 0
3522 3347 -3410 0
3522 -3347 3410 0
-3522 -3347 -3410 0
-3522 3347 3410 0
3523 -3255 3524 0
3523 3255 -3524 0
-3523 3255 3524 0
-3523 -3255 -3524 0
-3524 3502 3525 3526 0
-3524 3261 3525 3526 0
3524 -3526 0
3524 -3525 0
3524 -3261 -3502 0
3525 3442 -3484 0
-3525 -3442 0
-3525 3484 0
-3526 -3302 3500 0
-3526 1592 3447 0
-3526 -3302 3447 0
-3526 1592 3500 0
3526 -3447 -3500 0
3526 -1592 3302 0
-3527 3529 3533 0
-3527 3528 3529 0
-3527 3528 3533 0
3527 -3528 -3529 0
3527 -3529 -3533 0
3527 -3528 -3533 0
3528 3355 -3409 0
3528 -3355 3409 0
-3528 -3355 -3409 0
-3528 3355 3409 0
3529 -3255 3530 0
3529 3255 -3530 0
-3529 3255 3530 0
-3529 -3255 -3530 0
-3530 3500 3531 3532 0
-3530 -3302 3531 3532 0
3530 -3532 0
3530 -3531 0
3530 3302 -3500 0
3531 3258 -3484 0
-3531 -3258 0
-3531 3484 0
-3532 3261 3224 0
-3532 1592 3502 0
-3532 3261 3502 0
-3532 1592 3224 0
3532 -1592 -3261 0
3532 -3224 -3502 0
-3533 3534 3539 0
-3533 3535 3539 0
-3533 3534 3535 0
3533 -3534 -3535 0
3533 -3535 -3539 0
3533 -3534 -3539 0
3534 3363 -3408 0
3534 -3363 3408 0
-3534 -3363 -3408 0
-3534 3363 3408 0
3535 -3255 3536 0
3535 3255 -3536 0
-3535 3255 3536 0
-3535 -3255 -3536 0
-3536 3502 3537 3538 0
-3536 3186 3537 3538 0
3536 -3538 0
3536 -3537 0
3536 -3186 -3502 0
3537 -3335 -3484 0
-3537 3335 0
-3537 3484 0
-3538 3261 3224 0
-3538 1592 3500 0
-3538 3224 3500 0
-3538 1592 3261 0
3538 -1592 -3224 0
3538 -3261 -3500 0
3539 -3540 -3545 0
3539 -3540 -3541 0
3539 -3541 -3545 0
-3539 3541 3545 0
-3539 3540 3545 0
-3539 3540 3541 0
3540 3371 -3407 0
3540 -3371 3407 0
-3540 -3371 -3407 0
-3540 3371 3407 0
-3541 3255 3542 0
-3541 -3255 -3542 0
3541 -3255 3542 0
3541 3255 -3542 0
-3542 3500 3543 3544 0
-3542 3224 3543 3544 0
3542 -3544 0
3542 -3543 0
3542 -3224 -3500 0
3543 -3344 -3484 0
-3543 3344 0
-3543 3484 0
-3544 -3061 3186 0
-3544 1592 3502 0
-3544 3186 3502 0
-3544 1592 -3061 0
3544 -1592 -3186 0
3544 3061 -3502 0
3545 -3546 -3551 0
3545 -3546 -3547 0
3545 -3547 -3551 0
-3545 3547 3551 0
-3545 3546 3551 0
-3545 3546 3547 0
3546 3380 -3406 0
3546 -3380 3406 0
-3546 -3380 -3406 0
-3546 3380 3406 0
-3547 3255 3548 0
-3547 -3255 -3548 0
3547 -3255 3548 0
3547 3255 -3548 0
-3548 -3061 3549 3550 0
-3548 1592 3549 3550 0
3548 -3550 0
3548 -3549 0
3548 -1592 3061 0
3549 3181 -3484 0
-3549 -3181 0
-3549 3484 0
-3550 3500 3502 0
-3550 3002 3186 0
-3550 3186 3502 0
-3550 3002 3500 0
3550 -3186 -3500 0
3550 -3002 -3502 0
3551 -3553 -3557 0
3551 -3552 -3553 0
3551 -3552 -3557 0
-3551 3552 3553 0
-3551 3553 3557 0
-3551 3552 3557 0
3552 3389 -3405 0
3552 -3389 3405 0
-3552 -3389 -3405 0
-3552 3389 3405 0
-3553 3255 3554 0
-3553 -3255 -3554 0
3553 -3255 3554 0
3553 3255 -3554 0
-3554 3502 3555 3556 0
-3554 2950 3555 3556 0
3554 -3556 0
3554 -3555 0
3554 -2950 -3502 0
3555 2999 -3484 0
-3555 -2999 0
-3555 3484 0
-3556 3002 -3061 0
-3556 1592 3500 0
-3556 3002 3500 0
-3556 1592 -3061 0
3556 -1592 -3002 0
3556 3061 -3500 0
-3557 3559 3563 0
-3557 3558 3559 0
-3557 3558 3563 0
3557 -3558 -3559 0
3557 -3559 -3563 0
3557 -3558 -3563 0
3558 3400 -3401 0
3558 -3400 3401 0
-3558 -3400 -3401 0
-3558 3400 3401 0
3559 -3255 3560 0
3559 3255 -3560 0
-3559 3255 3560 0
-3559 -3255 -3560 0
-3560 3502 3561 3562 0
-3560 2887 3561 3562 0
3560 -3562 0
3560 -3561 0
3560 -2887 -3502 0
3561 -3119 -3484 0
-3561 3119 0
-3561 3484 0
-3562 3002 2950 0
-3562 1592 3500 0
-3562 2950 3500 0
-3562 1592 3002 0
3562 -1592 -2950 0
3562 -3002 -3500 0
-3563 3564 3568 0
-3563 3568 3570 0
-3563 3564 3570 0
3563 -3568 -3570 0
3563 -3564 -3568 0
3563 -3564 -3570 0
3564 -3255 3565 0
3564 3255 -3565 0
-3564 3255 3565 0
-3564 -3255 -3565 0
-3565 3500 3566 3567 0
-3565 2950 3566 3567 0
3565 -3567 0
3565 -3566 0
3565 -2950 -3500 0
3566 -3127 -3484 0
-3566 3127 0
-3566 3484 0
-3567 2820 2887 0
-3567 1592 3502 0
-3567 2887 3502 0
-3567 1592 2820 0
3567 -1592 -2887 0
3567 -2820 -3502 0
-3568 -3396 -3569 0
-3568 3396 3569 0
3568 3396 -3569 0
3568 -3396 3569 0
3569 -2359 3392 0
-3569 2359 0
-3569 -3392 0
-3570 3571 3573 0
-3570 3573 3576 0
-3570 3571 3576 0
3570 -3573 -3576 0
3570 -3571 -3573 0
3570 -3571 -3576 0
3571 3393 -3572 0
3571 -3393 3572 0
-3571 -3393 -3572 0
-3571 3393 3572 0
3572 -2359 -3395 0
-3572 2359 0
-3572 3395 0
-3573 -3255 -3574 0
-3573 3255 3574 0
-3573 2749 -3255 -3502 0
3573 3255 -3574 0
3573 -3255 3502 3574 0
3573 -2749 -3255 3574 0
-3574 3484 3575 0
-3574 2944 3575 0
3574 -3575 0
3574 -2944 -3484 0
-3575 2820 2887 0
-3575 1592 3500 0
-3575 2820 3500 0
-3575 1592 2887 0
3575 -1592 -2820 0
3575 -2887 -3500 0
-3576 3395 3577 0
-3576 3577 3581 0
-3576 3395 3581 0
-3576 -3580 3581 0
-3576 3395 -3580 0
3576 -3395 -3581 0
3576 -3577 3580 -3581 0
3576 -3395 -3577 3580 0
-3577 3255 3578 0
3577 -3255 0
3577 -3578 0
-3578 -2871 3579 0
-3578 3484 3579 0
3578 -3579 0
3578 2871 -3484 0
-3579 -2749 2820 0
-3579 1592 3500 0
-3579 -2749 3500 0
-3579 1592 2820 0
3579 -1592 2749 0
3579 -2820 -3500 0
3580 -3255 -3578 0
3580 -2681 -3255 -3502 0
-3580 3255 0
-3580 2681 3578 0
-3580 3502 3578 0
3581 3484 -3582 0
3581 2680 -2749 -3582 0
-3581 3582 0
-3581 2749 -3484 0
-3581 -2680 -3484 0
3582 3500 -3583 0
3582 2681 -2749 -3583 0
-3582 3583 0
-3582 2749 -3500 0
-3582 -2681 -3500 0
3583 1592 2038 -3255 0
3583 2038 2681 -3255 0
-3583 -2038 0
-3583 3255 0
-3583 -1592 -2681 0
3584 2028 -3456 0
3584 -2028 3456 0
-3584 -2028 -3456 0
-3584 2028 3456 0
3585 3586 -3620 0
3585 -3586 3620 0
-3585 -3586 -3620 0
-3585 3586 3620 0
3586 3587 -3590 0
3586 -3587 3590 0
-3586 -3587 -3590 0
-3586 3587 3590 0
-3587 3588 3589 0
3587 -3588 0
3587 -3589 0
3588 -3414 -3439 0
-3588 3414 0
-3588 3439 0
3589 -2029 -3413 0
-3589 2029 0
-3589 3413 0
3590 3591 -3616 0
3590 -3591 3616 0
-3590 -3591 -3616 0
-3590 3591 3616 0
3591 3592 -3595 0
3591 -3592 3595 0
-3591 -3592 -3595 0
-3591 3592 3595 0
-3592 3593 3594 0
3592 -3593 0
3592 -3594 0
3593 -3419 -3435 0
-3593 3419 0
-3593 3435 0
3594 -3415 -3418 0
-3594 3415 0
-3594 3418 0
3595 -3596 3612 0
3595 3596 -3612 0
-3595 3596 3612 0
-3595 -3596 -3612 0
3596 3597 -3600 0
3596 -3597 3600 0
-3596 -3597 -3600 0
-3596 3597 3600 0
-3597 3598 3599 0
3597 -3598 0
3597 -3599 0
3598 -3424 -3431 0
-3598 3424 0
-3598 3431 0
3599 -3420 -3423 0
-3599 3420 0
-3599 3423 0
3600 -3601 3608 0
3600 3601 -3608 0
-3600 3601 3608 0
-3600 -3601 -3608 0
3601 -3602 3603 0
3601 3602 -3603 0
-3601 3602 3603 0
-3601 -3602 -3603 0
3602 -2884 -3425 0
3602 -3425 -3430 0
3602 -2884 -3430 0
-3602 2884 3430 0
-3602 3425 3430 0
-3602 2884 3425 0
-3603 -3604 -3607 0
-3603 3604 3607 0
3603 3604 -3607 0
3603 -3604 3607 0
-3604 2887 3605 3606 0
-3604 2882 3605 3606 0
3604 -3606 0
3604 -3605 0
3604 -2882 -2887 0
3605 -2878 -2944 0
-3605 2878 0
-3605 2944 0
-3606 2881 3175 0
-3606 -2749 2820 0
-3606 2820 3175 0
-3606 -2749 2881 0
3606 -2820 -2881 0
3606 2749 -3175 0
3607 -2462 2681 0
-3607 2462 0
-3607 -2681 0
-3608 2422 3609 0
-3608 -2422 -3609 0
3608 -2422 3609 0
3608 2422 -3609 0
-3609 2950 3610 3611 0
-3609 2815 3610 3611 0
3609 -3611 0
3609 -3610 0
3609 -2815 -2950 0
3610 -2741 2999 0
-3610 2741 0
-3610 -2999 0
-3611 2746 3002 0
-3611 2745 -3061 0
-3611 3002 -3061 0
-3611 2745 2746 0
3611 -2745 -3002 0
3611 -2746 3061 0
-3612 2395 3613 0
-3612 -2395 -3613 0
3612 -2395 3613 0
3612 2395 -3613 0
-3613 3186 3614 3615 0
-3613 3111 3614 3615 0
3613 -3615 0
3613 -3614 0
3613 -3111 -3186 0
3614 -2996 -3335 0
-3614 2996 0
-3614 3335 0
-3615 3261 3224 0
-3615 3109 3110 0
-3615 3110 3224 0
-3615 3109 3261 0
3615 -3110 -3261 0
3615 -3109 -3224 0
3616 -2359 3617 0
3616 2359 -3617 0
-3616 2359 3617 0
-3616 -2359 -3617 0
-3617 3326 3618 3619 0
-3617 3489 3618 3619 0
3617 -3619 0
3617 -3618 0
3617 -3326 -3489 0
3618 -3253 -3519 0
-3618 3253 0
-3618 3519 0
-3619 -3302 3447 0
-3619 3325 3327 0
-3619 3327 3447 0
-3619 -3302 3325 0
3619 -3325 -3447 0
3619 3302 -3327 0
3620 -3255 3621 0
3620 3255 -3621 0
-3620 3255 3621 0
-3620 -3255 -3621 0
-3621 3500 3627 3633 0
-3621 3622 3627 3633 0
3621 -3633 0
3621 -3627 0
3621 -3500 -3622 0
-3622 3623 3624 0
-3622 -3623 -3624 0
3622 -3623 3624 0
3622 3623 -3624 0
3623 -3459 3478 0
-3623 3459 0
-3623 -3478 0
-3624 2141 2468 3625 3626 0
3624 -3626 0
3624 -2141 0
3624 -3625 0
3624 -2468 0
-3625 2075 2149 0
3625 -2075 0
3625 -2149 0
-3626 1928 2015 2111 2476 0
3626 -1928 0
3626 -2476 0
3626 -2111 0
3626 -2015 0
3627 -3484 -3628 0
-3627 3484 0
-3627 3628 0
3628 3629 -3632 0
3628 -3629 3632 0
-3628 -3629 -3632 0
-3628 3629 3632 0
-3629 3630 3631 0
3629 -3630 0
3629 -3631 0
3630 3488 -3458 0
-3630 -3488 0
-3630 3458 0
3631 -3486 3499 0
-3631 3486 0
-3631 -3499 0
3632 3458 -3624 0
3632 -3458 3622 0
-3632 3458 3624 0
-3632 -3458 -3622 0
-3633 -3488 3458 0
-3633 1592 3502 0
-3633 1592 -3488 0
-3633 3458 3502 0
3633 -1592 -3458 0
3633 3488 -3502 0
3634 -3635 -3636 0
-3634 3635 0
-3634 3636 0
3635 1841 -2025 0
3635 -1841 2025 0
-3635 -1841 -2025 0
-3635 1841 2025 0
-3636 3637 3646 0
-3636 -3504 -3584 3646 0
-3636 -3504 -3584 3637 0
-3636 3504 3584 3637 0
-3636 3504 3584 3646 0
3636 -3637 -3646 0
3636 -3504 3584 -3646 0
3636 3504 -3584 -3646 0
3636 3504 -3584 -3637 0
3636 -3504 3584 -3637 0
3637 -3513 3514 -3638 0
3637 3513 -3514 -3638 0
-3637 3638 0
-3637 -3513 -3514 0
-3637 3513 3514 0
-3638 3639 3640 3642 3643 0
3638 -3643 0
3638 -3639 0
3638 -3642 0
3638 -3640 0
-3639 1959 1961 2331 3313 0
3639 -1959 0
3639 -3313 0
3639 -2331 0
3639 -1961 0
-3640 1889 2009 2047 3641 0
3640 -3641 0
3640 -2047 0
3640 -1889 0
3640 -2009 0
-3641 2126 2436 2769 0
3641 -2126 0
3641 -2436 0
3641 -2769 0
-3642 1952 2083 2180 2696 0
3642 -2696 0
3642 -2180 0
3642 -1952 0
3642 -2083 0
-3643 2004 2906 3644 0
3643 -3644 0
3643 -2906 0
3643 -2004 0
-3644 2061 2479 3018 3645 0
3644 -2061 0
3644 -3645 0
3644 -3018 0
3644 -2479 0
-3645 1976 2081 2118 2759 0
3645 -2759 0
3645 -2118 0
3645 -1976 0
3645 -2081 0
-3646 2073 3647 3648 3652 0
3646 -2073 0
3646 -3652 0
3646 -3648 0
3646 -3647 0
-3647 1961 2053 2093 2166 0
3647 -2166 0
3647 -2093 0
3647 -1961 0
3647 -2053 0
-3648 2078 2099 2336 3649 0
3648 -2078 0
3648 -3649 0
3648 -2336 0
3648 -2099 0
-3649 1991 2002 3650 3651 0
3649 -1991 0
3649 -3651 0
3649 -3650 0
3649 -2002 0
-3650 2048 2121 2203 2896 0
3650 -2048 0
3650 -2896 0
3650 -2203 0
3650 -2121 0
-3651 2143 2168 2961 0
3651 -2143 0
3651 -2168 0
3651 -2961 0
-3652 1948 2687 3653 3657 0
3652 -1948 0
3652 -3657 0
3652 -3653 0
3652 -2687 0
-3653 2154 3654 3655 3656 0
3653 -2154 0
3653 -3656 0
3653 -3655 0
3653 -3654 0
-3654 1941 1956 2148 2335 0
3654 -2335 0
3654 -2148 0
3654 -1941 0
3654 -1956 0
-3655 1975 2049 3464 0
3655 -3464 0
3655 -2049 0
3655 -1975 0
-3656 1970 2326 2328 0
3656 -2328 0
3656 -2326 0
3656 -1970 0
-3657 2084 2171 3271 0
3657 -3271 0
3657 -2171 0
3657 -2084 0
3658 -3659 3718 0
3658 3659 -3718 0
-3658 3659 3718 0
-3658 -3659 -3718 0
3659 3660 -3663 0
3659 -3660 3663 0
-3659 -3660 -3663 0
-3659 3660 3663 0
-3660 3661 3662 0
3660 -3661 0
3660 -3662 0
3661 -3586 -3620 0
-3661 3586 0
-3661 3620 0
3662 -2026 -3585 0
-3662 2026 0
-3662 3585 0
3663 3664 -3699 0
3663 -3664 3699 0
-3663 -3664 -3699 0
-3663 3664 3699 0
3664 3665 -3668 0
3664 -3665 3668 0
-3664 -3665 -3668 0
-3664 3665 3668 0
-3665 3666 3667 0
3665 -3666 0
3665 -3667 0
3666 -3591 -3616 0
-3666 3591 0
-3666 3616 0
3667 -3587 -3590 0
-3667 3587 0
-3667 3590 0
3668 3669 -3695 0
3668 -3669 3695 0
-3668 -3669 -3695 0
-3668 3669 3695 0
3669 3670 -3673 0
3669 -3670 3673 0
-3669 -3670 -3673 0
-3669 3670 3673 0
-3670 3671 3672 0
3670 -3671 0
3670 -3672 0
3671 -3596 -3612 0
-3671 3596 0
-3671 3612 0
3672 -3592 -3595 0
-3672 3592 0
-3672 3595 0
3673 -3674 3691 0
3673 3674 -3691 0
-3673 3674 3691 0
-3673 -3674 -3691 0
3674 3675 -3678 0
3674 -3675 3678 0
-3674 -3675 -3678 0
-3674 3675 3678 0
-3675 3676 3677 0
3675 -3676 0
3675 -3677 0
3676 -3601 -3608 0
-3676 3601 0
-3676 3608 0
3677 -3597 -3600 0
-3677 3597 0
-3677 3600 0
3678 3679 -3687 0
3678 -3679 3687 0
-3678 -3679 -3687 0
-3678 3679 3687 0
3679 -3680 3682 0
3679 3680 -3682 0
-3679 3680 3682 0
-3679 -3680 -3682 0
-3680 2681 3681 0
-3680 -3604 3681 0
-3680 2462 3681 0
3680 -3681 0
3680 -2462 -2681 3604 0
3681 -3602 -3603 0
-3681 3602 0
-3681 3603 0
-3682 -3683 -3686 0
-3682 3683 3686 0
3682 3683 -3686 0
3682 -3683 3686 0
-3683 2950 3684 3685 0
-3683 2882 3684 3685 0
3683 -3685 0
3683 -3684 0
3683 -2882 -2950 0
3684 -2878 -3127 0
-3684 2878 0
-3684 3127 0
-3685 2887 3175 0
-3685 2820 2881 0
-3685 2881 3175 0
-3685 2820 2887 0
3685 -2881 -2887 0
3685 -2820 -3175 0
3686 -2462 -2749 0
-3686 2462 0
-3686 2749 0
3687 -2422 3688 0
3687 2422 -3688 0
-3687 2422 3688 0
-3687 -2422 -3688 0
-3688 -3061 3689 3690 0
-3688 2745 3689 3690 0
3688 -3690 0
3688 -3689 0
3688 -2745 3061 0
3689 -2741 3181 0
-3689 2741 0
-3689 -3181 0
-3690 3002 3186 0
-3690 2746 2815 0
-3690 2815 3186 0
-3690 2746 3002 0
3690 -2815 -3002 0
3690 -2746 -3186 0
-3691 2395 3692 0
-3691 -2395 -3692 0
3691 -2395 3692 0
3691 2395 -3692 0
-3692 3224 3693 3694 0
-3692 3111 3693 3694 0
3692 -3694 0
3692 -3693 0
3692 -3111 -3224 0
3693 -2996 3258 0
-3693 2996 0
-3693 -3258 0
-3694 3261 -3302 0
-3694 3109 3110 0
-3694 3109 -3302 0
-3694 3110 3261 0
3694 -3109 -3261 0
3694 -3110 3302 0
3695 -2359 3696 0
3695 2359 -3696 0
-3695 2359 3696 0
-3695 -2359 -3696 0
-3696 3326 3697 3698 0
-3696 -3488 3697 3698 0
3696 -3698 0
3696 -3697 0
3696 -3326 3488 0
3697 -3253 3510 0
-3697 3253 0
-3697 -3510 0
-3698 3325 3327 0
-3698 3447 3489 0
-3698 3327 3489 0
-3698 3325 3447 0
3698 -3327 -3447 0
3698 -3325 -3489 0
3699 -3255 3700 0
3699 3255 -3700 0
-3699 3255 3700 0
-3699 -3255 -3700 0
-3700 3502 3701 3717 0
-3700 3458 3701 3717 0
3700 -3717 0
3700 -3701 0
3700 -3458 -3502 0
3701 -3484 3702 0
-3701 3484 0
-3701 -3702 0
-3702 3703 3706 0
-3702 -3703 -3706 0
3702 -3703 3706 0
3702 3703 -3706 0
-3703 3704 3705 0
3703 -3704 0
3703 -3705 0
3704 -3458 -3622 0
-3704 3458 0
-3704 3622 0
3705 -3629 -3632 0
-3705 3629 0
-3705 3632 0
-3706 3622 3707 0
-3706 -3622 -3715 0
3706 3622 -3707 0
3706 -3622 3715 0
3707 -2210 3708 3711 3714 0
-3707 -3714 0
-3707 2210 0
-3707 -3711 0
-3707 -3708 0
-3708 1973 3310 3709 3710 0
3708 -1973 0
3708 -3710 0
3708 -3709 0
3708 -3310 0
-3709 1897 2349 0
3709 -1897 0
3709 -2349 0
-3710 2005 2009 2013 2019 0
3710 -2019 0
3710 -2013 0
3710 -2005 0
3710 -2009 0
-3711 1935 1982 2350 3712 0
3711 -1935 0
3711 -3712 0
3711 -2350 0
3711 -1982 0
-3712 1998 3713 2094 2122 0
3712 -3713 0
3712 -2122 0
3712 -1998 0
3712 -2094 0
-3713 2048 2049 0
3713 -2048 0
3713 -2049 0
-3714 2070 2123 2180 2762 0
3714 -2762 0
3714 -2180 0
3714 -2070 0
3714 -2123 0
3715 3716 -3707 0
3715 -3716 3707 0
-3715 -3716 -3707 0
-3715 3716 3707 0
3716 -3623 3624 0
-3716 3623 0
-3716 -3624 0
-3717 1592 3500 0
-3717 3622 -3715 0
-3717 1592 -3715 0
-3717 3500 3622 0
3717 -1592 -3622 0
3717 -3500 3715 0
-3718 2306 3010 3719 3720 0
3718 -3720 0
3718 -2306 0
3718 -3719 0
3718 -3010 0
-3719 1949 1991 1998 2095 0
3719 -1949 0
3719 -2095 0
3719 -1998 0
3719 -1991 0
-3720 1979 2328 2446 3721 0
3720 -3721 0
3720 -1979 0
3720 -2446 0
3720 -2328 0
-3721 2167 2416 0
3721 -2167 0
3721 -2416 0
3722 -3635 3636 0
3722 3635 -3636 0
-3722 3635 3636 0
-3722 -3635 -3636 0
-3723 -3724 -3795 0
-3723 3724 3795 0
3723 3724 -3795 0
3723 -3724 3795 0
3724 3725 -3726 0
3724 -3725 3726 0
-3724 -3725 -3726 0
-3724 3725 3726 0
3725 -16 -1836 0
-3725 16 0
-3725 1836 0
3726 3727 -3730 0
3726 -3727 3730 0
-3726 -3727 -3730 0
-3726 3727 3730 0
-3727 3728 3729 0
3727 -3728 0
3727 -3729 0
3728 -1771 -1832 0
-3728 1771 0
-3728 1832 0
3729 -17 -1770 0
-3729 17 0
-3729 1770 0
3730 -3731 3789 0
3730 3731 -3789 0
-3730 3731 3789 0
-3730 -3731 -3789 0
3731 -3732 3786 0
3731 3732 -3786 0
-3731 3732 3786 0
-3731 -3732 -3786 0
-3732 3733 3751 0
-3732 -3733 -3751 0
3732 -3733 3751 0
3732 3733 -3751 0
-3733 202 3734 0
-3733 -202 -3734 0
3733 -202 3734 0
3733 202 -3734 0
-3734 -3735 3744 3745 0
-3734 1563 3744 3745 0
3734 -3744 0
3734 -3745 0
3734 -1563 3735 0
-3735 -3736 -3737 0
-3735 3736 3737 0
3735 3736 -3737 0
3735 -3736 3737 0
3736 -1776 -1777 0
-3736 1776 0
-3736 1777 0
3737 231 268 323 -3738 0
-3737 3738 0
-3737 -323 0
-3737 -231 0
-3737 -268 0
3738 339 586 1210 -3739 0
-3738 -339 0
-3738 3739 0
-3738 -1210 0
-3738 -586 0
3739 501 -819 3740 3743 0
-3739 -3743 0
-3739 -501 0
-3739 -3740 0
-3739 819 0
-3740 63 112 115 3741 0
3740 -3741 0
3740 -115 0
3740 -63 0
3740 -112 0
-3741 116 314 477 3742 0
3741 -116 0
3741 -3742 0
3741 -477 0
3741 -314 0
-3742 174 1218 0
3742 -174 0
3742 -1218 0
-3743 224 374 0
3743 -224 0
3743 -374 0
-3744 1589 1592 0
-3744 1730 -1775 0
-3744 1592 1730 0
-3744 1589 -1775 0
3744 -1589 -1730 0
3744 -1592 1775 0
3745 -1558 -3746 0
-3745 1558 0
-3745 3746 0
3746 3747 -3750 0
3746 -3747 3750 0
-3746 -3747 -3750 0
-3746 3747 3750 0
-3747 3748 3749 0
3747 -3748 0
3747 -3749 0
3748 -1730 1775 0
-3748 1730 0
-3748 -1775 0
3749 -1788 1791 0
-3749 1788 0
-3749 -1791 0
3750 -1775 3735 0
3750 1775 -3735 0
-3750 1775 3735 0
-3750 -1775 -3735 0
-3751 3752 3755 0
-3751 -3752 -3755 0
3751 -3752 3755 0
3751 3752 -3755 0
-3752 3753 3754 0
3752 -3753 0
3752 -3754 0
3753 -1797 -1825 0
-3753 1797 0
-3753 1825 0
3754 -1793 -1796 0
-3754 1793 0
-3754 1796 0
-3755 -3756 -3782 0
-3755 3756 3782 0
3755 3756 -3782 0
3755 -3756 3782 0
3756 -3757 3779 0
3756 3757 -3779 0
-3756 3757 3779 0
-3756 -3757 -3779 0
-3757 3758 3762 0
-3757 -3758 -3762 0
3757 -3758 3762 0
3757 3758 -3762 0
-3758 602 3759 0
-3758 -602 -3759 0
3758 -602 3759 0
3758 602 -3759 0
-3759 203 3760 3761 0
-3759 1377 3760 3761 0
3759 -3760 0
3759 -3761 0
3759 -203 -1377 0
-3760 1256 -1257 0
-3760 1381 1382 0
-3760 -1257 1381 0
-3760 1256 1382 0
3760 1257 -1382 0
3760 -1256 -1381 0
3761 1261 -1384 0
-3761 -1261 0
-3761 1384 0
-3762 3763 3766 0
-3762 -3763 -3766 0
3762 -3763 3766 0
3762 3763 -3766 0
-3763 3764 3765 0
3763 -3764 0
3763 -3765 0
3764 -1807 -1818 0
-3764 1807 0
-3764 1818 0
3765 -1804 -1806 0
-3765 1804 0
-3765 1806 0
-3766 -3767 -3775 0
-3766 3767 3775 0
3766 3767 -3775 0
3766 -3767 3775 0
-3767 -3768 -3770 0
-3767 3768 3770 0
3767 3768 -3770 0
3767 -3768 3770 0
-3768 -1814 3769 0
-3768 351 3769 0
-3768 -1296 3769 0
3768 -3769 0
3768 -351 1296 1814 0
3769 -1808 -1813 0
-3769 1808 0
-3769 1813 0
3770 3771 -3774 0
3770 -3771 3774 0
-3770 -3771 -3774 0
-3770 3771 3774 0
-3771 1279 3772 3773 0
-3771 1323 3772 3773 0
3771 -3772 0
3771 -3773 0
3771 -1279 -1323 0
-3772 1283 1373 0
-3772 1288 1322 0
-3772 1322 1373 0
-3772 1283 1288 0
3772 -1288 -1373 0
3772 -1283 -1322 0
3773 -1325 -1401 0
-3773 1325 0
-3773 1401 0
3774 -351 1292 0
-3774 351 0
-3774 -1292 0
3775 425 -3776 0
3775 -425 3776 0
-3775 -425 -3776 0
-3775 425 3776 0
3776 -3777 0
3776 -1328 -1460 0
-3776 1460 3777 0
-3776 1328 3777 0
-3777 1267 3778 0
-3777 1335 3778 0
3777 -3778 0
3777 -1267 -1335 0
-3778 1271 1332 0
-3778 -1275 1334 0
-3778 1271 -1275 0
-3778 1332 1334 0
3778 -1271 -1334 0
3778 1275 -1332 0
-3779 3780 3781 0
3779 -3780 0
3779 -3781 0
3780 -1799 -1803 0
-3780 1799 0
-3780 1803 0
3781 -1798 -1822 0
-3781 1798 0
-3781 1822 0
3782 193 -3783 0
3782 -193 3783 0
-3782 -193 -3783 0
-3782 193 3783 0
3783 -3784 0
3783 -1260 1593 0
-3783 -1593 3784 0
-3783 1260 3784 0
-3784 1564 3785 0
-3784 196 3785 0
3784 -3785 0
3784 -196 -1564 0
-3785 1590 -1591 0
-3785 1255 1258 0
-3785 1255 -1591 0
-3785 1258 1590 0
3785 -1255 -1590 0
3785 -1258 1591 0
-3786 3787 3788 0
3786 -3787 0
3786 -3788 0
3787 -1773 -1792 0
-3787 1773 0
-3787 1792 0
3788 -1772 -1829 0
-3788 1772 0
-3788 1829 0
-3789 63 304 3790 0
3789 -3790 0
3789 -304 0
3789 -63 0
-3790 109 136 232 3791 0
3790 -3791 0
3790 -232 0
3790 -109 0
3790 -136 0
-3791 123 143 1581 3792 0
3791 -123 0
3791 -3792 0
3791 -1581 0
3791 -143 0
-3792 154 477 3793 3794 0
3792 -3794 0
3792 -154 0
3792 -3793 0
3792 -477 0
-3793 92 186 265 288 0
3793 -288 0
3793 -265 0
3793 -92 0
3793 -186 0
-3794 415 1135 1172 0
3794 -415 0
3794 -1135 0
3794 -1172 0
3795 -15 -3796 0
-3795 15 0
-3795 3796 0
-3796 -5374 -5375 0
-3796 5374 5375 0
3796 5374 -5375 0
3796 -5374 5375 0
-3797 -3798 -3869 0
-3797 3798 3869 0
3797 3798 -3869 0
3797 -3798 3869 0
3798 3799 -3800 0
3798 -3799 3800 0
-3798 -3799 -3800 0
-3798 3799 3800 0
3799 -1838 -3722 0
-3799 1838 0
-3799 3722 0
3800 3801 -3804 0
3800 -3801 3804 0
-3800 -3801 -3804 0
-3800 3801 3804 0
-3801 3802 3803 0
3801 -3802 0
3801 -3803 0
3802 -3659 -3718 0
-3802 3659 0
-3802 3718 0
3803 -1839 -3658 0
-3803 1839 0
-3803 3658 0
3804 -3805 3863 0
3804 3805 -3863 0
-3804 3805 3863 0
-3804 -3805 -3863 0
3805 3806 -3809 0
3805 -3806 3809 0
-3805 -3806 -3809 0
-3805 3806 3809 0
-3806 3807 3808 0
3806 -3807 0
3806 -3808 0
3807 -3664 -3699 0
-3807 3664 0
-3807 3699 0
3808 -3660 -3663 0
-3808 3660 0
-3808 3663 0
3809 3810 -3845 0
3809 -3810 3845 0
-3809 -3810 -3845 0
-3809 3810 3845 0
3810 3811 -3814 0
3810 -3811 3814 0
-3810 -3811 -3814 0
-3810 3811 3814 0
-3811 3812 3813 0
3811 -3812 0
3811 -3813 0
3812 -3669 -3695 0
-3812 3669 0
-3812 3695 0
3813 -3665 -3668 0
-3813 3665 0
-3813 3668 0
3814 3815 -3841 0
3814 -3815 3841 0
-3814 -3815 -3841 0
-3814 3815 3841 0
3815 3816 -3819 0
3815 -3816 3819 0
-3815 -3816 -3819 0
-3815 3816 3819 0
-3816 3817 3818 0
3816 -3817 0
3816 -3818 0
3817 -3674 -3691 0
-3817 3674 0
-3817 3691 0
3818 -3670 -3673 0
-3818 3670 0
-3818 3673 0
3819 -3820 3837 0
3819 3820 -3837 0
-3819 3820 3837 0
-3819 -3820 -3837 0
3820 3821 -3824 0
3820 -3821 3824 0
-3820 -3821 -3824 0
-3820 3821 3824 0
-3821 3822 3823 0
3821 -3822 0
3821 -3823 0
3822 -3679 -3687 0
-3822 3679 0
-3822 3687 0
3823 -3675 -3678 0
-3823 3675 0
-3823 3678 0
3824 -3825 3833 0
3824 3825 -3833 0
-3824 3825 3833 0
-3824 -3825 -3833 0
3825 -3826 3828 0
3825 3826 -3828 0
-3825 3826 3828 0
-3825 -3826 -3828 0
-3826 -2749 3827 0
-3826 -3683 3827 0
-3826 2462 3827 0
3826 -3827 0
3826 -2462 2749 3683 0
3827 -3680 -3682 0
-3827 3680 0
-3827 3682 0
-3828 -3829 -3832 0
-3828 3829 3832 0
3828 3829 -3832 0
3828 -3829 3832 0
-3829 2950 3830 3831 0
-3829 2881 3830 3831 0
3829 -3831 0
3829 -3830 0
3829 -2881 -2950 0
3830 -2878 -3119 0
-3830 2878 0
-3830 3119 0
-3831 2887 3002 0
-3831 2882 3175 0
-3831 3002 3175 0
-3831 2882 2887 0
3831 -2882 -3002 0
3831 -2887 -3175 0
3832 -2462 2820 0
-3832 2462 0
-3832 -2820 0
-3833 2422 3834 0
-3833 -2422 -3834 0
3833 -2422 3834 0
3833 2422 -3834 0
-3834 -3061 3835 3836 0
-3834 2815 3835 3836 0
3834 -3836 0
3834 -3835 0
3834 -2815 3061 0
3835 -2741 -3344 0
-3835 2741 0
-3835 3344 0
-3836 2746 3186 0
-3836 2745 3224 0
-3836 3186 3224 0
-3836 2745 2746 0
3836 -2745 -3186 0
3836 -2746 -3224 0
-3837 2395 3838 0
-3837 -2395 -3838 0
3837 -2395 3838 0
3837 2395 -3838 0
-3838 3261 3839 3840 0
-3838 3111 3839 3840 0
3838 -3840 0
3838 -3839 0
3838 -3111 -3261 0
3839 -2996 3442 0
-3839 2996 0
-3839 -3442 0
-3840 3109 3110 0
-3840 -3302 3447 0
-3840 3109 3447 0
-3840 3110 -3302 0
3840 -3109 3302 0
3840 -3110 -3447 0
3841 -2359 3842 0
3841 2359 -3842 0
-3841 2359 3842 0
-3841 -2359 -3842 0
-3842 3326 3843 3844 0
-3842 3458 3843 3844 0
3842 -3844 0
3842 -3843 0
3842 -3326 -3458 0
3843 -3253 3485 0
-3843 3253 0
-3843 -3485 0
-3844 3325 3327 0
-3844 -3488 3489 0
-3844 3325 3489 0
-3844 3327 -3488 0
3844 -3325 3488 0
3844 -3327 -3489 0
3845 -3255 3846 0
3845 3255 -3846 0
-3845 3255 3846 0
-3845 -3255 -3846 0
-3846 1592 3847 3862 0
-3846 -3715 3847 3862 0
3846 -3862 0
3846 -3847 0
3846 -1592 3715 0
3847 -3484 -3848 0
-3847 3484 0
-3847 3848 0
3848 -3849 3852 0
3848 3849 -3852 0
-3848 3849 3852 0
-3848 -3849 -3852 0
-3849 3850 3851 0
3849 -3850 0
3849 -3851 0
3850 -3622 3715 0
-3850 3622 0
-3850 -3715 0
3851 -3703 3706 0
-3851 3703 0
-3851 -3706 0
-3852 -3715 -3853 0
-3852 3715 3860 0
3852 -3715 3853 0
3852 3715 -3860 0
3853 2330 2756 -3854 3856 0
-3853 -3856 0
-3853 -2330 0
-3853 3854 0
-3853 -2756 0
3854 2076 2120 -2410 3855 0
-3854 -2076 0
-3854 -3855 0
-3854 2410 0
-3854 -2120 0
-3855 2044 2069 0
3855 -2044 0
3855 -2069 0
-3856 2093 3857 3859 0
3856 -3859 0
3856 -3857 0
3856 -2093 0
-3857 1931 2137 2769 3858 0
3857 -1931 0
3857 -3858 0
3857 -2769 0
3857 -2137 0
-3858 1903 1936 1995 2077 0
3858 -2077 0
3858 -1903 0
3858 -1995 0
3858 -1936 0
-3859 2237 2378 0
3859 -2237 0
3859 -2378 0
3860 3861 -3853 0
3860 -3861 3853 0
-3860 -3861 -3853 0
-3860 3861 3853 0
3861 -3716 -3707 0
-3861 3716 0
-3861 3707 0
-3862 3500 3502 0
-3862 3622 -3860 0
-3862 3502 -3860 0
-3862 3500 3622 0
3862 -3502 -3622 0
3862 -3500 3860 0
-3863 1993 3075 3864 3867 0
3863 -3867 0
3863 -1993 0
3863 -3864 0
3863 -3075 0
-3864 1979 2048 3473 3865 0
3864 -3865 0
3864 -1979 0
3864 -3473 0
3864 -2048 0
-3865 1916 2214 2959 3866 0
3865 -1916 0
3865 -3866 0
3865 -2959 0
3865 -2214 0
-3866 1936 1959 1973 2078 0
3866 -2078 0
3866 -1973 0
3866 -1936 0
3866 -1959 0
-3867 1909 2166 3868 0
3867 -3868 0
3867 -2166 0
3867 -1909 0
-3868 1971 1987 2089 2181 0
3868 -2181 0
3868 -2089 0
3868 -1971 0
3868 -1987 0
3869 -1837 -3870 0
-3869 1837 0
-3869 3870 0
3870 5374 -5375 0
3870 -5374 5375 0
-3870 -5374 -5375 0
-3870 5374 5375 0
-3871 -3872 -3930 0
-3871 3872 3930 0
3871 3872 -3930 0
3871 -3872 3930 0
3872 -3873 3874 0
3872 3873 -3874 0
-3872 3873 3874 0
-3872 -3873 -3874 0
3873 -3725 -3726 0
-3873 3725 0
-3873 3726 0
-3874 3875 -3878 -3884 3887 0
-3874 -3875 -3878 3884 3887 0
-3874 -3875 -3878 -3884 -3887 0
-3874 3875 3878 3884 3887 0
-3874 3875 -3878 3884 -3887 0
-3874 -3875 3878 -3884 3887 0
-3874 -3875 3878 3884 -3887 0
-3874 3875 3878 -3884 -3887 0
3874 -3875 -3878 3884 -3887 0
3874 3875 -3878 -3884 -3887 0
3874 3875 3878 3884 -3887 0
3874 -3875 3878 -3884 -3887 0
3874 -3875 3878 3884 3887 0
3874 3875 -3878 3884 3887 0
3874 -3875 -3878 -3884 3887 0
3874 3875 3878 -3884 3887 0
-3875 3876 3877 0
3875 -3876 0
3875 -3877 0
3876 -3731 -3789 0
-3876 3731 0
-3876 3789 0
3877 -3727 -3730 0
-3877 3727 0
-3877 3730 0
-3878 100 231 349 3879 0
3878 -3879 0
3878 -349 0
3878 -100 0
3878 -231 0
-3879 210 318 347 3880 0
3879 -3880 0
3879 -347 0
3879 -210 0
3879 -318 0
-3880 222 1764 3881 3883 0
3880 -222 0
3880 -3883 0
3880 -3881 0
3880 -1764 0
-3881 80 95 172 3882 0
3881 -3882 0
3881 -172 0
3881 -80 0
3881 -95 0
-3882 77 246 291 0
3882 -77 0
3882 -246 0
3882 -291 0
-3883 292 402 491 0
3883 -292 0
3883 -402 0
3883 -491 0
-3884 3885 3886 0
3884 -3885 0
3884 -3886 0
3885 -3733 -3751 0
-3885 3733 0
-3885 3751 0
3886 -3732 -3786 0
-3886 3732 0
-3886 3786 0
-3887 3888 3895 0
-3887 -3888 -3895 0
3887 -3888 3895 0
3887 3888 -3895 0
-3888 202 3889 0
-3888 -202 -3889 0
3888 -202 3889 0
3888 202 -3889 0
-3889 1558 3890 0
-3889 3890 3891 0
3889 -3890 0
3889 -1558 -3891 0
-3890 1592 -1775 0
-3890 1589 -3735 0
-3890 -1775 -3735 0
-3890 1589 1592 0
3890 -1589 1775 0
3890 -1592 3735 0
3891 -3892 3894 0
-3891 3892 0
-3891 -3894 0
-3892 1775 3735 0
-3892 3735 -3893 0
3892 -3735 0
3892 -1775 3893 0
3893 -3747 -3750 0
-3893 3747 0
-3893 3750 0
3894 -3735 3893 0
-3894 3735 0
-3894 -3893 0
-3895 3896 3899 0
-3895 -3896 -3899 0
3895 -3896 3899 0
3895 3896 -3899 0
-3896 3897 3898 0
3896 -3897 0
3896 -3898 0
3897 -3756 -3782 0
-3897 3756 0
-3897 3782 0
3898 -3752 -3755 0
-3898 3752 0
-3898 3755 0
-3899 -3900 -3926 0
-3899 3900 3926 0
3899 3900 -3926 0
3899 -3900 3926 0
3900 -3901 3923 0
3900 3901 -3923 0
-3900 3901 3923 0
-3900 -3901 -3923 0
-3901 3902 3906 0
-3901 -3902 -3906 0
3901 -3902 3906 0
3901 3902 -3906 0
-3902 602 3903 0
-3902 -602 -3903 0
3902 -602 3903 0
3902 602 -3903 0
-3903 1590 3904 3905 0
-3903 1377 3904 3905 0
3903 -3904 0
3903 -3905 0
3903 -1377 -1590 0
-3904 203 1381 0
-3904 -1257 1382 0
-3904 203 -1257 0
-3904 1381 1382 0
3904 -203 -1382 0
3904 1257 -1381 0
3905 -1384 -1621 0
-3905 1384 0
-3905 1621 0
-3906 3907 3910 0
-3906 -3907 -3910 0
3906 -3907 3910 0
3906 3907 -3910 0
-3907 3908 3909 0
3907 -3908 0
3907 -3909 0
3908 -3767 -3775 0
-3908 3767 0
-3908 3775 0
3909 -3763 -3766 0
-3909 3763 0
-3909 3766 0
-3910 -3911 -3919 0
-3910 3911 3919 0
3910 3911 -3919 0
3910 -3911 3919 0
-3911 -3912 -3914 0
-3911 3912 3914 0
3911 3912 -3914 0
3911 -3912 3914 0
-3912 1292 3913 0
-3912 351 3913 0
-3912 -3771 3913 0
3912 -3913 0
3912 -351 -1292 3771 0
3913 -3768 -3770 0
-3913 3768 0
-3913 3770 0
3914 3915 -3918 0
3914 -3915 3918 0
-3914 -3915 -3918 0
-3914 3915 3918 0
-3915 -1275 3916 3917 0
-3915 1323 3916 3917 0
3915 -3916 0
3915 -3917 0
3915 1275 -1323 0
-3916 1283 1322 0
-3916 1279 1373 0
-3916 1279 1283 0
-3916 1322 1373 0
3916 -1283 -1373 0
3916 -1279 -1322 0
3917 -1325 1392 0
-3917 1325 0
-3917 -1392 0
3918 -351 1288 0
-3918 351 0
-3918 -1288 0
3919 425 -3920 0
3919 -425 3920 0
-3919 -425 -3920 0
-3919 425 3920 0
3920 -3921 0
3920 -1328 -1480 0
-3920 1480 3921 0
-3920 1328 3921 0
-3921 1335 3922 0
-3921 1256 3922 0
3921 -3922 0
3921 -1256 -1335 0
-3922 1332 1334 0
-3922 1267 1271 0
-3922 1271 1334 0
-3922 1267 1332 0
3922 -1271 -1332 0
3922 -1267 -1334 0
-3923 3924 3925 0
3923 -3924 0
3923 -3925 0
3924 -3758 -3762 0
-3924 3758 0
-3924 3762 0
3925 -3757 -3779 0
-3925 3757 0
-3925 3779 0
3926 193 -3927 0
3926 -193 3927 0
-3926 -193 -3927 0
-3926 193 3927 0
3927 -3928 0
3927 -1260 -1737 0
-3927 1737 3928 0
-3927 1260 3928 0
-3928 1730 3929 0
-3928 196 3929 0
3928 -3929 0
3928 -196 -1730 0
-3929 1564 -1591 0
-3929 1255 1258 0
-3929 1258 -1591 0
-3929 1255 1564 0
3929 -1258 -1564 0
3929 -1255 1591 0
3930 -3796 -3931 0
-3930 3796 0
-3930 3931 0
-3931 15 3724 0
3931 -15 0
3931 -3724 0
-3932 -3933 -3991 0
-3932 3933 3991 0
3932 3933 -3991 0
3932 -3933 3991 0
3933 3934 -3935 0
3933 -3934 3935 0
-3933 -3934 -3935 0
-3933 3934 3935 0
3934 -3799 -3800 0
-3934 3799 0
-3934 3800 0
3935 3936 -3939 0
3935 -3936 3939 0
-3935 -3936 -3939 0
-3935 3936 3939 0
-3936 3937 3938 0
3936 -3937 0
3936 -3938 0
3937 -3805 -3863 0
-3937 3805 0
-3937 3863 0
3938 -3801 -3804 0
-3938 3801 0
-3938 3804 0
3939 3940 -3946 0
3939 -3940 3946 0
-3939 -3940 -3946 0
-3939 3940 3946 0
-3940 1948 2316 2470 3941 0
3940 -1948 0
3940 -3941 0
3940 -2470 0
3940 -2316 0
-3941 2144 3644 3942 3944 0
3941 -2144 0
3941 -3944 0
3941 -3942 0
3941 -3644 0
-3942 2049 2131 2438 3943 0
3942 -2049 0
3942 -3943 0
3942 -2438 0
3942 -2131 0
-3943 2044 2078 2148 0
3943 -2044 0
3943 -2148 0
3943 -2078 0
-3944 1973 1988 2224 3945 0
3944 -1973 0
3944 -3945 0
3944 -2224 0
3944 -1988 0
-3945 2016 3312 0
3945 -2016 0
3945 -3312 0
3946 3947 -3950 0
3946 -3947 3950 0
-3946 -3947 -3950 0
-3946 3947 3950 0
-3947 3948 3949 0
3947 -3948 0
3947 -3949 0
3948 -3810 -3845 0
-3948 3810 0
-3948 3845 0
3949 -3806 -3809 0
-3949 3806 0
-3949 3809 0
3950 3951 -3986 0
3950 -3951 3986 0
-3950 -3951 -3986 0
-3950 3951 3986 0
3951 3952 -3955 0
3951 -3952 3955 0
-3951 -3952 -3955 0
-3951 3952 3955 0
-3952 3953 3954 0
3952 -3953 0
3952 -3954 0
3953 -3815 -3841 0
-3953 3815 0
-3953 3841 0
3954 -3811 -3814 0
-3954 3811 0
-3954 3814 0
3955 3956 -3982 0
3955 -3956 3982 0
-3955 -3956 -3982 0
-3955 3956 3982 0
3956 3957 -3960 0
3956 -3957 3960 0
-3956 -3957 -3960 0
-3956 3957 3960 0
-3957 3958 3959 0
3957 -3958 0
3957 -3959 0
3958 -3820 -3837 0
-3958 3820 0
-3958 3837 0
3959 -3816 -3819 0
-3959 3816 0
-3959 3819 0
3960 3961 -3978 0
3960 -3961 3978 0
-3960 -3961 -3978 0
-3960 3961 3978 0
3961 3962 -3965 0
3961 -3962 3965 0
-3961 -3962 -3965 0
-3961 3962 3965 0
-3962 3963 3964 0
3962 -3963 0
3962 -3964 0
3963 -3825 -3833 0
-3963 3825 0
-3963 3833 0
3964 -3821 -3824 0
-3964 3821 0
-3964 3824 0
3965 -3966 3974 0
3965 3966 -3974 0
-3965 3966 3974 0
-3965 -3966 -3974 0
3966 -3967 3969 0
3966 3967 -3969 0
-3966 3967 3969 0
-3966 -3967 -3969 0
-3967 2820 3968 0
-3967 -3829 3968 0
-3967 2462 3968 0
3967 -3968 0
3967 -2462 -2820 3829 0
3968 -3826 -3828 0
-3968 3826 0
-3968 3828 0
-3969 -3970 -3973 0
-3969 3970 3973 0
3969 3970 -3973 0
3969 -3970 3973 0
-3970 -3061 3971 3972 0
-3970 2882 3971 3972 0
3970 -3972 0
3970 -3971 0
3970 -2882 3061 0
3971 -2878 2999 0
-3971 2878 0
-3971 -2999 0
-3972 3002 2950 0
-3972 2881 3175 0
-3972 3002 3175 0
-3972 2881 2950 0
3972 -2881 -3002 0
3972 -2950 -3175 0
3973 -2462 2887 0
-3973 2462 0
-3973 -2887 0
-3974 2422 3975 0
-3974 -2422 -3975 0
3974 -2422 3975 0
3974 2422 -3975 0
-3975 3186 3976 3977 0
-3975 2815 3976 3977 0
3975 -3977 0
3975 -3976 0
3975 -2815 -3186 0
3976 -2741 -3335 0
-3976 2741 0
-3976 3335 0
-3977 3261 3224 0
-3977 2745 2746 0
-3977 2746 3224 0
-3977 2745 3261 0
3977 -2746 -3261 0
3977 -2745 -3224 0
3978 -2395 3979 0
3978 2395 -3979 0
-3978 2395 3979 0
-3978 -2395 -3979 0
-3979 3110 3980 3981 0
-3979 3489 3980 3981 0
3979 -3981 0
3979 -3980 0
3979 -3110 -3489 0
3980 -2996 -3519 0
-3980 2996 0
-3980 3519 0
-3981 3109 3111 0
-3981 -3302 3447 0
-3981 3111 3447 0
-3981 3109 -3302 0
3981 -3111 3302 0
3981 -3109 -3447 0
3982 -2359 3983 0
3982 2359 -3983 0
-3982 2359 3983 0
-3982 -2359 -3983 0
-3983 3326 3984 3985 0
-3983 3622 3984 3985 0
3983 -3985 0
3983 -3984 0
3983 -3326 -3622 0
3984 -3253 -3628 0
-3984 3253 0
-3984 3628 0
-3985 3325 3327 0
-3985 -3488 3458 0
-3985 3327 3458 0
-3985 3325 -3488 0
3985 -3327 3488 0
3985 -3325 -3458 0
3986 -3255 3987 0
3986 3255 -3987 0
-3986 3255 3987 0
-3986 -3255 -3987 0
-3987 3988 3990 0
-3987 3484 3990 0
3987 -3990 0
3987 -3484 -3988 0
3988 -3860 -3989 0
3988 -3715 3860 3989 0
-3988 -3860 3989 0
-3988 3860 -3989 0
-3988 3715 3989 0
3989 -3849 -3852 0
-3989 3849 0
-3989 3852 0
-3990 1592 3502 0
-3990 -3715 -3860 0
-3990 3502 -3860 0
-3990 1592 -3715 0
3990 -3502 3715 0
3990 -1592 3860 0
3991 -3870 -3992 0
-3991 3870 0
-3991 3992 0
-3992 1837 3798 0
3992 -1837 0
3992 -3798 0
-3993 -3994 -4054 0
-3993 3994 4054 0
3993 3994 -4054 0
3993 -3994 4054 0
3994 3995 -4052 0
3994 -3995 4052 0
-3994 -3995 -4052 0
-3994 3995 4052 0
-3995 -3996 -3997 0
-3995 3996 3997 0
3995 3996 -3997 0
3995 -3996 3997 0
3996 -3873 -3874 0
-3996 3873 0
-3996 3874 0
3997 3998 -4002 0
3997 3998 -4050 0
3997 -3998 4002 4050 0
-3997 -3998 -4050 0
-3997 3998 4002 4050 0
-3997 -3998 -4002 0
-3998 3999 4001 0
3998 -3999 0
3998 -4001 0
3999 -3878 -4000 0
-3999 3878 0
-3999 4000 0
-4000 3884 3887 0
-4000 -3884 -3887 0
4000 -3884 3887 0
4000 3884 -3887 0
4001 -3875 3878 -4000 0
4001 -3875 -3878 4000 0
-4001 3875 0
-4001 3878 4000 0
-4001 -3878 -4000 0
4002 -4003 4008 0
-4002 4003 0
-4002 -4008 0
-4003 54 179 186 4004 0
4003 -4004 0
4003 -186 0
4003 -54 0
4003 -179 0
-4004 123 271 4005 0
4004 -4005 0
4004 -271 0
4004 -123 0
-4005 227 255 464 4006 0
4005 -227 0
4005 -4006 0
4005 -464 0
4005 -255 0
-4006 569 814 1097 4007 0
4006 -4007 0
4006 -569 0
4006 -1097 0
4006 -814 0
-4007 283 1172 1752 0
4007 -283 0
4007 -1172 0
4007 -1752 0
4008 4009 -4012 0
4008 -4009 4012 0
-4008 -4009 -4012 0
-4008 4009 4012 0
-4009 4010 4011 0
4009 -4010 0
4009 -4011 0
4010 -3888 -3895 0
-4010 3888 0
-4010 3895 0
4011 -3884 -3887 0
-4011 3884 0
-4011 3887 0
4012 4013 -4016 0
4012 -4013 4016 0
-4012 -4013 -4016 0
-4012 4013 4016 0
-4013 4014 4015 0
4013 -4014 0
4013 -4015 0
4014 -3900 -3926 0
-4014 3900 0
-4014 3926 0
4015 -3896 -3899 0
-4015 3896 0
-4015 3899 0
4016 4017 -4019 0
4016 -4017 4019 0
-4016 -4017 -4019 0
-4016 4017 4019 0
-4017 202 4018 0
-4017 -202 -4018 0
4017 -202 4018 0
4017 202 -4018 0
-4018 -3735 -3892 0
-4018 1558 1589 0
-4018 1589 -3892 0
-4018 1558 -3735 0
4018 -1589 3735 0
4018 -1558 3892 0
4019 4020 -4046 0
4019 -4020 4046 0
-4019 -4020 -4046 0
-4019 4020 4046 0
4020 -4021 4043 0
4020 4021 -4043 0
-4020 4021 4043 0
-4020 -4021 -4043 0
-4021 -4022 -4026 0
-4021 4022 4026 0
4021 4022 -4026 0
4021 -4022 4026 0
-4022 602 4023 0
-4022 -602 -4023 0
4022 -602 4023 0
4022 602 -4023 0
-4023 -1591 4024 4025 0
-4023 1377 4024 4025 0
4023 -4024 0
4023 -4025 0
4023 -1377 1591 0
-4024 203 1590 0
-4024 1381 1382 0
-4024 1381 1590 0
-4024 203 1382 0
4024 -203 -1381 0
4024 -1382 -1590 0
4025 -1384 1614 0
-4025 1384 0
-4025 -1614 0
4026 4027 -4030 0
4026 -4027 4030 0
-4026 -4027 -4030 0
-4026 4027 4030 0
-4027 4028 4029 0
4027 -4028 0
4027 -4029 0
4028 -3911 -3919 0
-4028 3911 0
-4028 3919 0
4029 -3907 -3910 0
-4029 3907 0
-4029 3910 0
4030 4031 -4039 0
4030 -4031 4039 0
-4030 -4031 -4039 0
-4030 4031 4039 0
-4031 -4032 -4034 0
-4031 4032 4034 0
4031 4032 -4034 0
4031 -4032 4034 0
-4032 1288 4033 0
-4032 351 4033 0
-4032 -3915 4033 0
4032 -4033 0
4032 -351 -1288 3915 0
4033 -3912 -3914 0
-4033 3912 0
-4033 3914 0
4034 4035 -4038 0
4034 -4035 4038 0
-4034 -4035 -4038 0
-4034 4035 4038 0
-4035 1323 4036 4037 0
-4035 1271 4036 4037 0
4035 -4036 0
4035 -4037 0
4035 -1271 -1323 0
-4036 1279 1322 0
-4036 -1275 1373 0
-4036 -1275 1279 0
-4036 1322 1373 0
4036 -1279 -1373 0
4036 1275 -1322 0
4037 -1325 1383 0
-4037 1325 0
-4037 -1383 0
4038 -351 1283 0
-4038 351 0
-4038 -1283 0
4039 425 -4040 0
4039 -425 4040 0
-4039 -425 -4040 0
-4039 425 4040 0
4040 -4041 0
4040 -1328 1470 0
-4040 -1470 4041 0
-4040 1328 4041 0
-4041 -1257 4042 0
-4041 1335 4042 0
4041 -4042 0
4041 1257 -1335 0
-4042 1256 1332 0
-4042 1267 1334 0
-4042 1256 1267 0
-4042 1332 1334 0
4042 -1256 -1334 0
4042 -1267 -1332 0
-4043 4044 4045 0
4043 -4044 0
4043 -4045 0
4044 -3902 -3906 0
-4044 3902 0
-4044 3906 0
4045 -3901 -3923 0
-4045 3901 0
-4045 3923 0
4046 193 -4047 0
4046 -193 4047 0
-4046 -193 -4047 0
-4046 193 4047 0
4047 -4048 0
4047 -1260 1787 0
-4047 -1787 4048 0
-4047 1260 4048 0
-4048 -1775 4049 0
-4048 196 4049 0
4048 -4049 0
4048 -196 1775 0
-4049 1564 1730 0
-4049 1255 1258 0
-4049 1255 1730 0
-4049 1258 1564 0
4049 -1255 -1564 0
4049 -1258 -1730 0
4050 -4008 4051 0
-4050 4008 0
-4050 -4051 0
4051 -4003 -4008 0
-4051 4003 0
-4051 4008 0
4052 -3796 -4053 0
-4052 3796 0
-4052 4053 0
-4053 3872 3931 0
4053 -3872 0
4053 -3931 0
4054 4055 -4057 0
4054 -4055 4057 0
-4054 -4055 -4057 0
-4054 4055 4057 0
4055 -3870 -4056 0
-4055 3870 0
-4055 4056 0
-4056 3933 3992 0
4056 -3933 0
4056 -3992 0
4057 4058 -4059 0
4057 -4058 4059 0
-4057 -4058 -4059 0
-4057 4058 4059 0
4058 -3934 -3935 0
-4058 3934 0
-4058 3935 0
4059 4060 -4063 0
4059 -4060 4063 0
-4059 -4060 -4063 0
-4059 4060 4063 0
-4060 4061 4062 0
4060 -4061 0
4060 -4062 0
4061 -3940 -3946 0
-4061 3940 0
-4061 3946 0
4062 -3936 -3939 0
-4062 3936 0
-4062 3939 0
4063 4064 -4069 0
4063 -4064 4069 0
-4063 -4064 -4069 0
-4063 4064 4069 0
-4064 1987 2413 4065 4066 0
4064 -1987 0
4064 -4066 0
4064 -4065 0
4064 -2413 0
-4065 1909 1943 2479 0
4065 -2479 0
4065 -1943 0
4065 -1909 0
-4066 2302 2348 3654 4067 0
4066 -4067 0
4066 -2302 0
4066 -3654 0
4066 -2348 0
-4067 2127 2180 2261 4068 0
4067 -2127 0
4067 -4068 0
4067 -2261 0
4067 -2180 0
-4068 2000 2959 3079 0
4068 -3079 0
4068 -2959 0
4068 -2000 0
4069 4070 -4073 0
4069 -4070 4073 0
-4069 -4070 -4073 0
-4069 4070 4073 0
-4070 4071 4072 0
4070 -4071 0
4070 -4072 0
4071 -3951 -3986 0
-4071 3951 0
-4071 3986 0
4072 -3947 -3950 0
-4072 3947 0
-4072 3950 0
4073 4074 -4077 0
4073 -4074 4077 0
-4073 -4074 -4077 0
-4073 4074 4077 0
-4074 4075 4076 0
4074 -4075 0
4074 -4076 0
4075 -3956 -3982 0
-4075 3956 0
-4075 3982 0
4076 -3952 -3955 0
-4076 3952 0
-4076 3955 0
4077 -4078 4109 0
4077 4078 -4109 0
-4077 4078 4109 0
-4077 -4078 -4109 0
4078 4079 -4105 0
4078 -4079 4105 0
-4078 -4079 -4105 0
-4078 4079 4105 0
4079 4080 -4083 0
4079 -4080 4083 0
-4079 -4080 -4083 0
-4079 4080 4083 0
-4080 4081 4082 0
4080 -4081 0
4080 -4082 0
4081 -3961 -3978 0
-4081 3961 0
-4081 3978 0
4082 -3957 -3960 0
-4082 3957 0
-4082 3960 0
4083 4084 -4101 0
4083 -4084 4101 0
-4083 -4084 -4101 0
-4083 4084 4101 0
4084 4085 -4088 0
4084 -4085 4088 0
-4084 -4085 -4088 0
-4084 4085 4088 0
-4085 4086 4087 0
4085 -4086 0
4085 -4087 0
4086 -3966 -3974 0
-4086 3966 0
-4086 3974 0
4087 -3962 -3965 0
-4087 3962 0
-4087 3965 0
4088 -4089 4097 0
4088 4089 -4097 0
-4088 4089 4097 0
-4088 -4089 -4097 0
4089 -4090 4092 0
4089 4090 -4092 0
-4089 4090 4092 0
-4089 -4090 -4092 0
-4090 2887 4091 0
-4090 -3970 4091 0
-4090 2462 4091 0
4090 -4091 0
4090 -2462 -2887 3970 0
4091 -3967 -3969 0
-4091 3967 0
-4091 3969 0
-4092 -4093 -4096 0
-4092 4093 4096 0
4092 4093 -4096 0
4092 -4093 4096 0
-4093 -3061 4094 4095 0
-4093 2881 4094 4095 0
4093 -4095 0
4093 -4094 0
4093 -2881 3061 0
4094 -2878 3181 0
-4094 2878 0
-4094 -3181 0
-4095 3175 3186 0
-4095 2882 3002 0
-4095 3002 3186 0
-4095 2882 3175 0
4095 -3002 -3175 0
4095 -2882 -3186 0
4096 -2462 2950 0
-4096 2462 0
-4096 -2950 0
-4097 2422 4098 0
-4097 -2422 -4098 0
4097 -2422 4098 0
4097 2422 -4098 0
-4098 3224 4099 4100 0
-4098 2815 4099 4100 0
4098 -4100 0
4098 -4099 0
4098 -2815 -3224 0
4099 -2741 3258 0
-4099 2741 0
-4099 -3258 0
-4100 3261 -3302 0
-4100 2745 2746 0
-4100 2745 -3302 0
-4100 2746 3261 0
4100 -2745 -3261 0
4100 -2746 3302 0
4101 -2395 4102 0
4101 2395 -4102 0
-4101 2395 4102 0
-4101 -2395 -4102 0
-4102 3110 4103 4104 0
-4102 -3488 4103 4104 0
4102 -4104 0
4102 -4103 0
4102 -3110 3488 0
4103 -2996 3510 0
-4103 2996 0
-4103 -3510 0
-4104 3109 3111 0
-4104 3447 3489 0
-4104 3111 3489 0
-4104 3109 3447 0
4104 -3111 -3447 0
4104 -3109 -3489 0
4105 -2359 4106 0
4105 2359 -4106 0
-4105 2359 4106 0
-4105 -2359 -4106 0
-4106 3327 4107 4108 0
-4106 3458 4107 4108 0
4106 -4108 0
4106 -4107 0
4106 -3327 -3458 0
4107 -3253 3702 0
-4107 3253 0
-4107 -3702 0
-4108 3325 3326 0
-4108 3622 -3715 0
-4108 3325 -3715 0
-4108 3326 3622 0
4108 -3325 -3622 0
4108 -3326 3715 0
-4109 3255 4110 0
-4109 -3255 -4110 0
4109 -3255 4110 0
4109 3255 -4110 0
-4110 3484 3502 0
-4110 -3860 -4111 0
-4110 3502 -4111 0
-4110 3484 -3860 0
4110 -3484 4111 0
4110 -3502 3860 0
-4111 3860 -3989 0
-4111 3715 3860 0
4111 -3860 0
4111 -3715 3989 0
-4112 -4113 -4163 0
-4112 4113 4163 0
4112 4113 -4163 0
4112 -4113 4163 0
4113 4114 -4115 0
4113 -4114 4115 0
-4113 -4114 -4115 0
-4113 4114 4115 0
4114 -3996 -3997 0
-4114 3996 0
-4114 3997 0
4115 4116 -4118 0
4115 -4116 4118 0
-4115 -4116 -4118 0
-4115 4116 4118 0
-4116 4051 4117 0
4116 -4051 0
4116 -4117 0
4117 -3998 -4002 0
4117 -3998 -4050 0
-4117 3998 0
-4117 4002 4050 0
4118 4119 -4123 0
4118 -4119 4123 0
-4118 -4119 -4123 0
-4118 4119 4123 0
-4119 128 139 392 4120 0
4119 -4120 0
4119 -392 0
4119 -128 0
4119 -139 0
-4120 417 467 1214 4121 0
4120 -4121 0
4120 -417 0
4120 -1214 0
4120 -467 0
-4121 578 1228 4122 0
4121 -578 0
4121 -1228 0
4121 -4122 0
-4122 214 246 340 0
4122 -214 0
4122 -246 0
4122 -340 0
4123 4124 -4127 0
4123 -4124 4127 0
-4123 -4124 -4127 0
-4123 4124 4127 0
-4124 4125 4126 0
4124 -4125 0
4124 -4126 0
4125 -4013 -4016 0
-4125 4013 0
-4125 4016 0
4126 -4009 -4012 0
-4126 4009 0
-4126 4012 0
4127 4128 -4131 0
4127 -4128 4131 0
-4127 -4128 -4131 0
-4127 4128 4131 0
-4128 4129 4130 0
4128 -4129 0
4128 -4130 0
4129 -4020 -4046 0
-4129 4020 0
-4129 4046 0
4130 -4017 -4019 0
-4130 4017 0
-4130 4019 0
4131 4132 -4159 0
4131 -4132 4159 0
-4131 -4132 -4159 0
-4131 4132 4159 0
4132 4133 -4136 0
4132 -4133 4136 0
-4132 -4133 -4136 0
-4132 4133 4136 0
-4133 4134 4135 0
4133 -4134 0
4133 -4135 0
4134 -4022 -4026 0
-4134 4022 0
-4134 4026 0
4135 -4021 -4043 0
-4135 4021 0
-4135 4043 0
4136 -4137 4155 0
4136 4137 -4155 0
-4136 4137 4155 0
-4136 -4137 -4155 0
-4137 4138 4141 0
-4137 -4138 -4141 0
4137 -4138 4141 0
4137 4138 -4141 0
-4138 4139 4140 0
4138 -4139 0
4138 -4140 0
4139 -4031 -4039 0
-4139 4031 0
-4139 4039 0
4140 -4027 -4030 0
-4140 4027 0
-4140 4030 0
-4141 -4142 -4151 0
-4141 4142 4151 0
4141 4142 -4151 0
4141 -4142 4151 0
-4142 4143 4149 0
-4142 -4143 -4149 0
4142 -4143 4149 0
4142 4143 -4149 0
-4143 4144 4148 0
-4143 -4144 -4148 0
4143 -4144 4148 0
4143 4144 -4148 0
-4144 351 4145 0
-4144 -351 -4145 0
4144 -351 4145 0
4144 351 -4145 0
-4145 1267 4146 4147 0
-4145 1323 4146 4147 0
4145 -4146 0
4145 -4147 0
4145 -1267 -1323 0
-4146 1271 -1275 0
-4146 1322 1373 0
-4146 -1275 1322 0
-4146 1271 1373 0
4146 1275 -1373 0
4146 -1271 -1322 0
4147 -1325 -1460 0
-4147 1325 0
-4147 1460 0
-4148 202 351 0
-4148 202 1279 0
-4148 -202 -351 -1279 0
4148 -202 1279 0
4148 202 -351 -1279 0
4148 -202 351 0
-4149 -4035 4150 0
-4149 351 4150 0
-4149 1283 4150 0
4149 -4150 0
4149 -351 -1283 4035 0
4150 -4032 -4034 0
-4150 4032 0
-4150 4034 0
4151 -425 4152 0
4151 425 -4152 0
-4151 425 4152 0
-4151 -425 -4152 0
-4152 203 4153 4154 0
-4152 1335 4153 4154 0
4152 -4153 0
4152 -4154 0
4152 -203 -1335 0
-4153 1256 -1257 0
-4153 1332 1334 0
-4153 -1257 1332 0
-4153 1256 1334 0
4153 1257 -1334 0
4153 -1256 -1332 0
4154 1261 -1328 0
-4154 -1261 0
-4154 1328 0
-4155 602 4156 0
-4155 -602 -4156 0
4155 -602 4156 0
4155 602 -4156 0
-4156 1564 4157 4158 0
-4156 1377 4157 4158 0
4156 -4157 0
4156 -4158 0
4156 -1377 -1564 0
-4157 1590 -1591 0
-4157 1381 1382 0
-4157 1381 -1591 0
-4157 1382 1590 0
4157 -1381 -1590 0
4157 -1382 1591 0
4158 -1384 1593 0
-4158 1384 0
-4158 -1593 0
4159 -193 4160 0
4159 193 -4160 0
-4159 193 4160 0
-4159 -193 -4160 0
-4160 -3735 4161 4162 0
-4160 196 4161 4162 0
4160 -4161 0
4160 -4162 0
4160 -196 3735 0
-4161 1255 1258 0
-4161 1730 -1775 0
-4161 1258 1730 0
-4161 1255 -1775 0
4161 -1255 -1730 0
4161 -1258 1775 0
4162 -1260 -3746 0
-4162 1260 0
-4162 3746 0
4163 -3796 -4164 0
-4163 3796 0
-4163 4164 0
-4164 3995 4053 0
4164 -3995 0
4164 -4053 0
-4165 -4166 -4218 0
-4165 4166 4218 0
4165 4166 -4218 0
4165 -4166 4218 0
4166 4167 -4168 0
4166 -4167 4168 0
-4166 -4167 -4168 0
-4166 4167 4168 0
4167 -4058 -4059 0
-4167 4058 0
-4167 4059 0
4168 4169 -4172 0
4168 -4169 4172 0
-4168 -4169 -4172 0
-4168 4169 4172 0
-4169 4170 4171 0
4169 -4170 0
4169 -4171 0
4170 -4064 -4069 0
-4170 4064 0
-4170 4069 0
4171 -4060 -4063 0
-4171 4060 0
-4171 4063 0
4172 4173 -4177 0
4172 -4173 4177 0
-4172 -4173 -4177 0
-4172 4173 4177 0
-4173 2290 2686 4174 4175 0
4173 -4175 0
4173 -2290 0
4173 -4174 0
4173 -2686 0
-4174 2194 2249 2762 0
4174 -2194 0
4174 -2249 0
4174 -2762 0
-4175 1900 2152 2385 4176 0
4175 -1900 0
4175 -4176 0
4175 -2385 0
4175 -2152 0
-4176 1912 2417 3312 0
4176 -3312 0
4176 -2417 0
4176 -1912 0
4177 4178 -4181 0
4177 -4178 4181 0
-4177 -4178 -4181 0
-4177 4178 4181 0
-4178 4179 4180 0
4178 -4179 0
4178 -4180 0
4179 -4074 -4077 0
-4179 4074 0
-4179 4077 0
4180 -4070 -4073 0
-4180 4070 0
-4180 4073 0
4181 4182 -4185 0
4181 -4182 4185 0
-4181 -4182 -4185 0
-4181 4182 4185 0
-4182 4183 4184 0
4182 -4183 0
4182 -4184 0
4183 -4079 -4105 0
-4183 4079 0
-4183 4105 0
4184 -4078 -4109 0
-4184 4078 0
-4184 4109 0
4185 4186 -4214 0
4185 -4186 4214 0
-4185 -4186 -4214 0
-4185 4186 4214 0
4186 4187 -4190 0
4186 -4187 4190 0
-4186 -4187 -4190 0
-4186 4187 4190 0
-4187 4188 4189 0
4187 -4188 0
4187 -4189 0
4188 -4084 -4101 0
-4188 4084 0
-4188 4101 0
4189 -4080 -4083 0
-4189 4080 0
-4189 4083 0
4190 -4191 4210 0
4190 4191 -4210 0
-4190 4191 4210 0
-4190 -4191 -4210 0
4191 4192 -4195 0
4191 -4192 4195 0
-4191 -4192 -4195 0
-4191 4192 4195 0
-4192 4193 4194 0
4192 -4193 0
4192 -4194 0
4193 -4089 -4097 0
-4193 4089 0
-4193 4097 0
4194 -4085 -4088 0
-4194 4085 0
-4194 4088 0
4195 -4196 4206 0
4195 4196 -4206 0
-4195 4196 4206 0
-4195 -4196 -4206 0
4196 4197 -4199 0
4196 -4197 4199 0
-4196 -4197 -4199 0
-4196 4197 4199 0
-4197 2950 4198 0
-4197 -4093 4198 0
-4197 2462 4198 0
4197 -4198 0
4197 -2462 -2950 4093 0
4198 -4090 -4092 0
-4198 4090 0
-4198 4092 0
4199 4200 -4202 0
4199 -4200 4202 0
-4199 -4200 -4202 0
-4199 4200 4202 0
4200 3255 -4201 0
4200 -3255 4201 0
-4200 -3255 -4201 0
-4200 3255 4201 0
4201 -2462 -3002 0
-4201 2462 0
-4201 3002 0
4202 -2462 4203 0
4202 2462 -4203 0
-4202 2462 4203 0
-4202 -2462 -4203 0
-4203 3175 4204 4205 0
-4203 -3061 4204 4205 0
4203 -4205 0
4203 -4204 0
4203 3061 -3175 0
4204 -2878 -3344 0
-4204 2878 0
-4204 3344 0
-4205 2882 3186 0
-4205 2881 3224 0
-4205 3186 3224 0
-4205 2881 2882 0
4205 -2881 -3186 0
4205 -2882 -3224 0
-4206 2422 4207 0
-4206 -2422 -4207 0
4206 -2422 4207 0
4206 2422 -4207 0
-4207 3261 4208 4209 0
-4207 2815 4208 4209 0
4207 -4209 0
4207 -4208 0
4207 -2815 -3261 0
4208 -2741 3442 0
-4208 2741 0
-4208 -3442 0
-4209 2745 2746 0
-4209 -3302 3447 0
-4209 2745 3447 0
-4209 2746 -3302 0
4209 -2745 3302 0
4209 -2746 -3447 0
-4210 2395 4211 0
-4210 -2395 -4211 0
4210 -2395 4211 0
4210 2395 -4211 0
-4211 3111 4212 4213 0
-4211 3489 4212 4213 0
4211 -4213 0
4211 -4212 0
4211 -3111 -3489 0
4212 -2996 3485 0
-4212 2996 0
-4212 -3485 0
-4213 3109 3110 0
-4213 -3488 3458 0
-4213 3109 3458 0
-4213 3110 -3488 0
4213 -3109 3488 0
4213 -3110 -3458 0
4214 -2359 4215 0
4214 2359 -4215 0
-4214 2359 4215 0
-4214 -2359 -4215 0
-4215 3325 4216 4217 0
-4215 -3715 4216 4217 0
4215 -4217 0
4215 -4216 0
4215 -3325 3715 0
4216 -3253 -3848 0
-4216 3253 0
-4216 3848 0
-4217 3326 3327 0
-4217 3622 -3860 0
-4217 3327 -3860 0
-4217 3326 3622 0
4217 -3327 -3622 0
4217 -3326 3860 0
4218 -3870 -4219 0
-4218 3870 0
-4218 4219 0
-4219 4056 4057 0
4219 -4056 0
4219 -4057 0
-4220 -4221 -4275 0
-4220 4221 4275 0
4220 4221 -4275 0
4220 -4221 4275 0
4221 4222 -4223 0
4221 -4222 4223 0
-4221 -4222 -4223 0
-4221 4222 4223 0
4222 -4114 -4115 0
-4222 4114 0
-4222 4115 0
4223 4224 -4227 0
4223 -4224 4227 0
-4223 -4224 -4227 0
-4223 4224 4227 0
-4224 4225 4226 0
4224 -4225 0
4224 -4226 0
4225 -4119 -4123 0
-4225 4119 0
-4225 4123 0
4226 -4116 -4118 0
-4226 4116 0
-4226 4118 0
4227 4228 -4233 0
4227 -4228 4233 0
-4227 -4228 -4233 0
-4227 4228 4233 0
-4228 178 212 295 4229 0
4228 -4229 0
4228 -295 0
4228 -178 0
4228 -212 0
-4229 128 269 3793 4230 0
4229 -128 0
4229 -4230 0
4229 -3793 0
4229 -269 0
-4230 221 1576 3740 4231 0
4230 -4231 0
4230 -221 0
4230 -3740 0
4230 -1576 0
-4231 130 499 1159 4232 0
4231 -4232 0
4231 -130 0
4231 -1159 0
4231 -499 0
-4232 227 263 326 0
4232 -227 0
4232 -326 0
4232 -263 0
4233 4234 -4237 0
4233 -4234 4237 0
-4233 -4234 -4237 0
-4233 4234 4237 0
-4234 4235 4236 0
4234 -4235 0
4234 -4236 0
4235 -4128 -4131 0
-4235 4128 0
-4235 4131 0
4236 -4124 -4127 0
-4236 4124 0
-4236 4127 0
4237 4238 -4241 0
4237 -4238 4241 0
-4237 -4238 -4241 0
-4237 4238 4241 0
-4238 4239 4240 0
4238 -4239 0
4238 -4240 0
4239 -4133 -4136 0
-4239 4133 0
-4239 4136 0
4240 -4132 -4159 0
-4240 4132 0
-4240 4159 0
4241 193 -4242 4273 0
4241 -193 -4242 -4273 0
4241 -193 4242 4272 4273 0
4241 193 -4272 4273 0
4241 -193 -4272 -4273 0
4241 193 4242 4272 -4273 0
-4241 193 -4272 -4273 0
-4241 -193 -4272 4273 0
-4241 193 4242 4272 4273 0
-4241 -193 -4242 4273 0
-4241 193 -4242 -4273 0
-4241 -193 4242 4272 -4273 0
4242 -4243 4244 0
-4242 4243 0
-4242 -4244 0
-4243 4138 4141 0
-4243 4141 4155 0
-4243 4138 4155 0
4243 -4138 -4155 0
4243 -4141 -4155 0
4243 -4138 -4141 0
4244 -4243 -4245 0
-4244 4243 0
-4244 4245 0
4245 -602 -4246 -4271 0
4245 602 4246 -4271 0
4245 -602 4246 4249 4271 0
4245 602 4246 -4249 0
4245 -602 -4246 -4249 0
4245 602 -4246 4249 4271 0
-4245 -602 4246 -4271 0
-4245 602 -4246 -4249 0
-4245 602 4246 4249 4271 0
-4245 -602 4246 -4249 0
-4245 602 -4246 -4271 0
-4245 -602 -4246 4249 4271 0
-4246 1730 4247 4248 0
-4246 1377 4247 4248 0
4246 -4247 0
4246 -4248 0
4246 -1377 -1730 0
-4247 1564 -1591 0
-4247 1381 1382 0
-4247 1382 -1591 0
-4247 1381 1564 0
4247 -1382 -1564 0
4247 -1381 1591 0
4248 -1384 -1737 0
-4248 1384 0
-4248 1737 0
4249 -4250 4253 0
-4249 4250 0
-4249 -4253 0
-4250 4251 4252 0
4250 -4251 0
4250 -4252 0
4251 -4142 -4151 0
-4251 4142 0
-4251 4151 0
4252 -4143 -4149 0
-4252 4143 0
-4252 4149 0
4253 -4250 -4254 0
-4253 4250 0
-4253 4254 0
4254 4255 4266 -4267 0
4254 -4255 4261 4267 0
4254 -4266 4267 0
4254 -4261 4266 -4267 0
-4254 -4255 4261 -4267 0
-4254 4255 4266 4267 0
-4254 -4266 -4267 0
-4254 -4261 4266 4267 0
-4255 4256 4260 0
-4255 -4256 -4260 0
4255 -4256 4260 0
4255 4256 -4260 0
-4256 4257 4259 0
4256 -4257 0
4256 -4259 0
4257 -1279 -4258 0
-4257 1279 0
-4257 4258 0
4258 -202 -351 0
-4258 202 0
-4258 351 0
4259 -4144 -4148 0
-4259 4144 0
-4259 4148 0
-4260 202 351 0
-4260 202 -1275 0
-4260 -202 -351 1275 0
4260 -202 -1275 0
4260 202 -351 1275 0
4260 -202 351 0
4261 -4255 -4262 0
-4261 4255 0
-4261 4262 0
4262 351 -4263 0
4262 -351 4263 0
-4262 -351 -4263 0
-4262 351 4263 0
4263 -4264 0
4263 -1325 -1480 0
-4263 1480 4264 0
-4263 1325 4264 0
-4264 1323 4265 0
-4264 1256 4265 0
4264 -4265 0
4264 -1256 -1323 0
-4265 1267 1373 0
-4265 1271 1322 0
-4265 1322 1373 0
-4265 1267 1271 0
4265 -1271 -1373 0
4265 -1267 -1322 0
4266 -4262 4261 0
-4266 4262 0
-4266 -4261 0
4267 -425 4268 0
4267 425 -4268 0
-4267 425 4268 0
-4267 -425 -4268 0
-4268 1590 4269 4270 0
-4268 1335 4269 4270 0
4268 -4269 0
4268 -4270 0
4268 -1335 -1590 0
-4269 203 1332 0
-4269 -1257 1334 0
-4269 203 -1257 0
-4269 1332 1334 0
4269 -203 -1334 0
4269 1257 -1332 0
4270 -1328 -1621 0
-4270 1328 0
-4270 1621 0
4271 -4254 4253 0
-4271 4254 0
-4271 -4253 0
4272 4243 -4245 0
-4272 -4243 0
-4272 4245 0
-4273 3891 4274 0
-4273 1260 4274 0
4273 -4274 0
4273 -1260 -3891 0
-4274 1258 -1775 0
-4274 1255 -3735 0
-4274 -1775 -3735 0
-4274 1255 1258 0
4274 -1255 1775 0
4274 -1258 3735 0
4275 -3796 -4276 0
-4275 3796 0
-4275 4276 0
-4276 4113 4164 0
4276 -4113 0
4276 -4164 0
-4277 -4278 -4332 0
-4277 4278 4332 0
4277 4278 -4332 0
4277 -4278 4332 0
4278 4279 -4280 0
4278 -4279 4280 0
-4278 -4279 -4280 0
-4278 4279 4280 0
4279 -4167 -4168 0
-4279 4167 0
-4279 4168 0
4280 4281 -4284 0
4280 -4281 4284 0
-4280 -4281 -4284 0
-4280 4281 4284 0
-4281 4282 4283 0
4281 -4282 0
4281 -4283 0
4282 -4173 -4177 0
-4282 4173 0
-4282 4177 0
4283 -4169 -4172 0
-4283 4169 0
-4283 4172 0
4284 4285 -4291 0
4284 -4285 4291 0
-4284 -4285 -4291 0
-4284 4285 4291 0
-4285 2208 3857 4286 4288 0
4285 -4288 0
4285 -2208 0
4285 -4286 0
4285 -3857 0
-4286 1925 4287 0
4286 -1925 0
4286 -4287 0
-4287 2063 2154 2180 0
4287 -2063 0
4287 -2180 0
4287 -2154 0
-4288 3013 3016 3468 4289 0
4288 -4289 0
4288 -3013 0
4288 -3468 0
4288 -3016 0
-4289 2043 2205 3868 4290 0
4289 -2043 0
4289 -4290 0
4289 -3868 0
4289 -2205 0
-4290 1900 1999 2099 0
4290 -1900 0
4290 -2099 0
4290 -1999 0
4291 4292 -4295 0
4291 -4292 4295 0
-4291 -4292 -4295 0
-4291 4292 4295 0
-4292 4293 4294 0
4292 -4293 0
4292 -4294 0
4293 -4182 -4185 0
-4293 4182 0
-4293 4185 0
4294 -4178 -4181 0
-4294 4178 0
-4294 4181 0
4295 4296 -4299 0
4295 -4296 4299 0
-4295 -4296 -4299 0
-4295 4296 4299 0
-4296 4297 4298 0
4296 -4297 0
4296 -4298 0
4297 -4187 -4190 0
-4297 4187 0
-4297 4190 0
4298 -4186 -4214 0
-4298 4186 0
-4298 4214 0
4299 4300 -4329 0
4299 -4300 4329 0
-4299 -4300 -4329 0
-4299 4300 4329 0
4300 4301 -4304 0
4300 -4301 4304 0
-4300 -4301 -4304 0
-4300 4301 4304 0
-4301 4302 4303 0
4301 -4302 0
4301 -4303 0
4302 -4192 -4195 0
-4302 4192 0
-4302 4195 0
4303 -4191 -4210 0
-4303 4191 0
-4303 4210 0
4304 -4305 4325 0
4304 4305 -4325 0
-4304 4305 4325 0
-4304 -4305 -4325 0
4305 4306 -4309 0
4305 -4306 4309 0
-4305 -4306 -4309 0
-4305 4306 4309 0
-4306 4307 4308 0
4306 -4307 0
4306 -4308 0
4307 -4197 -4199 0
-4307 4197 0
-4307 4199 0
4308 -4196 -4206 0
-4308 4196 0
-4308 4206 0
4309 4310 -4321 0
4309 -4310 4321 0
-4309 -4310 -4321 0
-4309 4310 4321 0
4310 4311 -4317 0
4310 -4311 4317 0
-4310 -4311 -4317 0
-4310 4311 4317 0
4311 4312 -4315 0
4311 -4312 4315 0
-4311 -4312 -4315 0
-4311 4312 4315 0
-4312 4313 4314 0
4312 -4313 0
4312 -4314 0
4313 -3255 -4201 0
-4313 3255 0
-4313 4201 0
4314 -4200 -4202 0
-4314 4200 0
-4314 4202 0
4315 3255 -4316 0
4315 -3255 4316 0
-4315 -3255 -4316 0
-4315 3255 4316 0
4316 -2462 3061 0
-4316 2462 0
-4316 -3061 0
4317 -2462 4318 0
4317 2462 -4318 0
-4317 2462 4318 0
-4317 -2462 -4318 0
-4318 3186 4319 4320 0
-4318 3175 4319 4320 0
4318 -4320 0
4318 -4319 0
4318 -3175 -3186 0
4319 -2878 -3335 0
-4319 2878 0
-4319 3335 0
-4320 3261 3224 0
-4320 2881 2882 0
-4320 2882 3224 0
-4320 2881 3261 0
4320 -2882 -3261 0
4320 -2881 -3224 0
4321 -2422 4322 0
4321 2422 -4322 0
-4321 2422 4322 0
-4321 -2422 -4322 0
-4322 2746 4323 4324 0
-4322 3489 4323 4324 0
4322 -4324 0
4322 -4323 0
4322 -2746 -3489 0
4323 -2741 -3519 0
-4323 2741 0
-4323 3519 0
-4324 2745 2815 0
-4324 -3302 3447 0
-4324 2815 3447 0
-4324 2745 -3302 0
4324 -2815 3302 0
4324 -2745 -3447 0
-4325 2395 4326 0
-4325 -2395 -4326 0
4325 -2395 4326 0
4325 2395 -4326 0
-4326 3111 4327 4328 0
-4326 -3488 4327 4328 0
4326 -4328 0
4326 -4327 0
4326 -3111 3488 0
4327 -2996 -3628 0
-4327 2996 0
-4327 3628 0
-4328 3109 3110 0
-4328 3458 3622 0
-4328 3109 3622 0
-4328 3110 3458 0
4328 -3109 -3458 0
4328 -3110 -3622 0
4329 -2359 4330 0
4329 2359 -4330 0
-4329 2359 4330 0
-4329 -2359 -4330 0
-4330 3988 4331 0
-4330 3253 4331 0
4330 -4331 0
4330 -3253 -3988 0
-4331 3325 3327 0
-4331 -3715 -3860 0
-4331 3327 -3860 0
-4331 3325 -3715 0
4331 -3327 3715 0
4331 -3325 3860 0
4332 -3870 -4333 0
-4332 3870 0
-4332 4333 0
-4333 4166 4219 0
4333 -4166 0
4333 -4219 0
-4334 4335 4395 0
-4334 -4335 -4395 0
4334 -4335 4395 0
4334 4335 -4395 0
-4335 -4336 -4393 0
-4335 4336 4393 0
4335 4336 -4393 0
4335 -4336 4393 0
4336 4337 -4338 0
4336 -4337 4338 0
-4336 -4337 -4338 0
-4336 4337 4338 0
4337 -4222 -4223 0
-4337 4222 0
-4337 4223 0
4338 4339 -4342 0
4338 -4339 4342 0
-4338 -4339 -4342 0
-4338 4339 4342 0
-4339 4340 4341 0
4339 -4340 0
4339 -4341 0
4340 -4228 -4233 0
-4340 4228 0
-4340 4233 0
4341 -4224 -4227 0
-4341 4224 0
-4341 4227 0
4342 4343 -4350 0
4342 -4343 4350 0
-4342 -4343 -4350 0
-4342 4343 4350 0
-4343 101 116 310 4344 0
4343 -4344 0
4343 -310 0
4343 -101 0
4343 -116 0
-4344 104 118 241 4345 0
4344 -4345 0
4344 -241 0
4344 -104 0
4344 -118 0
-4345 1584 4346 4349 0
4345 -1584 0
4345 -4346 0
4345 -4349 0
-4346 260 269 586 4347 0
4346 -260 0
4346 -4347 0
4346 -586 0
4346 -269 0
-4347 107 1172 1213 4348 0
4347 -4348 0
4347 -107 0
4347 -1213 0
4347 -1172 0
-4348 224 389 657 0
4348 -224 0
4348 -389 0
4348 -657 0
-4349 148 582 1232 0
4349 -148 0
4349 -582 0
4349 -1232 0
4350 4351 -4354 0
4350 -4351 4354 0
-4350 -4351 -4354 0
-4350 4351 4354 0
-4351 4352 4353 0
4351 -4352 0
4351 -4353 0
4352 -4238 -4241 0
-4352 4238 0
-4352 4241 0
4353 -4234 -4237 0
-4353 4234 0
-4353 4237 0
4354 4355 -4359 0
4354 -4355 4359 0
-4354 -4355 -4359 0
-4354 4355 4359 0
-4355 4244 4356 0
4355 -4244 0
4355 -4356 0
4356 -4357 -4358 0
-4356 4357 0
-4356 4358 0
-4357 4242 4272 0
4357 -4242 0
4357 -4272 0
4358 -193 4273 0
4358 193 -4273 0
-4358 193 4273 0
-4358 -193 -4273 0
4359 4360 -4367 0
4359 -4360 4367 0
-4359 -4360 -4367 0
-4359 4360 4367 0
4360 -4361 4365 0
4360 4361 -4365 0
-4360 4361 4365 0
-4360 -4361 -4365 0
-4361 4253 4362 0
4361 -4253 0
4361 -4362 0
4362 -4363 -4364 0
-4362 4363 0
-4362 4364 0
-4363 602 4246 0
-4363 -602 -4246 0
4363 -602 4246 0
4363 602 -4246 0
-4364 4249 4271 0
4364 -4249 0
4364 -4271 0
-4365 193 4366 0
-4365 -193 -4366 0
4365 -193 4366 0
4365 193 -4366 0
-4366 1260 -3735 0
-4366 1255 -3892 0
-4366 -3735 -3892 0
-4366 1255 1260 0
4366 -1255 3735 0
4366 -1260 3892 0
4367 -602 -4368 -4392 0
4367 602 4368 -4392 0
4367 -602 4368 4371 4392 0
4367 602 4368 -4371 0
4367 -602 -4368 -4371 0
4367 602 -4368 4371 4392 0
-4367 -602 4368 -4392 0
-4367 602 -4368 -4371 0
-4367 602 4368 4371 4392 0
-4367 -602 4368 -4371 0
-4367 602 -4368 -4392 0
-4367 -602 -4368 4371 4392 0
-4368 -1775 4369 4370 0
-4368 1377 4369 4370 0
4368 -4369 0
4368 -4370 0
4368 -1377 1775 0
-4369 1564 1730 0
-4369 1381 1382 0
-4369 1381 1730 0
-4369 1382 1564 0
4369 -1381 -1564 0
4369 -1382 -1730 0
4370 -1384 1787 0
-4370 1384 0
-4370 -1787 0
4371 -4372 4375 0
-4371 4372 0
-4371 -4375 0
-4372 4261 4373 0
4372 -4261 0
4372 -4373 0
4373 -4374 -4267 0
-4373 4374 0
-4373 4267 0
-4374 -4255 -4262 0
-4374 4255 4262 0
4374 4255 -4262 0
4374 -4255 4262 0
4375 -4372 -4376 0
-4375 4372 0
-4375 4376 0
4376 -4377 -4382 -4388 0
4376 -4377 4382 4388 0
4376 -4386 4388 0
4376 4377 4382 -4388 0
-4376 4377 -4382 -4388 0
-4376 4377 4386 4388 0
-4376 -4377 4382 -4388 0
-4376 -4382 4386 4388 0
-4377 4378 4381 0
-4377 -4378 -4381 0
4377 -4378 4381 0
4377 4378 -4381 0
-4378 4379 4380 0
4378 -4379 0
4378 -4380 0
4379 1275 -4258 0
-4379 -1275 0
-4379 4258 0
4380 -4256 -4260 0
-4380 4256 0
-4380 4260 0
-4381 202 351 0
-4381 202 1271 0
-4381 -202 -351 -1271 0
4381 -202 351 0
4381 -202 1271 0
4381 202 -351 -1271 0
4382 351 -4383 0
4382 -351 4383 0
-4382 -351 -4383 0
-4382 351 4383 0
4383 -4384 0
4383 -1325 1470 0
-4383 -1470 4384 0
-4383 1325 4384 0
-4384 -1257 4385 0
-4384 1323 4385 0
4384 -4385 0
4384 1257 -1323 0
-4385 1256 1267 0
-4385 1322 1373 0
-4385 1267 1322 0
-4385 1256 1373 0
4385 -1267 -1373 0
4385 -1256 -1322 0
4386 -4382 4387 0
-4386 4382 0
-4386 -4387 0
4387 -4377 -4382 0
-4387 4377 0
-4387 4382 0
4388 -425 4389 0
4388 425 -4389 0
-4388 425 4389 0
-4388 -425 -4389 0
-4389 -1591 4390 4391 0
-4389 1335 4390 4391 0
4389 -4390 0
4389 -4391 0
4389 -1335 1591 0
-4390 203 1590 0
-4390 1332 1334 0
-4390 1332 1590 0
-4390 203 1334 0
4390 -203 -1332 0
4390 -1334 -1590 0
4391 -1328 1614 0
-4391 1328 0
-4391 -1614 0
4392 -4376 4375 0
-4392 4376 0
-4392 -4375 0
4393 -3796 -4394 0
-4393 3796 0
-4393 4394 0
-4394 4221 4276 0
4394 -4221 0
4394 -4276 0
-4395 -4396 -4450 0
-4395 4396 4450 0
4395 4396 -4450 0
4395 -4396 4450 0
4396 4397 -4398 0
4396 -4397 4398 0
-4396 -4397 -4398 0
-4396 4397 4398 0
4397 -4279 -4280 0
-4397 4279 0
-4397 4280 0
4398 4399 -4402 0
4398 -4399 4402 0
-4398 -4399 -4402 0
-4398 4399 4402 0
-4399 4400 4401 0
4399 -4400 0
4399 -4401 0
4400 -4285 -4291 0
-4400 4285 0
-4400 4291 0
4401 -4281 -4284 0
-4401 4281 0
-4401 4284 0
4402 4403 -4410 0
4402 -4403 4410 0
-4402 -4403 -4410 0
-4402 4403 4410 0
-4403 1992 4404 4407 4409 0
4403 -4409 0
4403 -1992 0
4403 -4407 0
4403 -4404 0
-4404 1955 2147 4405 4406 0
4404 -4406 0
4404 -1955 0
4404 -4405 0
4404 -2147 0
-4405 1971 2182 2959 3013 0
4405 -1971 0
4405 -3013 0
4405 -2959 0
4405 -2182 0
-4406 2343 2761 3859 0
4406 -2343 0
4406 -2761 0
4406 -3859 0
-4407 2294 2373 2387 4408 0
4407 -2294 0
4407 -4408 0
4407 -2387 0
4407 -2373 0
-4408 1949 2691 0
4408 -1949 0
4408 -2691 0
-4409 1844 1952 3482 0
4409 -3482 0
4409 -1952 0
4409 -1844 0
4410 4411 -4414 0
4410 -4411 4414 0
-4410 -4411 -4414 0
-4410 4411 4414 0
-4411 4412 4413 0
4411 -4412 0
4411 -4413 0
4412 -4296 -4299 0
-4412 4296 0
-4412 4299 0
4413 -4292 -4295 0
-4413 4292 0
-4413 4295 0
4414 4415 -4418 0
4414 -4415 4418 0
-4414 -4415 -4418 0
-4414 4415 4418 0
-4415 4416 4417 0
4415 -4416 0
4415 -4417 0
4416 -4301 -4304 0
-4416 4301 0
-4416 4304 0
4417 -4300 -4329 0
-4417 4300 0
-4417 4329 0
4418 4419 -4425 0
4418 -4419 4425 0
-4418 -4419 -4425 0
-4418 4419 4425 0
4419 -4420 4423 0
4419 4420 -4423 0
-4419 4420 4423 0
-4419 -4420 -4423 0
-4420 4421 4422 0
4420 -4421 0
4420 -4422 0
4421 -4306 -4309 0
-4421 4306 0
-4421 4309 0
4422 -4305 -4325 0
-4422 4305 0
-4422 4325 0
-4423 2359 4424 0
-4423 -2359 -4424 0
4423 -2359 4424 0
4423 2359 -4424 0
-4424 3253 3327 0
-4424 -3860 -4111 0
-4424 3327 -4111 0
-4424 3253 -3860 0
4424 -3253 4111 0
4424 -3327 3860 0
4425 -4426 4446 0
4425 4426 -4446 0
-4425 4426 4446 0
-4425 -4426 -4446 0
4426 4427 -4430 0
4426 -4427 4430 0
-4426 -4427 -4430 0
-4426 4427 4430 0
-4427 4428 4429 0
4427 -4428 0
4427 -4429 0
4428 -4311 -4317 0
-4428 4311 0
-4428 4317 0
4429 -4310 -4321 0
-4429 4310 0
-4429 4321 0
4430 4431 -4442 0
4430 -4431 4442 0
-4430 -4431 -4442 0
-4430 4431 4442 0
4431 4432 -4438 0
4431 -4432 4438 0
-4431 -4432 -4438 0
-4431 4432 4438 0
4432 4433 -4436 0
4432 -4433 4436 0
-4432 -4433 -4436 0
-4432 4433 4436 0
-4433 4434 4435 0
4433 -4434 0
4433 -4435 0
4434 -3255 -4316 0
-4434 3255 0
-4434 4316 0
4435 -4312 -4315 0
-4435 4312 0
-4435 4315 0
4436 3255 -4437 0
4436 -3255 4437 0
-4436 -3255 -4437 0
-4436 3255 4437 0
4437 -2462 -3186 0
-4437 2462 0
-4437 3186 0
4438 -2462 4439 0
4438 2462 -4439 0
-4438 2462 4439 0
-4438 -2462 -4439 0
-4439 3224 4440 4441 0
-4439 3175 4440 4441 0
4439 -4441 0
4439 -4440 0
4439 -3175 -3224 0
4440 -2878 3258 0
-4440 2878 0
-4440 -3258 0
-4441 3261 -3302 0
-4441 2881 2882 0
-4441 2881 -3302 0
-4441 2882 3261 0
4441 -2881 -3261 0
4441 -2882 3302 0
4442 -2422 4443 0
4442 2422 -4443 0
-4442 2422 4443 0
-4442 -2422 -4443 0
-4443 2746 4444 4445 0
-4443 -3488 4444 4445 0
4443 -4445 0
4443 -4444 0
4443 -2746 3488 0
4444 -2741 3510 0
-4444 2741 0
-4444 -3510 0
-4445 2745 2815 0
-4445 3447 3489 0
-4445 2815 3489 0
-4445 2745 3447 0
4445 -2815 -3447 0
4445 -2745 -3489 0
-4446 2395 4447 0
-4446 -2395 -4447 0
4446 -2395 4447 0
4446 2395 -4447 0
-4447 3111 4448 4449 0
-4447 3458 4448 4449 0
4447 -4449 0
4447 -4448 0
4447 -3111 -3458 0
4448 -2996 3702 0
-4448 2996 0
-4448 -3702 0
-4449 3109 3110 0
-4449 3622 -3715 0
-4449 3109 -3715 0
-4449 3110 3622 0
4449 -3109 -3622 0
4449 -3110 3715 0
4450 -3870 -4451 0
-4450 3870 0
-4450 4451 0
-4451 4278 4333 0
4451 -4278 0
4451 -4333 0
-4452 -4453 -4503 0
-4452 4453 4503 0
4452 4453 -4503 0
4452 -4453 4503 0
4453 4454 -4455 0
4453 -4454 4455 0
-4453 -4454 -4455 0
-4453 4454 4455 0
4454 -4337 -4338 0
-4454 4337 0
-4454 4338 0
4455 4456 -4459 0
4455 -4456 4459 0
-4455 -4456 -4459 0
-4455 4456 4459 0
-4456 4457 4458 0
4456 -4457 0
4456 -4458 0
4457 -4343 -4350 0
-4457 4343 0
-4457 4350 0
4458 -4339 -4342 0
-4458 4339 0
-4458 4342 0
4459 -4460 4498 0
4459 4460 -4498 0
-4459 4460 4498 0
-4459 -4460 -4498 0
4460 -4461 4495 0
4460 4461 -4495 0
-4460 4461 4495 0
-4460 -4461 -4495 0
-4461 4462 4465 0
-4461 -4462 -4465 0
4461 -4462 4465 0
4461 4462 -4465 0
-4462 4463 4464 0
4462 -4463 0
4462 -4464 0
4463 -4361 -4365 0
-4463 4361 0
-4463 4365 0
4464 -4360 -4367 0
-4464 4360 0
-4464 4367 0
-4465 4466 4475 0
-4465 -4466 -4475 0
4465 -4466 4475 0
4465 4466 -4475 0
4466 4467 -4471 0
4466 -4467 4471 0
-4466 -4467 -4471 0
-4466 4467 4471 0
-4467 4375 4468 0
4467 -4375 0
4467 -4468 0
4468 -4469 -4470 0
-4468 4469 0
-4468 4470 0
-4469 602 4368 0
-4469 -602 -4368 0
4469 -602 4368 0
4469 602 -4368 0
-4470 4371 4392 0
4470 -4371 0
4470 -4392 0
4471 602 -4472 0
4471 -602 4472 0
-4471 -602 -4472 0
-4471 602 4472 0
4472 -4473 0
4472 -1384 -3746 0
-4472 3746 4473 0
-4472 1384 4473 0
-4473 -3735 4474 0
-4473 1377 4474 0
4473 -4474 0
4473 -1377 3735 0
-4474 1381 1382 0
-4474 1730 -1775 0
-4474 1382 1730 0
-4474 1381 -1775 0
4474 -1381 -1730 0
4474 -1382 1775 0
-4475 4476 4478 0
-4475 -4476 -4478 0
4475 -4476 4478 0
4475 4476 -4478 0
-4476 4387 4477 0
4476 -4387 0
4476 -4477 0
4477 4377 -4382 -4388 0
4477 -4377 4382 -4388 0
-4477 4388 0
-4477 4377 4382 0
-4477 -4377 -4382 0
-4478 -4479 -4491 0
-4478 4479 4491 0
4478 4479 -4491 0
4478 -4479 4491 0
-4479 4480 4483 0
-4479 -4480 -4483 0
4479 -4480 4483 0
4479 4480 -4483 0
-4480 4481 4482 0
4480 -4481 0
4480 -4482 0
4481 -1271 -4258 0
-4481 1271 0
-4481 4258 0
4482 -4378 -4381 0
-4482 4378 0
-4482 4381 0
-4483 -4484 -4488 0
-4483 4484 4488 0
4483 4484 -4488 0
4483 -4484 4488 0
-4484 351 4485 0
-4484 -351 -4485 0
4484 -351 4485 0
4484 351 -4485 0
-4485 203 4486 4487 0
-4485 1323 4486 4487 0
4485 -4486 0
4485 -4487 0
4485 -203 -1323 0
-4486 1256 1322 0
-4486 -1257 1373 0
-4486 1256 -1257 0
-4486 1322 1373 0
4486 -1256 -1373 0
4486 1257 -1322 0
4487 1261 -1325 0
-4487 -1261 0
-4487 1325 0
4488 4489 -4490 0
4488 -4489 4490 0
-4488 -4489 -4490 0
-4488 4489 4490 0
4489 -351 -1267 0
-4489 351 0
-4489 1267 0
4490 -193 202 0
4490 193 -202 0
-4490 193 202 0
-4490 -193 -202 0
4491 425 -4492 0
4491 -425 4492 0
-4491 -425 -4492 0
-4491 425 4492 0
4492 -4493 0
4492 -1328 1593 0
-4492 -1593 4493 0
-4492 1328 4493 0
-4493 1564 4494 0
-4493 1335 4494 0
4493 -4494 0
4493 -1335 -1564 0
-4494 1590 -1591 0
-4494 1332 1334 0
-4494 1332 -1591 0
-4494 1334 1590 0
4494 -1332 -1590 0
4494 -1334 1591 0
-4495 4496 4497 0
4495 -4496 0
4495 -4497 0
4496 -4355 -4359 0
-4496 4355 0
-4496 4359 0
4497 -4351 -4354 0
-4497 4351 0
-4497 4354 0
-4498 115 304 4499 4500 0
4498 -115 0
4498 -4500 0
4498 -4499 0
4498 -304 0
-4499 250 339 0
4499 -250 0
4499 -339 0
-4500 86 139 159 4501 0
4500 -4501 0
4500 -159 0
4500 -86 0
4500 -139 0
-4501 77 504 4346 4502 0
4501 -77 0
4501 -4502 0
4501 -4346 0
4501 -504 0
-4502 564 1140 4232 0
4502 -564 0
4502 -1140 0
4502 -4232 0
4503 -3796 -4504 0
-4503 3796 0
-4503 4504 0
-4504 4336 4394 0
4504 -4336 0
4504 -4394 0
-4505 -4506 -4555 0
-4505 4506 4555 0
4505 4506 -4555 0
4505 -4506 4555 0
4506 4507 -4508 0
4506 -4507 4508 0
-4506 -4507 -4508 0
-4506 4507 4508 0
4507 -4397 -4398 0
-4507 4397 0
-4507 4398 0
4508 4509 -4512 0
4508 -4509 4512 0
-4508 -4509 -4512 0
-4508 4509 4512 0
-4509 4510 4511 0
4509 -4510 0
4509 -4511 0
4510 -4403 -4410 0
-4510 4403 0
-4510 4410 0
4511 -4399 -4402 0
-4511 4399 0
-4511 4402 0
4512 -4513 4551 0
4512 4513 -4551 0
-4512 4513 4551 0
-4512 -4513 -4551 0
4513 4514 -4517 0
4513 -4514 4517 0
-4513 -4514 -4517 0
-4513 4514 4517 0
-4514 4515 4516 0
4514 -4515 0
4514 -4516 0
4515 -4415 -4418 0
-4515 4415 0
-4515 4418 0
4516 -4411 -4414 0
-4516 4411 0
-4516 4414 0
4517 4518 -4521 0
4517 -4518 4521 0
-4517 -4518 -4521 0
-4517 4518 4521 0
-4518 4519 4520 0
4518 -4519 0
4518 -4520 0
4519 -4420 -4423 0
-4519 4420 0
-4519 4423 0
4520 -4419 -4425 0
-4520 4419 0
-4520 4425 0
4521 4522 -4530 0
4521 -4522 4530 0
-4521 -4522 -4530 0
-4521 4522 4530 0
4522 4523 -4526 0
4522 -4523 4526 0
-4522 -4523 -4526 0
-4522 4523 4526 0
-4523 4524 4525 0
4523 -4524 0
4523 -4525 0
4524 -4427 -4430 0
-4524 4427 0
-4524 4430 0
4525 -4426 -4446 0
-4525 4426 0
-4525 4446 0
4526 -2395 4527 0
4526 2395 -4527 0
-4526 2395 4527 0
-4526 -2395 -4527 0
-4527 3109 4528 4529 0
-4527 -3715 4528 4529 0
4527 -4529 0
4527 -4528 0
4527 -3109 3715 0
4528 -2996 -3848 0
-4528 2996 0
-4528 3848 0
-4529 3110 3111 0
-4529 3622 -3860 0
-4529 3111 -3860 0
-4529 3110 3622 0
4529 -3111 -3622 0
4529 -3110 3860 0
4530 4531 -4534 0
4530 -4531 4534 0
-4530 -4531 -4534 0
-4530 4531 4534 0
-4531 4532 4533 0
4531 -4532 0
4531 -4533 0
4532 -4432 -4438 0
-4532 4432 0
-4532 4438 0
4533 -4431 -4442 0
-4533 4431 0
-4533 4442 0
4534 4535 -4547 0
4534 -4535 4547 0
-4534 -4535 -4547 0
-4534 4535 4547 0
4535 4536 -4539 0
4535 -4536 4539 0
-4535 -4536 -4539 0
-4535 4536 4539 0
-4536 4537 4538 0
4536 -4537 0
4536 -4538 0
4537 -3255 -4437 0
-4537 3255 0
-4537 4437 0
4538 -4433 -4436 0
-4538 4433 0
-4538 4436 0
4539 4540 -4543 0
4539 -4540 4543 0
-4539 -4540 -4543 0
-4539 4540 4543 0
4540 4541 -4542 0
4540 -4541 4542 0
-4540 -4541 -4542 0
-4540 4541 4542 0
4541 -2462 -3224 0
-4541 2462 0
-4541 3224 0
4542 -2359 3255 0
4542 2359 -3255 0
-4542 2359 3255 0
-4542 -2359 -3255 0
4543 -2462 4544 0
4543 2462 -4544 0
-4543 2462 4544 0
-4543 -2462 -4544 0
-4544 2881 4545 4546 0
-4544 -3302 4545 4546 0
4544 -4546 0
4544 -4545 0
4544 -2881 3302 0
4545 -2878 3442 0
-4545 2878 0
-4545 -3442 0
-4546 3261 3447 0
-4546 2882 3175 0
-4546 3175 3447 0
-4546 2882 3261 0
4546 -3175 -3261 0
4546 -2882 -3447 0
4547 -2422 4548 0
4547 2422 -4548 0
-4547 2422 4548 0
-4547 -2422 -4548 0
-4548 2746 4549 4550 0
-4548 3458 4549 4550 0
4548 -4550 0
4548 -4549 0
4548 -2746 -3458 0
4549 -2741 3485 0
-4549 2741 0
-4549 -3485 0
-4550 2745 2815 0
-4550 -3488 3489 0
-4550 2745 3489 0
-4550 2815 -3488 0
4550 -2745 3488 0
4550 -2815 -3489 0
-4551 2074 3067 4404 4552 0
4551 -4552 0
4551 -2074 0
4551 -4404 0
4551 -3067 0
-4552 1988 2048 4553 4554 0
4552 -1988 0
4552 -4554 0
4552 -4553 0
4552 -2048 0
-4553 1904 1912 2009 2252 0
4553 -2252 0
4553 -2009 0
4553 -1904 0
4553 -1912 0
-4554 1961 2333 4287 0
4554 -4287 0
4554 -2333 0
4554 -1961 0
4555 -3870 -4556 0
-4555 3870 0
-4555 4556 0
-4556 4396 4451 0
4556 -4396 0
4556 -4451 0
-4557 4558 4607 0
-4557 -4558 -4607 0
4557 -4558 4607 0
4557 4558 -4607 0
-4558 -4559 -4605 0
-4558 4559 4605 0
4558 4559 -4605 0
4558 -4559 4605 0
4559 4560 -4561 0
4559 -4560 4561 0
-4559 -4560 -4561 0
-4559 4560 4561 0
4560 -4454 -4455 0
-4560 4454 0
-4560 4455 0
4561 4562 -4565 0
4561 -4562 4565 0
-4561 -4562 -4565 0
-4561 4562 4565 0
-4562 4563 4564 0
4562 -4563 0
4562 -4564 0
4563 -4460 -4498 0
-4563 4460 0
-4563 4498 0
4564 -4456 -4459 0
-4564 4456 0
-4564 4459 0
4565 4566 -4573 0
4565 -4566 4573 0
-4565 -4566 -4573 0
-4565 4566 4573 0
-4566 167 231 321 4567 0
4566 -4567 0
4566 -321 0
4566 -167 0
4566 -231 0
-4567 146 185 265 4568 0
4567 -4568 0
4567 -265 0
4567 -146 0
4567 -185 0
-4568 291 1754 4569 4572 0
4568 -291 0
4568 -4572 0
4568 -4569 0
4568 -1754 0
-4569 54 149 307 4570 0
4569 -4570 0
4569 -307 0
4569 -54 0
4569 -149 0
-4570 113 160 168 4571 0
4570 -4571 0
4570 -168 0
4570 -113 0
4570 -160 0
-4571 79 163 410 1092 0
4571 -1092 0
4571 -79 0
4571 -410 0
4571 -163 0
-4572 576 584 1173 0
4572 -576 0
4572 -584 0
4572 -1173 0
4573 4574 -4576 0
4573 -4574 4576 0
-4573 -4574 -4576 0
-4573 4574 4576 0
-4574 4462 4575 0
-4574 4465 4575 0
4574 -4575 0
4574 -4462 -4465 0
4575 -4461 -4495 0
-4575 4461 0
-4575 4495 0
4576 4577 -4580 0
4576 -4577 4580 0
-4576 -4577 -4580 0
-4576 4577 4580 0
-4577 4578 4579 0
4577 -4578 0
4577 -4579 0
4578 -4467 -4471 0
-4578 4467 0
-4578 4471 0
4579 -4466 -4475 0
-4579 4466 0
-4579 4475 0
4580 4581 -4584 0
4580 -4581 4584 0
-4580 -4581 -4584 0
-4580 4581 4584 0
-4581 602 4582 0
-4581 -602 -4582 0
4581 -602 4582 0
4581 602 -4582 0
-4582 3891 4583 0
-4582 1384 4583 0
4582 -4583 0
4582 -1384 -3891 0
-4583 1382 -1775 0
-4583 1381 -3735 0
-4583 -1775 -3735 0
-4583 1381 1382 0
4583 -1381 1775 0
4583 -1382 3735 0
4584 4585 -4588 0
4584 -4585 4588 0
-4584 -4585 -4588 0
-4584 4585 4588 0
-4585 4586 4587 0
4585 -4586 0
4585 -4587 0
4586 -4479 -4491 0
-4586 4479 0
-4586 4491 0
4587 -4476 -4478 0
-4587 4476 0
-4587 4478 0
4588 -4589 4600 4601 0
4588 4589 4591 -4601 0
4588 -4589 -4591 -4601 0
4588 -4591 4600 4601 0
-4588 -4589 4591 -4601 0
-4588 4589 -4591 -4601 0
-4588 -4600 4601 0
-4588 4589 4591 4601 0
-4589 4480 4590 0
-4589 4590 4483 0
4589 -4590 0
4589 -4480 -4483 0
4590 -4484 -4488 0
-4590 4484 0
-4590 4488 0
4591 4592 -4596 0
4591 -4592 4596 0
-4591 -4592 -4596 0
-4591 4592 4596 0
-4592 -4593 -4594 0
-4592 4593 4594 0
4592 4593 -4594 0
4592 -4593 4594 0
4593 -351 -1256 0
-4593 351 0
-4593 1256 0
4594 -193 4595 0
4594 -202 4595 0
-4594 -4595 0
-4594 193 202 0
4595 -4489 -4490 0
-4595 4489 0
-4595 4490 0
4596 351 -4597 0
4596 -351 4597 0
-4596 -351 -4597 0
-4596 351 4597 0
4597 -4598 0
4597 -1325 -1621 0
-4597 1621 4598 0
-4597 1325 4598 0
-4598 1590 4599 0
-4598 1323 4599 0
4598 -4599 0
4598 -1323 -1590 0
-4599 -1257 1322 0
-4599 203 1373 0
-4599 203 -1257 0
-4599 1322 1373 0
4599 1257 -1373 0
4599 -203 -1322 0
4600 -4589 -4591 0
-4600 4589 0
-4600 4591 0
4601 -425 4602 0
4601 425 -4602 0
-4601 425 4602 0
-4601 -425 -4602 0
-4602 1730 4603 4604 0
-4602 1335 4603 4604 0
4602 -4603 0
4602 -4604 0
4602 -1335 -1730 0
-4603 1564 -1591 0
-4603 1332 1334 0
-4603 1334 -1591 0
-4603 1332 1564 0
4603 -1334 -1564 0
4603 -1332 1591 0
4604 -1328 -1737 0
-4604 1328 0
-4604 1737 0
4605 -3796 -4606 0
-4605 3796 0
-4605 4606 0
-4606 4453 4504 0
4606 -4453 0
4606 -4504 0
-4607 -4608 -4656 0
-4607 4608 4656 0
4607 4608 -4656 0
4607 -4608 4656 0
4608 4609 -4610 0
4608 -4609 4610 0
-4608 -4609 -4610 0
-4608 4609 4610 0
4609 -4507 -4508 0
-4609 4507 0
-4609 4508 0
4610 4611 -4614 0
4610 -4611 4614 0
-4610 -4611 -4614 0
-4610 4611 4614 0
-4611 4612 4613 0
4611 -4612 0
4611 -4613 0
4612 -4513 -4551 0
-4612 4513 0
-4612 4551 0
4613 -4509 -4512 0
-4613 4509 0
-4613 4512 0
4614 4615 -4622 0
4614 -4615 4622 0
-4614 -4615 -4622 0
-4614 4615 4622 0
-4615 2089 4616 4617 4618 0
4615 -2089 0
4615 -4618 0
4615 -4617 0
4615 -4616 0
-4616 1982 2122 2312 2372 0
4616 -1982 0
4616 -2372 0
4616 -2312 0
4616 -2122 0
-4617 1986 2015 2376 2958 0
4617 -1986 0
4617 -2958 0
4617 -2376 0
4617 -2015 0
-4618 3648 4619 0
4618 -3648 0
4618 -4619 0
-4619 1945 2080 4620 4621 0
4619 -4621 0
4619 -1945 0
4619 -4620 0
4619 -2080 0
-4620 1933 2004 2019 2179 0
4620 -2179 0
4620 -2019 0
4620 -1933 0
4620 -2004 0
-4621 1943 2053 3072 0
4621 -3072 0
4621 -2053 0
4621 -1943 0
4622 4623 -4626 0
4622 -4623 4626 0
-4622 -4623 -4626 0
-4622 4623 4626 0
-4623 4624 4625 0
4623 -4624 0
4623 -4625 0
4624 -4518 -4521 0
-4624 4518 0
-4624 4521 0
4625 -4514 -4517 0
-4625 4514 0
-4625 4517 0
4626 4627 -4630 0
4626 -4627 4630 0
-4626 -4627 -4630 0
-4626 4627 4630 0
-4627 4628 4629 0
4627 -4628 0
4627 -4629 0
4628 -4523 -4526 0
-4628 4523 0
-4628 4526 0
4629 -4522 -4530 0
-4629 4522 0
-4629 4530 0
4630 4631 -4653 0
4630 -4631 4653 0
-4630 -4631 -4653 0
-4630 4631 4653 0
4631 4632 -4635 0
4631 -4632 4635 0
-4631 -4632 -4635 0
-4631 4632 4635 0
-4632 4633 4634 0
4632 -4633 0
4632 -4634 0
4633 -4535 -4547 0
-4633 4535 0
-4633 4547 0
4634 -4531 -4534 0
-4634 4531 0
-4634 4534 0
4635 -4636 4649 0
4635 4636 -4649 0
-4635 4636 4649 0
-4635 -4636 -4649 0
4636 4637 -4640 0
4636 -4637 4640 0
-4636 -4637 -4640 0
-4636 4637 4640 0
-4637 4638 4639 0
4637 -4638 0
4637 -4639 0
4638 -4540 -4543 0
-4638 4540 0
-4638 4543 0
4639 -4536 -4539 0
-4639 4536 0
-4639 4539 0
4640 4641 -4645 0
4640 -4641 4645 0
-4640 -4641 -4645 0
-4640 4641 4645 0
4641 4642 -4643 0
4641 -4642 4643 0
-4641 -4642 -4643 0
-4641 4642 4643 0
4642 -2462 -3261 0
-4642 2462 0
-4642 3261 0
4643 -2359 4644 0
4643 -3255 4644 0
-4643 -4644 0
-4643 2359 3255 0
4644 -4541 -4542 0
-4644 4541 0
-4644 4542 0
4645 -2462 4646 0
4645 2462 -4646 0
-4645 2462 4646 0
-4645 -2462 -4646 0
-4646 2882 4647 4648 0
-4646 3489 4647 4648 0
4646 -4648 0
4646 -4647 0
4646 -2882 -3489 0
4647 -2878 -3519 0
-4647 2878 0
-4647 3519 0
-4648 2881 3175 0
-4648 -3302 3447 0
-4648 3175 3447 0
-4648 2881 -3302 0
4648 -3175 3302 0
4648 -2881 -3447 0
-4649 2422 4650 0
-4649 -2422 -4650 0
4649 -2422 4650 0
4649 2422 -4650 0
-4650 2815 4651 4652 0
-4650 -3488 4651 4652 0
4650 -4652 0
4650 -4651 0
4650 -2815 3488 0
4651 -2741 -3628 0
-4651 2741 0
-4651 3628 0
-4652 2745 2746 0
-4652 3458 3622 0
-4652 2745 3622 0
-4652 2746 3458 0
4652 -2745 -3458 0
4652 -2746 -3622 0
4653 -2395 4654 0
4653 2395 -4654 0
-4653 2395 4654 0
-4653 -2395 -4654 0
-4654 3988 4655 0
-4654 2996 4655 0
4654 -4655 0
4654 -2996 -3988 0
-4655 3109 3111 0
-4655 -3715 -3860 0
-4655 3111 -3860 0
-4655 3109 -3715 0
4655 -3111 3715 0
4655 -3109 3860 0
4656 -3870 -4657 0
-4656 3870 0
-4656 4657 0
-4657 4506 4556 0
4657 -4506 0
4657 -4556 0
-4658 -4659 -4699 0
-4658 4659 4699 0
4658 4659 -4699 0
4658 -4659 4699 0
4659 4660 -4661 0
4659 -4660 4661 0
-4659 -4660 -4661 0
-4659 4660 4661 0
4660 -4560 -4561 0
-4660 4560 0
-4660 4561 0
4661 4662 -4665 0
4661 -4662 4665 0
-4661 -4662 -4665 0
-4661 4662 4665 0
-4662 4663 4664 0
4662 -4663 0
4662 -4664 0
4663 -4566 -4573 0
-4663 4566 0
-4663 4573 0
4664 -4562 -4565 0
-4664 4562 0
-4664 4565 0
4665 4666 -4670 0
4665 -4666 4670 0
-4665 -4666 -4670 0
-4665 4666 4670 0
-4666 156 175 259 4667 0
4666 -4667 0
4666 -259 0
4666 -156 0
4666 -175 0
-4667 83 168 232 4668 0
4667 -4668 0
4667 -232 0
4667 -83 0
4667 -168 0
-4668 241 1210 1584 4669 0
4668 -241 0
4668 -4669 0
4668 -1584 0
4668 -1210 0
-4669 111 479 504 1581 0
4669 -1581 0
4669 -111 0
4669 -504 0
4669 -479 0
4670 -4671 4696 0
4670 4671 -4696 0
-4670 4671 4696 0
-4670 -4671 -4696 0
-4671 4672 4675 0
-4671 -4672 -4675 0
4671 -4672 4675 0
4671 4672 -4675 0
-4672 4673 4674 0
4672 -4673 0
4672 -4674 0
4673 -4585 -4588 0
-4673 4585 0
-4673 4588 0
4674 -4581 -4584 0
-4674 4581 0
-4674 4584 0
-4675 -4676 -4691 0
-4675 4676 4691 0
4675 4676 -4691 0
4675 -4676 4691 0
-4676 -4677 -4687 0
-4676 4677 4687 0
4676 4677 -4687 0
4676 -4677 4687 0
-4677 -4678 -4681 0
-4677 4678 4681 0
4677 4678 -4681 0
4677 -4678 4681 0
4678 -4679 4680 0
-4678 4679 0
-4678 -4680 0
-4679 4593 4594 0
4679 -4593 0
4679 -4594 0
4680 -4592 -4596 0
-4680 4592 0
-4680 4596 0
4681 4682 -4686 0
4681 -4682 4686 0
-4681 -4682 -4686 0
-4681 4682 4686 0
-4682 351 4683 0
-4682 -351 -4683 0
4682 -351 4683 0
4682 351 -4683 0
-4683 -1591 4684 4685 0
-4683 1323 4684 4685 0
4683 -4684 0
4683 -4685 0
4683 -1323 1591 0
-4684 203 1590 0
-4684 1322 1373 0
-4684 1373 1590 0
-4684 203 1322 0
4684 -1322 -1590 0
4684 -203 -1373 0
4685 -1325 1614 0
-4685 1325 0
-4685 -1614 0
4686 -351 1307 0
-4686 351 0
-4686 -1307 0
4687 -425 4688 0
4687 425 -4688 0
-4687 425 4688 0
-4687 -425 -4688 0
-4688 -1775 4689 4690 0
-4688 1335 4689 4690 0
4688 -4689 0
4688 -4690 0
4688 -1335 1775 0
-4689 1564 1730 0
-4689 1332 1334 0
-4689 1332 1730 0
-4689 1334 1564 0
4689 -1332 -1564 0
4689 -1334 -1730 0
4690 -1328 1787 0
-4690 1328 0
-4690 -1787 0
4691 -4692 4694 0
4691 4692 -4694 0
-4691 4692 4694 0
-4691 -4692 -4694 0
-4692 4600 4693 0
4692 -4600 0
4692 -4693 0
4693 4589 -4591 -4601 0
4693 -4589 4591 -4601 0
-4693 4601 0
-4693 4589 4591 0
-4693 -4589 -4591 0
-4694 602 4695 0
-4694 -602 -4695 0
4694 -602 4695 0
4694 602 -4695 0
-4695 1384 -3735 0
-4695 1381 -3892 0
-4695 -3735 -3892 0
-4695 1381 1384 0
4695 -1381 3735 0
4695 -1384 3892 0
-4696 4697 4698 0
4696 -4697 0
4696 -4698 0
4697 -4577 -4580 0
-4697 4577 0
-4697 4580 0
4698 -4574 -4576 0
-4698 4574 0
-4698 4576 0
4699 -3796 -4700 0
-4699 3796 0
-4699 4700 0
-4700 4559 4606 0
4700 -4559 0
4700 -4606 0
-4701 -4702 -4743 0
-4701 4702 4743 0
4701 4702 -4743 0
4701 -4702 4743 0
4702 4703 -4704 0
4702 -4703 4704 0
-4702 -4703 -4704 0
-4702 4703 4704 0
4703 -4609 -4610 0
-4703 4609 0
-4703 4610 0
4704 4705 -4708 0
4704 -4705 4708 0
-4704 -4705 -4708 0
-4704 4705 4708 0
-4705 4706 4707 0
4705 -4706 0
4705 -4707 0
4706 -4615 -4622 0
-4706 4615 0
-4706 4622 0
4707 -4611 -4614 0
-4707 4611 0
-4707 4614 0
4708 4709 -4714 0
4708 -4709 4714 0
-4708 -4709 -4714 0
-4708 4709 4714 0
-4709 1842 2756 4710 4711 0
4709 -4711 0
4709 -1842 0
4709 -4710 0
4709 -2756 0
-4710 2081 2281 0
4710 -2081 0
4710 -2281 0
-4711 2008 2294 3473 4712 0
4711 -2008 0
4711 -4712 0
4711 -3473 0
4711 -2294 0
-4712 2018 2166 2333 4713 0
4712 -2018 0
4712 -4713 0
4712 -2333 0
4712 -2166 0
-4713 1963 1996 2181 0
4713 -1963 0
4713 -2181 0
4713 -1996 0
4714 4715 -4718 0
4714 -4715 4718 0
-4714 -4715 -4718 0
-4714 4715 4718 0
-4715 4716 4717 0
4715 -4716 0
4715 -4717 0
4716 -4627 -4630 0
-4716 4627 0
-4716 4630 0
4717 -4623 -4626 0
-4717 4623 0
-4717 4626 0
4718 4719 -4722 0
4718 -4719 4722 0
-4718 -4719 -4722 0
-4718 4719 4722 0
-4719 4720 4721 0
4719 -4720 0
4719 -4721 0
4720 -4632 -4635 0
-4720 4632 0
-4720 4635 0
4721 -4631 -4653 0
-4721 4631 0
-4721 4653 0
4722 4723 -4729 0
4722 -4723 4729 0
-4722 -4723 -4729 0
-4722 4723 4729 0
4723 -4724 4727 0
4723 4724 -4727 0
-4723 4724 4727 0
-4723 -4724 -4727 0
-4724 4725 4726 0
4724 -4725 0
4724 -4726 0
4725 -4637 -4640 0
-4725 4637 0
-4725 4640 0
4726 -4636 -4649 0
-4726 4636 0
-4726 4649 0
-4727 2395 4728 0
-4727 -2395 -4728 0
4727 -2395 4728 0
4727 2395 -4728 0
-4728 2996 3111 0
-4728 -3860 -4111 0
-4728 3111 -4111 0
-4728 2996 -3860 0
4728 -2996 4111 0
4728 -3111 3860 0
4729 4730 -4739 0
4729 -4730 4739 0
-4729 -4730 -4739 0
-4729 4730 4739 0
4730 4731 -4734 0
4730 -4731 4734 0
-4730 -4731 -4734 0
-4730 4731 4734 0
4731 -4732 4733 0
-4731 4732 0
-4731 -4733 0
-4732 4642 4643 0
4732 -4642 0
4732 -4643 0
4733 -4641 -4645 0
-4733 4641 0
-4733 4645 0
4734 4735 -4738 0
4734 -4735 4738 0
-4734 -4735 -4738 0
-4734 4735 4738 0
-4735 2882 4736 4737 0
-4735 -3488 4736 4737 0
4735 -4737 0
4735 -4736 0
4735 -2882 3488 0
4736 -2878 3510 0
-4736 2878 0
-4736 -3510 0
-4737 2881 3175 0
-4737 3447 3489 0
-4737 3175 3489 0
-4737 2881 3447 0
4737 -3175 -3447 0
4737 -2881 -3489 0
4738 -2462 -3301 0
-4738 2462 0
-4738 3301 0
4739 -2422 4740 0
4739 2422 -4740 0
-4739 2422 4740 0
-4739 -2422 -4740 0
-4740 2815 4741 4742 0
-4740 3458 4741 4742 0
4740 -4742 0
4740 -4741 0
4740 -2815 -3458 0
4741 -2741 3702 0
-4741 2741 0
-4741 -3702 0
-4742 2745 2746 0
-4742 3622 -3715 0
-4742 2745 -3715 0
-4742 2746 3622 0
4742 -2745 -3622 0
4742 -2746 3715 0
4743 -3870 -4744 0
-4743 3870 0
-4743 4744 0
-4744 4608 4657 0
4744 -4608 0
4744 -4657 0
-4745 4746 4786 0
-4745 -4746 -4786 0
4745 -4746 4786 0
4745 4746 -4786 0
-4746 -4747 -4784 0
-4746 4747 4784 0
4746 4747 -4784 0
4746 -4747 4784 0
4747 4748 -4749 0
4747 -4748 4749 0
-4747 -4748 -4749 0
-4747 4748 4749 0
4748 -4660 -4661 0
-4748 4660 0
-4748 4661 0
4749 4750 -4753 0
4749 -4750 4753 0
-4749 -4750 -4753 0
-4749 4750 4753 0
-4750 4751 4752 0
4750 -4751 0
4750 -4752 0
4751 -4666 -4670 0
-4751 4666 0
-4751 4670 0
4752 -4662 -4665 0
-4752 4662 0
-4752 4665 0
4753 4754 -4758 0
4753 -4754 4758 0
-4753 -4754 -4758 0
-4753 4754 4758 0
-4754 137 220 225 4755 0
4754 -4755 0
4754 -225 0
4754 -137 0
4754 -220 0
-4755 585 640 1584 4756 0
4755 -4756 0
4755 -585 0
4755 -1584 0
4755 -640 0
-4756 143 346 1748 4757 0
4756 -4757 0
4756 -143 0
4756 -1748 0
4756 -346 0
-4757 184 331 420 0
4757 -184 0
4757 -331 0
4757 -420 0
4758 4759 -4762 0
4758 -4759 4762 0
-4758 -4759 -4762 0
-4758 4759 4762 0
-4759 4760 4761 0
4759 -4760 0
4759 -4761 0
4760 -4671 -4696 0
-4760 4671 0
-4760 4696 0
4761 -4672 -4675 0
-4761 4672 0
-4761 4675 0
4762 4763 -4766 0
4762 -4763 4766 0
-4762 -4763 -4766 0
-4762 4763 4766 0
-4763 4764 4765 0
4763 -4764 0
4763 -4765 0
4764 -4692 -4694 0
-4764 4692 0
-4764 4694 0
4765 -4676 -4691 0
-4765 4676 0
-4765 4691 0
4766 4767 -4776 4783 0
4766 -4767 4776 4778 0
4766 -4767 -4783 0
4766 4767 -4778 4783 0
-4766 -4767 -4778 4783 0
-4766 4767 4776 4778 0
-4766 4767 -4783 0
-4766 -4767 -4776 4783 0
4767 -4768 4772 0
4767 4768 -4772 0
-4767 4768 4772 0
-4767 -4768 -4772 0
4768 4769 -4771 0
4768 -4769 4771 0
-4768 -4769 -4771 0
-4768 4769 4771 0
-4769 351 4770 0
-4769 -1257 4770 0
-4769 -4593 4770 0
4769 -4770 0
4769 -351 1257 4593 0
4770 -4682 4686 0
-4770 4682 0
-4770 -4686 0
4771 351 -602 0
4771 -602 -203 -1256 0
4771 -602 203 1256 0
4771 -351 602 203 -1256 0
4771 -351 602 -203 1256 0
-4771 351 602 0
-4771 -351 -602 -203 1256 0
-4771 602 -203 -1256 0
-4771 602 203 1256 0
-4771 -351 -602 203 -1256 0
-4772 351 4773 0
-4772 -351 -4773 0
4772 -351 4773 0
4772 351 -4773 0
-4773 1564 4774 4775 0
-4773 1323 4774 4775 0
4773 -4774 0
4773 -4775 0
4773 -1323 -1564 0
-4774 1590 -1591 0
-4774 1322 1373 0
-4774 1373 -1591 0
-4774 1322 1590 0
4774 -1373 -1590 0
4774 -1322 1591 0
4775 -1325 1593 0
-4775 1325 0
-4775 -1593 0
4776 -4678 4777 0
4776 -4681 4777 0
-4776 -4777 0
-4776 4678 4681 0
4777 -4677 -4687 0
-4777 4677 0
-4777 4687 0
4778 4776 -4779 0
-4778 -4776 0
-4778 4779 0
4779 425 -4780 0
4779 -425 4780 0
-4779 -425 -4780 0
-4779 425 4780 0
4780 -4781 0
4780 -1328 -3746 0
-4780 3746 4781 0
-4780 1328 4781 0
-4781 -3735 4782 0
-4781 1335 4782 0
4781 -4782 0
4781 -1335 3735 0
-4782 1332 1334 0
-4782 1730 -1775 0
-4782 1334 1730 0
-4782 1332 -1775 0
4782 -1332 -1730 0
4782 -1334 1775 0
4783 -4779 4778 0
-4783 4779 0
-4783 -4778 0
4784 -3796 -4785 0
-4784 3796 0
-4784 4785 0
-4785 4659 4700 0
4785 -4659 0
4785 -4700 0
-4786 -4787 -4825 0
-4786 4787 4825 0
4786 4787 -4825 0
4786 -4787 4825 0
4787 4788 -4789 0
4787 -4788 4789 0
-4787 -4788 -4789 0
-4787 4788 4789 0
4788 -4703 -4704 0
-4788 4703 0
-4788 4704 0
4789 4790 -4793 0
4789 -4790 4793 0
-4789 -4790 -4793 0
-4789 4790 4793 0
-4790 4791 4792 0
4790 -4791 0
4790 -4792 0
4791 -4709 -4714 0
-4791 4709 0
-4791 4714 0
4792 -4705 -4708 0
-4792 4705 0
-4792 4708 0
4793 4794 -4798 0
4793 -4794 4798 0
-4793 -4794 -4798 0
-4793 4794 4798 0
-4794 2164 3653 4795 4796 0
4794 -4796 0
4794 -2164 0
4794 -4795 0
4794 -3653 0
-4795 1985 2143 2441 3482 0
4795 -3482 0
4795 -1985 0
4795 -2441 0
4795 -2143 0
-4796 1979 2153 2215 4797 0
4796 -4797 0
4796 -2215 0
4796 -1979 0
4796 -2153 0
-4797 1921 2085 2377 0
4797 -2377 0
4797 -2085 0
4797 -1921 0
4798 4799 -4802 0
4798 -4799 4802 0
-4798 -4799 -4802 0
-4798 4799 4802 0
-4799 4800 4801 0
4799 -4800 0
4799 -4801 0
4800 -4719 -4722 0
-4800 4719 0
-4800 4722 0
4801 -4715 -4718 0
-4801 4715 0
-4801 4718 0
4802 4803 -4806 0
4802 -4803 4806 0
-4802 -4803 -4806 0
-4802 4803 4806 0
-4803 4804 4805 0
4803 -4804 0
4803 -4805 0
4804 -4724 -4727 0
-4804 4724 0
-4804 4727 0
4805 -4723 -4729 0
-4805 4723 0
-4805 4729 0
4806 -4807 4817 0
4806 4807 -4817 0
-4806 4807 4817 0
-4806 -4807 -4817 0
-4807 -4808 -4813 0
-4807 4808 4813 0
4807 4808 -4813 0
4807 -4808 4813 0
-4808 4809 4810 0
-4808 -4809 -4810 0
4808 -4809 4810 0
4808 4809 -4810 0
-4809 -2462 -3302 -4735 0
-4809 -3261 -3302 4735 0
-4809 2462 4735 0
-4809 -2462 -3261 -4735 0
4809 -2462 3302 4735 0
4809 3261 3302 -4735 0
4809 2462 -4735 0
4809 -2462 3261 4735 0
-4810 4642 4811 0
-4810 -4642 -4811 0
4810 -4642 4811 0
4810 4642 -4811 0
-4811 -2395 -4812 0
-4811 2395 4812 0
4811 2395 -4812 0
4811 -2395 4812 0
4812 -2462 -3447 0
-4812 2462 0
-4812 3447 0
4813 -2462 4814 0
4813 2462 -4814 0
-4813 2462 4814 0
-4813 -2462 -4814 0
-4814 3175 4815 4816 0
-4814 3489 4815 4816 0
4814 -4816 0
4814 -4815 0
4814 -3175 -3489 0
4815 -2878 3485 0
-4815 2878 0
-4815 -3485 0
-4816 2881 2882 0
-4816 -3488 3458 0
-4816 2881 3458 0
-4816 2882 -3488 0
4816 -2881 3488 0
4816 -2882 -3458 0
-4817 -4818 -4821 0
-4817 4818 4821 0
4817 4818 -4821 0
4817 -4818 4821 0
4818 -4819 4820 0
-4818 4819 0
-4818 -4820 0
-4819 4731 4734 0
4819 -4731 0
4819 -4734 0
4820 -4730 -4739 0
-4820 4730 0
-4820 4739 0
4821 -2422 4822 0
4821 2422 -4822 0
-4821 2422 4822 0
-4821 -2422 -4822 0
-4822 2745 4823 4824 0
-4822 -3715 4823 4824 0
4822 -4824 0
4822 -4823 0
4822 -2745 3715 0
4823 -2741 -3848 0
-4823 2741 0
-4823 3848 0
-4824 2746 2815 0
-4824 3622 -3860 0
-4824 2815 -3860 0
-4824 2746 3622 0
4824 -2815 -3622 0
4824 -2746 3860 0
4825 -3870 -4826 0
-4825 3870 0
-4825 4826 0
-4826 4702 4744 0
4826 -4702 0
4826 -4744 0
-4827 -4828 -4863 0
-4827 4828 4863 0
4827 4828 -4863 0
4827 -4828 4863 0
4828 4829 -4830 0
4828 -4829 4830 0
-4828 -4829 -4830 0
-4828 4829 4830 0
4829 -4748 -4749 0
-4829 4748 0
-4829 4749 0
4830 4831 -4834 0
4830 -4831 4834 0
-4830 -4831 -4834 0
-4830 4831 4834 0
-4831 4832 4833 0
4831 -4832 0
4831 -4833 0
4832 -4754 -4758 0
-4832 4754 0
-4832 4758 0
4833 -4750 -4753 0
-4833 4750 0
-4833 4753 0
4834 4835 -4837 0
4834 -4835 4837 0
-4834 -4835 -4837 0
-4834 4835 4837 0
-4835 239 309 396 4836 0
4835 -239 0
4835 -4836 0
4835 -396 0
4835 -309 0
-4836 338 558 580 1781 0
4836 -1781 0
4836 -338 0
4836 -580 0
4836 -558 0
4837 4838 -4841 0
4837 -4838 4841 0
-4837 -4838 -4841 0
-4837 4838 4841 0
-4838 4839 4840 0
4838 -4839 0
4838 -4840 0
4839 -4763 -4766 0
-4839 4763 0
-4839 4766 0
4840 -4759 -4762 0
-4840 4759 0
-4840 4762 0
4841 -4842 4845 0
4841 4842 -4845 0
-4841 4842 4845 0
-4841 -4842 -4845 0
4842 4778 -4843 0
-4842 -4778 0
-4842 4843 0
-4843 4767 4844 0
4843 -4767 0
4843 -4844 0
4844 4776 -4779 0
4844 -4776 4779 0
-4844 -4776 -4779 0
-4844 4776 4779 0
-4845 -4846 4859 -4860 0
-4845 4846 4855 4860 0
-4845 -4859 4860 0
-4845 -4855 4859 -4860 0
4845 -4846 4859 4860 0
4845 4846 4855 -4860 0
4845 -4859 -4860 0
4845 -4855 4859 4860 0
-4846 -4847 -4851 0
-4846 4847 4851 0
4846 4847 -4851 0
4846 -4847 4851 0
4847 4848 -4850 0
4847 -4848 4850 0
-4847 -4848 -4850 0
-4847 4848 4850 0
-4848 -602 4849 0
-4848 4593 4849 0
-4848 -602 4593 0
4848 602 -4593 0
4848 -4593 -4849 0
4848 602 -4849 0
4849 -351 -203 0
-4849 351 0
-4849 203 0
4850 -351 -1590 0
-4850 351 0
-4850 1590 0
4851 351 -4852 0
4851 -351 4852 0
-4851 -351 -4852 0
-4851 351 4852 0
4852 -4853 0
4852 -1325 -1737 0
-4852 1737 4853 0
-4852 1325 4853 0
-4853 1730 4854 0
-4853 1323 4854 0
4853 -4854 0
4853 -1323 -1730 0
-4854 1564 -1591 0
-4854 1322 1373 0
-4854 1322 -1591 0
-4854 1373 1564 0
4854 -1322 -1564 0
4854 -1373 1591 0
4855 -4856 4846 0
-4855 4856 0
-4855 -4846 0
-4856 4857 4858 0
4856 -4857 0
4856 -4858 0
4857 -4769 4771 0
-4857 4769 0
-4857 -4771 0
4858 4768 -4772 0
-4858 -4768 0
-4858 4772 0
4859 -4856 4855 0
-4859 4856 0
-4859 -4855 0
4860 -425 4861 0
4860 425 -4861 0
-4860 425 4861 0
-4860 -425 -4861 0
-4861 3891 4862 0
-4861 1328 4862 0
4861 -4862 0
4861 -1328 -3891 0
-4862 1334 -1775 0
-4862 1332 -3735 0
-4862 -1775 -3735 0
-4862 1332 1334 0
4862 -1332 1775 0
4862 -1334 3735 0
4863 -3796 -4864 0
-4863 3796 0
-4863 4864 0
-4864 4747 4785 0
4864 -4747 0
4864 -4785 0
-4865 -4866 -4899 0
-4865 4866 4899 0
4865 4866 -4899 0
4865 -4866 4899 0
4866 4867 -4868 0
4866 -4867 4868 0
-4866 -4867 -4868 0
-4866 4867 4868 0
4867 -4788 -4789 0
-4867 4788 0
-4867 4789 0
4868 4869 -4872 0
4868 -4869 4872 0
-4868 -4869 -4872 0
-4868 4869 4872 0
-4869 4870 4871 0
4869 -4870 0
4869 -4871 0
4870 -4794 -4798 0
-4870 4794 0
-4870 4798 0
4871 -4790 -4793 0
-4871 4790 0
-4871 4793 0
4872 4873 -4875 0
4872 -4873 4875 0
-4872 -4873 -4875 0
-4872 4873 4875 0
-4873 2151 2218 2430 4874 0
4873 -4874 0
4873 -2151 0
4873 -2430 0
4873 -2218 0
-4874 2092 2134 2182 3711 0
4874 -3711 0
4874 -2092 0
4874 -2134 0
4874 -2182 0
4875 4876 -4879 0
4875 -4876 4879 0
-4875 -4876 -4879 0
-4875 4876 4879 0
-4876 4877 4878 0
4876 -4877 0
4876 -4878 0
4877 -4803 -4806 0
-4877 4803 0
-4877 4806 0
4878 -4799 -4802 0
-4878 4799 0
-4878 4802 0
4879 -4880 4883 0
4879 4880 -4883 0
-4879 4880 4883 0
-4879 -4880 -4883 0
4880 4881 -4882 0
-4880 -4881 0
-4880 4882 0
4881 4818 -4821 0
-4881 -4818 0
-4881 4821 0
-4882 4807 4817 0
4882 -4807 0
4882 -4817 0
-4883 -4884 -4896 0
-4883 4884 4896 0
4883 4884 -4896 0
4883 -4884 4896 0
-4884 4885 4888 0
-4884 -4885 -4888 0
4884 -4885 4888 0
4884 4885 -4888 0
-4885 4886 4887 0
4885 -4886 0
4885 -4887 0
4886 -4809 4810 0
-4886 4809 0
-4886 -4810 0
4887 4808 -4813 0
-4887 -4808 0
-4887 4813 0
-4888 -4889 -4892 0
-4888 4889 4892 0
4888 4889 -4892 0
4888 -4889 4892 0
-4889 -4890 -4891 0
-4889 4890 4891 0
4889 4890 -4891 0
4889 -4890 4891 0
4890 -2462 -3489 0
-4890 2462 0
-4890 3489 0
4891 2395 -4642 0
4891 -4642 -4812 0
4891 2395 -4812 0
-4891 -2395 4812 0
-4891 4642 4812 0
-4891 -2395 4642 0
4892 -2462 4893 0
4892 2462 -4893 0
-4892 2462 4893 0
-4892 -2462 -4893 0
-4893 2882 4894 4895 0
-4893 3622 4894 4895 0
4893 -4895 0
4893 -4894 0
4893 -2882 -3622 0
4894 -2878 -3628 0
-4894 2878 0
-4894 3628 0
-4895 2881 3175 0
-4895 -3488 3458 0
-4895 3175 3458 0
-4895 2881 -3488 0
4895 -3175 3488 0
4895 -2881 -3458 0
4896 -2422 4897 0
4896 2422 -4897 0
-4896 2422 4897 0
-4896 -2422 -4897 0
-4897 3988 4898 0
-4897 2741 4898 0
4897 -4898 0
4897 -2741 -3988 0
-4898 2745 2815 0
-4898 -3715 -3860 0
-4898 2815 -3860 0
-4898 2745 -3715 0
4898 -2815 3715 0
4898 -2745 3860 0
4899 -3870 -4900 0
-4899 3870 0
-4899 4900 0
-4900 4787 4826 0
4900 -4787 0
4900 -4826 0
-4901 4902 4935 0
-4901 -4902 -4935 0
4901 -4902 4935 0
4901 4902 -4935 0
-4902 -4903 -4933 0
-4902 4903 4933 0
4902 4903 -4933 0
4902 -4903 4933 0
4903 4904 -4905 0
4903 -4904 4905 0
-4903 -4904 -4905 0
-4903 4904 4905 0
4904 -4829 -4830 0
-4904 4829 0
-4904 4830 0
4905 4906 -4909 0
4905 -4906 4909 0
-4905 -4906 -4909 0
-4905 4906 4909 0
-4906 4907 4908 0
4906 -4907 0
4906 -4908 0
4907 -4835 -4837 0
-4907 4835 0
-4907 4837 0
4908 -4831 -4834 0
-4908 4831 0
-4908 4834 0
4909 4910 -4915 0
4909 -4910 4915 0
-4909 -4910 -4915 0
-4909 4910 4915 0
-4910 84 149 4911 0
4910 -4911 0
4910 -149 0
4910 -84 0
-4911 91 253 1120 4912 0
4911 -91 0
4911 -4912 0
4911 -1120 0
4911 -253 0
-4912 569 1187 3881 4913 0
4912 -4913 0
4912 -569 0
4912 -3881 0
4912 -1187 0
-4913 146 175 238 4914 0
4913 -4914 0
4913 -238 0
4913 -146 0
4913 -175 0
-4914 127 131 0
4914 -127 0
4914 -131 0
4915 -4916 4919 0
4915 4916 -4919 0
-4915 4916 4919 0
-4915 -4916 -4919 0
4916 -4917 4918 0
-4916 4917 0
-4916 -4918 0
-4917 4842 4845 0
4917 -4842 0
4917 -4845 0
4918 -4838 -4841 0
-4918 4838 0
-4918 4841 0
-4919 -4920 -4923 0
-4919 4920 4923 0
4919 4920 -4923 0
4919 -4920 4923 0
-4920 4855 4921 0
4920 -4855 0
4920 -4921 0
4921 4922 -4860 0
-4921 -4922 0
-4921 4860 0
4922 -4856 4846 0
4922 4856 -4846 0
-4922 4856 4846 0
-4922 -4856 -4846 0
4923 4924 -4931 0
4923 -4924 4931 0
-4923 -4924 -4931 0
-4923 4924 4931 0
-4924 4925 4927 0
-4924 -4925 -4927 0
4924 -4925 4927 0
4924 4925 -4927 0
4925 -425 4926 0
4925 425 -4926 0
-4925 425 4926 0
-4925 -425 -4926 0
-4926 -3735 -3892 0
-4926 1328 1332 0
-4926 1332 -3892 0
-4926 1328 -3735 0
4926 -1332 3735 0
4926 -1328 3892 0
-4927 351 4928 0
-4927 -351 -4928 0
4927 -351 4928 0
4927 351 -4928 0
-4928 -1775 4929 4930 0
-4928 1323 4929 4930 0
4928 -4929 0
4928 -4930 0
4928 -1323 1775 0
-4929 1564 1730 0
-4929 1322 1373 0
-4929 1373 1730 0
-4929 1322 1564 0
4929 -1373 -1564 0
4929 -1322 -1730 0
4930 -1325 1787 0
-4930 1325 0
-4930 -1787 0
4931 351 -4932 0
4931 1590 -1591 -4932 0
4931 -1590 1591 -4932 0
4931 -351 1590 1591 4932 0
4931 -351 -1590 -1591 4932 0
-4931 351 4932 0
-4931 -351 1590 1591 -4932 0
-4931 -1590 1591 4932 0
-4931 1590 -1591 4932 0
-4931 -351 -1590 -1591 -4932 0
-4932 4848 -4850 0
-4932 -4850 4851 0
-4932 4848 4851 0
4932 4850 -4851 0
4932 -4848 4850 0
4932 -4848 -4851 0
4933 -3796 -4934 0
-4933 3796 0
-4933 4934 0
-4934 4828 4864 0
4934 -4828 0
4934 -4864 0
-4935 -4936 -4969 0
-4935 4936 4969 0
4935 4936 -4969 0
4935 -4936 4969 0
4936 4937 -4938 0
4936 -4937 4938 0
-4936 -4937 -4938 0
-4936 4937 4938 0
4937 -4867 -4868 0
-4937 4867 0
-4937 4868 0
4938 4939 -4942 0
4938 -4939 4942 0
-4938 -4939 -4942 0
-4938 4939 4942 0
-4939 4940 4941 0
4939 -4940 0
4939 -4941 0
4940 -4873 -4875 0
-4940 4873 0
-4940 4875 0
4941 -4869 -4872 0
-4941 4869 0
-4941 4872 0
4942 4943 -4948 0
4942 -4943 4948 0
-4942 -4943 -4948 0
-4942 4943 4948 0
-4943 1965 2261 2894 4944 0
4943 -1965 0
4943 -4944 0
4943 -2894 0
4943 -2261 0
-4944 2019 3192 4945 4946 0
4944 -2019 0
4944 -4946 0
4944 -4945 0
4944 -3192 0
-4945 2901 3944 0
4945 -2901 0
4945 -3944 0
-4946 1897 1982 1996 4947 0
4946 -4947 0
4946 -1996 0
4946 -1897 0
4946 -1982 0
-4947 1926 2073 0
4947 -1926 0
4947 -2073 0
4948 -4949 4952 0
4948 4949 -4952 0
-4948 4949 4952 0
-4948 -4949 -4952 0
4949 -4950 4951 0
-4949 4950 0
-4949 -4951 0
-4950 4880 4883 0
4950 -4880 0
4950 -4883 0
4951 -4876 -4879 0
-4951 4876 0
-4951 4879 0
-4952 4953 4956 0
-4952 -4953 -4956 0
4952 -4953 4956 0
4952 4953 -4956 0
-4953 4954 4955 0
4953 -4954 0
4953 -4955 0
4954 -4885 4888 0
-4954 4885 0
-4954 -4888 0
4955 4884 -4896 0
-4955 -4884 0
-4955 4896 0
-4956 4957 4964 0
-4956 -4957 -4964 0
4956 -4957 4964 0
4956 4957 -4964 0
4957 -4958 4960 0
4957 4958 -4960 0
-4957 4958 4960 0
-4957 -4958 -4960 0
4958 -2422 4959 0
4958 2422 -4959 0
-4958 2422 4959 0
-4958 -2422 -4959 0
-4959 2741 2815 0
-4959 -3860 -4111 0
-4959 2815 -4111 0
-4959 2741 -3860 0
4959 -2741 4111 0
4959 -2815 3860 0
-4960 2462 4961 0
-4960 -2462 -4961 0
4960 -2462 4961 0
4960 2462 -4961 0
-4961 3175 4962 4963 0
-4961 3458 4962 4963 0
4961 -4963 0
4961 -4962 0
4961 -3175 -3458 0
4962 -2878 3702 0
-4962 2878 0
-4962 -3702 0
-4963 2881 2882 0
-4963 3622 -3715 0
-4963 2881 -3715 0
-4963 2882 3622 0
4963 -2881 -3622 0
4963 -2882 3715 0
-4964 4965 4968 0
-4964 -4965 -4968 0
4964 -4965 4968 0
4964 4965 -4968 0
-4965 4966 4967 0
4965 -4966 0
4965 -4967 0
4966 4890 -4891 0
-4966 -4890 0
-4966 4891 0
4967 4889 -4892 0
-4967 -4889 0
-4967 4892 0
-4968 2462 0
-4968 -3488 3489 0
-4968 3488 -3489 0
4968 -2462 3488 3489 0
4968 -2462 -3488 -3489 0
4969 -3870 -4970 0
-4969 3870 0
-4969 4970 0
-4970 4866 4900 0
4970 -4866 0
4970 -4900 0
-4971 -4972 -5006 0
-4971 4972 5006 0
4971 4972 -5006 0
4971 -4972 5006 0
4972 -4973 4974 0
4972 4973 -4974 0
-4972 4973 4974 0
-4972 -4973 -4974 0
4973 -4904 -4905 0
-4973 4904 0
-4973 4905 0
-4974 -4975 4977 -5005 0
-4974 4975 4976 -4977 0
-4974 4975 4976 5005 0
-4974 -4976 4977 -5005 0
4974 -4975 -4977 0
4974 -4976 5005 0
4974 -4976 -4977 0
4974 -4975 5005 0
4974 4975 4976 4977 -5005 0
4975 -4910 -4915 0
-4975 4910 0
-4975 4915 0
4976 -4906 -4909 0
-4976 4906 0
-4976 4909 0
4977 -4978 -4985 0
-4977 4978 0
-4977 4985 0
-4978 95 257 323 4979 0
4978 -4979 0
4978 -323 0
4978 -95 0
4978 -257 0
-4979 116 185 244 4980 0
4979 -4980 0
4979 -244 0
4979 -116 0
4979 -185 0
-4980 141 594 1764 4981 0
4980 -141 0
4980 -4981 0
4980 -1764 0
4980 -594 0
-4981 207 1085 3793 4982 0
4981 -4982 0
4981 -207 0
4981 -3793 0
4981 -1085 0
-4982 107 4983 0
4982 -107 0
4982 -4983 0
-4983 63 183 264 4984 0
4983 -4984 0
4983 -264 0
4983 -63 0
4983 -183 0
-4984 139 276 0
4984 -139 0
4984 -276 0
4985 -4986 4989 0
4985 4986 -4989 0
-4985 4986 4989 0
-4985 -4986 -4989 0
4986 4987 -4988 0
-4986 -4987 0
-4986 4988 0
4987 -4920 4923 0
-4987 4920 0
-4987 -4923 0
-4988 4916 4919 0
4988 -4916 0
4988 -4919 0
-4989 4990 5003 0
-4989 -4990 -5003 0
4989 -4990 5003 0
4989 4990 -5003 0
4990 4991 -4995 0
4990 -4991 4995 0
-4990 -4991 -4995 0
-4990 4991 4995 0
-4991 4992 4994 0
4991 -4992 0
4991 -4994 0
4992 -4850 4993 0
-4992 4850 0
-4992 -4993 0
4993 -351 1591 0
-4993 351 0
-4993 -1591 0
4994 351 -4932 4993 0
4994 1590 -4932 4993 0
4994 -351 -1590 -4932 -4993 0
-4994 1590 -4993 0
-4994 -351 -1590 4993 0
-4994 4932 0
-4994 351 -4993 0
4995 -4996 5000 0
4995 4996 -5000 0
-4995 4996 5000 0
-4995 -4996 -5000 0
-4996 351 4997 0
-4996 -351 -4997 0
4996 -351 4997 0
4996 351 -4997 0
-4997 -3735 4998 4999 0
-4997 1323 4998 4999 0
4997 -4998 0
4997 -4999 0
4997 -1323 3735 0
-4998 1322 1373 0
-4998 1730 -1775 0
-4998 1373 -1775 0
-4998 1322 1730 0
4998 -1322 1775 0
4998 -1373 -1730 0
4999 -1325 -3746 0
-4999 1325 0
-4999 3746 0
-5000 -5001 -5002 0
-5000 5001 5002 0
5000 5001 -5002 0
5000 -5001 5002 0
-5001 -425 -4993 0
-5001 425 4993 0
5001 425 -4993 0
5001 -425 4993 0
5002 -351 -1564 0
-5002 351 0
-5002 1564 0
-5003 5004 4924 0
-5003 5004 -4931 0
5003 -5004 0
5003 -4924 4931 0
5004 -4925 -4927 0
-5004 4925 0
-5004 4927 0
-5005 4978 4985 0
5005 -4978 0
5005 -4985 0
5006 -3796 -5007 0
-5006 3796 0
-5006 5007 0
-5007 4903 4934 0
5007 -4903 0
5007 -4934 0
-5008 -5009 -5044 0
-5008 5009 5044 0
5008 5009 -5044 0
5008 -5009 5044 0
5009 5010 -5011 0
5009 -5010 5011 0
-5009 -5010 -5011 0
-5009 5010 5011 0
5010 -4937 -4938 0
-5010 4937 0
-5010 4938 0
5011 5012 -5015 0
5011 -5012 5015 0
-5011 -5012 -5015 0
-5011 5012 5015 0
-5012 5013 5014 0
5012 -5013 0
5012 -5014 0
5013 -4943 -4948 0
-5013 4943 0
-5013 4948 0
5014 -4939 -4942 0
-5014 4939 0
-5014 4942 0
5015 5016 -5023 0
5015 -5016 5023 0
-5015 -5016 -5023 0
-5015 5016 5023 0
-5016 3269 3644 5017 5021 0
5016 -5021 0
5016 -3269 0
5016 -5017 0
5016 -3644 0
-5017 2062 2088 2093 5018 0
5017 -2088 0
5017 -2093 0
5017 -2062 0
5017 -5018 0
-5018 1955 2171 5019 0
5018 -1955 0
5018 -2171 0
5018 -5019 0
-5019 1912 2051 2055 5020 0
5019 -5020 0
5019 -2055 0
5019 -1912 0
5019 -2051 0
-5020 1936 1991 0
5020 -1936 0
5020 -1991 0
-5021 2189 2202 5022 3868 0
5021 -3868 0
5021 -2189 0
5021 -5022 0
5021 -2202 0
-5022 1907 1918 0
5022 -1907 0
5022 -1918 0
5023 -5024 5027 0
5023 5024 -5027 0
-5023 5024 5027 0
-5023 -5024 -5027 0
5024 5025 -5026 0
-5024 -5025 0
-5024 5026 0
5025 -4953 4956 0
-5025 4953 0
-5025 -4956 0
-5026 4949 4952 0
5026 -4949 0
5026 -4952 0
-5027 5028 5031 0
-5027 -5028 -5031 0
5027 -5028 5031 0
5027 5028 -5031 0
-5028 5029 5030 0
5028 -5029 0
5028 -5030 0
5029 -4958 -4960 0
-5029 4958 0
-5029 4960 0
5030 -4957 4964 0
-5030 4957 0
-5030 -4964 0
-5031 5032 5035 0
-5031 -5032 -5035 0
5031 -5032 5035 0
5031 5032 -5035 0
-5032 5033 5034 0
5032 -5033 0
5032 -5034 0
5033 -3488 -4890 0
-5033 3488 0
-5033 4890 0
5034 -4965 4968 0
-5034 4965 0
-5034 -4968 0
-5035 -5036 -5040 0
-5035 5036 5040 0
5035 5036 -5040 0
5035 -5036 5040 0
-5036 -5037 -5039 0
-5036 5037 5039 0
5036 5037 -5039 0
5036 -5037 5039 0
-5037 -2422 -5038 0
-5037 2422 5038 0
5037 2422 -5038 0
5037 -2422 5038 0
5038 -2462 3488 0
-5038 2462 0
-5038 -3488 0
5039 -2462 -3458 0
-5039 2462 0
-5039 3458 0
5040 -2462 5041 0
5040 2462 -5041 0
-5040 2462 5041 0
-5040 -2462 -5041 0
-5041 2881 5042 5043 0
-5041 -3715 5042 5043 0
5041 -5043 0
5041 -5042 0
5041 -2881 3715 0
5042 -2878 -3848 0
-5042 2878 0
-5042 3848 0
-5043 2882 3175 0
-5043 3622 -3860 0
-5043 3175 -3860 0
-5043 2882 3622 0
5043 -3175 -3622 0
5043 -2882 3860 0
5044 -3870 -5045 0
-5044 3870 0
-5044 5045 0
-5045 4936 4970 0
5045 -4936 0
5045 -4970 0
-5046 5047 5078 0
-5046 -5047 -5078 0
5046 -5047 5078 0
5046 5047 -5078 0
-5047 -5048 -5076 0
-5047 5048 5076 0
5047 5048 -5076 0
5047 -5048 5076 0
5048 5049 -5050 0
5048 -5049 5050 0
-5048 -5049 -5050 0
-5048 5049 5050 0
5049 -4973 -4974 0
-5049 4973 0
-5049 4974 0
5050 5051 -5054 0
5050 -5051 5054 0
-5050 -5051 -5054 0
-5050 5051 5054 0
-5051 4977 5052 0
5051 -4977 0
5051 -5052 0
5052 -5053 4978 -4985 0
5052 -5053 -4978 4985 0
-5052 5053 0
-5052 4978 4985 0
-5052 -4978 -4985 0
-5053 4975 4976 0
5053 -4975 0
5053 -4976 0
5054 5055 -5060 0
5054 -5055 5060 0
-5054 -5055 -5060 0
-5054 5055 5060 0
-5055 239 271 349 5056 0
5055 -5056 0
5055 -349 0
5055 -239 0
5055 -271 0
-5056 73 125 244 5057 0
5056 -5057 0
5056 -244 0
5056 -73 0
5056 -125 0
-5057 89 593 1584 5058 0
5057 -89 0
5057 -5058 0
5057 -1584 0
5057 -593 0
-5058 574 811 1090 5059 0
5058 -5059 0
5058 -574 0
5058 -1090 0
5058 -811 0
-5059 139 178 328 1218 0
5059 -139 0
5059 -1218 0
5059 -328 0
5059 -178 0
5060 -5061 5064 0
5060 5061 -5064 0
-5060 5061 5064 0
-5060 -5061 -5064 0
5061 5062 -5063 0
-5061 -5062 0
-5061 5063 0
5062 4990 -5003 0
-5062 -4990 0
-5062 5003 0
-5063 4986 4989 0
5063 -4986 0
5063 -4989 0
-5064 5065 5067 0
-5064 -5065 -5067 0
5064 -5065 5067 0
5064 5065 -5067 0
-5065 4991 5066 0
-5065 5066 -4995 0
5065 -5066 0
5065 -4991 4995 0
5066 -4996 5000 0
-5066 4996 0
-5066 -5000 0
-5067 -5068 -5073 0
-5067 5068 5073 0
5067 5068 -5073 0
5067 -5068 5073 0
5068 -5069 5070 0
5068 5069 -5070 0
-5068 5069 5070 0
-5068 -5069 -5070 0
5069 -351 -1730 0
-5069 351 0
-5069 1730 0
-5070 5071 5072 0
5070 -5071 0
5070 -5072 0
5071 425 -4993 0
-5071 -425 0
-5071 4993 0
5072 5001 -5002 0
-5072 -5001 0
-5072 5002 0
5073 351 -5074 0
5073 -351 5074 0
-5073 -351 -5074 0
-5073 351 5074 0
5074 -5075 0
5074 -1325 -3891 0
-5074 3891 5075 0
-5074 1325 5075 0
-5075 -1775 -3735 0
-5075 1322 1373 0
-5075 1373 -3735 0
-5075 1322 -1775 0
5075 -1373 1775 0
5075 -1322 3735 0
5076 -3796 -5077 0
-5076 3796 0
-5076 5077 0
-5077 4972 5007 0
5077 -4972 0
5077 -5007 0
-5078 -5079 -5108 0
-5078 5079 5108 0
5078 5079 -5108 0
5078 -5079 5108 0
5079 5080 -5081 0
5079 -5080 5081 0
-5079 -5080 -5081 0
-5079 5080 5081 0
5080 -5010 -5011 0
-5080 5010 0
-5080 5011 0
5081 5082 -5085 0
5081 -5082 5085 0
-5081 -5082 -5085 0
-5081 5082 5085 0
-5082 5083 5084 0
5082 -5083 0
5082 -5084 0
5083 -5016 -5023 0
-5083 5016 0
-5083 5023 0
5084 -5012 -5015 0
-5084 5012 0
-5084 5015 0
5085 5086 -5091 0
5085 -5086 5091 0
-5085 -5086 -5091 0
-5085 5086 5091 0
-5086 2371 5087 5088 5089 0
5086 -5089 0
5086 -2371 0
5086 -5088 0
5086 -5087 0
-5087 2148 2170 2769 2901 0
5087 -2148 0
5087 -2901 0
5087 -2769 0
5087 -2170 0
-5088 1883 1962 2127 0
5088 -1883 0
5088 -2127 0
5088 -1962 0
-5089 2062 2066 2406 5090 0
5089 -2062 0
5089 -5090 0
5089 -2406 0
5089 -2066 0
-5090 1977 2113 2182 3482 0
5090 -2113 0
5090 -2182 0
5090 -1977 0
5090 -3482 0
5091 -5092 5095 0
5091 5092 -5095 0
-5091 5092 5095 0
-5091 -5092 -5095 0
5092 5093 -5094 0
-5092 -5093 0
-5092 5094 0
5093 -5028 5031 0
-5093 5028 0
-5093 -5031 0
-5094 5024 5027 0
5094 -5024 0
5094 -5027 0
-5095 5096 5099 0
-5095 -5096 -5099 0
5095 -5096 5099 0
5095 5096 -5099 0
-5096 5097 5098 0
5096 -5097 0
5096 -5098 0
5097 5036 -5040 0
-5097 -5036 0
-5097 5040 0
5098 -5032 5035 0
-5098 5032 0
-5098 -5035 0
-5099 -5100 -5105 0
-5099 5100 5105 0
5099 5100 -5105 0
5099 -5100 5105 0
-5100 5101 5102 0
-5100 -5101 -5102 0
5100 -5101 5102 0
5100 5101 -5102 0
5101 -2462 -3622 0
-5101 2462 0
-5101 3622 0
-5102 5103 5104 0
5102 -5103 0
5102 -5104 0
5103 2422 -5038 0
-5103 -2422 0
-5103 5038 0
5104 5037 -5039 0
-5104 -5037 0
-5104 5039 0
5105 -2462 5106 0
5105 2462 -5106 0
-5105 2462 5106 0
-5105 -2462 -5106 0
-5106 3988 5107 0
-5106 2878 5107 0
5106 -5107 0
5106 -2878 -3988 0
-5107 2881 3175 0
-5107 -3715 -3860 0
-5107 3175 -3860 0
-5107 2881 -3715 0
5107 -3175 3715 0
5107 -2881 3860 0
5108 -3870 -5109 0
-5108 3870 0
-5108 5109 0
-5109 5009 5045 0
5109 -5009 0
5109 -5045 0
-5110 -5111 -5135 0
-5110 5111 5135 0
5110 5111 -5135 0
5110 -5111 5135 0
5111 -5112 5113 0
5111 5112 -5113 0
-5111 5112 5113 0
-5111 -5112 -5113 0
5112 -5049 -5050 0
-5112 5049 0
-5112 5050 0
-5113 -5114 5116 -5134 0
-5113 5114 5115 -5116 0
-5113 5114 5115 5134 0
-5113 -5115 5116 -5134 0
5113 -5114 -5116 0
5113 -5115 5134 0
5113 -5115 -5116 0
5113 -5114 5134 0
5113 5114 5115 5116 -5134 0
5114 -5055 -5060 0
-5114 5055 0
-5114 5060 0
5115 -5051 -5054 0
-5115 5051 0
-5115 5054 0
5116 -5117 -5122 0
-5116 5117 0
-5116 5122 0
-5117 259 349 471 5118 0
5117 -5118 0
5117 -471 0
5117 -259 0
5117 -349 0
-5118 73 157 170 5119 0
5118 -5119 0
5118 -170 0
5118 -73 0
5118 -157 0
-5119 650 1183 4913 5120 0
5119 -5120 0
5119 -650 0
5119 -4913 0
5119 -1183 0
-5120 242 582 5121 0
5120 -242 0
5120 -582 0
5120 -5121 0
-5121 182 234 241 661 0
5121 -661 0
5121 -241 0
5121 -182 0
5121 -234 0
5122 5123 -5131 0
5122 -5123 5131 0
-5122 -5123 -5131 0
-5122 5123 5131 0
-5123 5124 5128 0
-5123 -5124 -5128 0
5123 -5124 5128 0
5123 5124 -5128 0
5124 5125 -5127 0
5124 -5125 5127 0
-5124 -5125 -5127 0
-5124 5125 5127 0
-5125 351 5126 0
-5125 -351 -5126 0
5125 -351 5126 0
5125 351 -5126 0
-5126 -3735 -3892 0
-5126 1325 1373 0
-5126 1373 -3892 0
-5126 1325 -3735 0
5126 -1373 3735 0
5126 -1325 3892 0
5127 -351 1791 0
-5127 351 0
-5127 -1791 0
-5128 5129 5130 0
5128 -5129 0
5128 -5130 0
5129 5069 -5070 0
-5129 -5069 0
-5129 5070 0
5130 5068 -5073 0
-5130 -5068 0
-5130 5073 0
5131 5132 -5133 0
-5131 -5132 0
-5131 5133 0
5132 -5065 5067 0
-5132 5065 0
-5132 -5067 0
-5133 5061 5064 0
5133 -5061 0
5133 -5064 0
-5134 5117 5122 0
5134 -5117 0
5134 -5122 0
5135 -3796 -5136 0
-5135 3796 0
-5135 5136 0
-5136 5048 5077 0
5136 -5048 0
5136 -5077 0
-5137 -5138 -5161 0
-5137 5138 5161 0
5137 5138 -5161 0
5137 -5138 5161 0
5138 5139 -5140 0
5138 -5139 5140 0
-5138 -5139 -5140 0
-5138 5139 5140 0
5139 -5080 -5081 0
-5139 5080 0
-5139 5081 0
5140 5141 -5144 0
5140 -5141 5144 0
-5140 -5141 -5144 0
-5140 5141 5144 0
-5141 5142 5143 0
5141 -5142 0
5141 -5143 0
5142 -5086 -5091 0
-5142 5086 0
-5142 5091 0
5143 -5082 -5085 0
-5143 5082 0
-5143 5085 0
5144 5145 -5150 0
5144 -5145 5150 0
-5144 -5145 -5150 0
-5144 5145 5150 0
-5145 2081 5146 5147 5149 0
5145 -2081 0
5145 -5149 0
5145 -5147 0
5145 -5146 0
-5146 1990 2199 2294 2320 0
5146 -2199 0
5146 -2320 0
5146 -1990 0
5146 -2294 0
-5147 2148 2387 2900 5148 0
5147 -2148 0
5147 -5148 0
5147 -2900 0
5147 -2387 0
-5148 2436 3274 0
5148 -2436 0
5148 -3274 0
-5149 1977 2001 2175 4946 0
5149 -1977 0
5149 -4946 0
5149 -2175 0
5149 -2001 0
5150 5151 -5158 0
5150 -5151 5158 0
-5150 -5151 -5158 0
-5150 5151 5158 0
-5151 -5152 -5155 0
-5151 5152 5155 0
5151 5152 -5155 0
5151 -5152 5155 0
-5152 5153 5154 0
5152 -5153 0
5152 -5154 0
5153 5101 -5102 0
-5153 -5101 0
-5153 5102 0
5154 5100 -5105 0
-5154 -5100 0
-5154 5105 0
5155 5156 -5157 0
5155 -5156 5157 0
-5155 -5156 -5157 0
-5155 5156 5157 0
-5156 2878 3175 0
-5156 -3860 -4111 0
-5156 3175 -4111 0
-5156 2878 -3860 0
5156 -2878 4111 0
5156 -3175 3860 0
5157 -2462 -3706 0
-5157 2462 0
-5157 3706 0
5158 5159 -5160 0
-5158 -5159 0
-5158 5160 0
5159 -5096 5099 0
-5159 5096 0
-5159 -5099 0
-5160 5092 5095 0
5160 -5092 0
5160 -5095 0
5161 -3870 -5162 0
-5161 3870 0
-5161 5162 0
-5162 5079 5109 0
5162 -5079 0
5162 -5109 0
-5163 5164 5184 0
-5163 -5164 -5184 0
5163 -5164 5184 0
5163 5164 -5184 0
-5164 -5165 -5182 0
-5164 5165 5182 0
5164 5165 -5182 0
5164 -5165 5182 0
5165 -5166 5167 0
5165 5166 -5167 0
-5165 5166 5167 0
-5165 -5166 -5167 0
5166 -5112 -5113 0
-5166 5112 0
-5166 5113 0
-5167 5168 -5171 5175 -5181 0
-5167 -5168 -5171 -5175 -5181 0
-5167 -5168 -5171 5175 5181 0
-5167 5168 5171 -5175 -5181 0
-5167 5168 -5171 -5175 5181 0
-5167 -5168 5171 5175 -5181 0
-5167 -5168 5171 -5175 5181 0
-5167 5168 5171 5175 5181 0
5167 -5168 -5171 -5175 5181 0
5167 5168 -5171 5175 5181 0
5167 5168 5171 -5175 5181 0
5167 -5168 5171 5175 5181 0
5167 -5168 5171 -5175 -5181 0
5167 5168 -5171 -5175 -5181 0
5167 -5168 -5171 5175 -5181 0
5167 5168 5171 5175 -5181 0
-5168 5116 5169 0
5168 -5116 0
5168 -5169 0
5169 -5170 5117 -5122 0
5169 -5170 -5117 5122 0
-5169 5170 0
-5169 5117 5122 0
-5169 -5117 -5122 0
-5170 5114 5115 0
5170 -5114 0
5170 -5115 0
-5171 147 310 334 5172 0
5171 -5172 0
5171 -334 0
5171 -147 0
5171 -310 0
-5172 332 1767 5173 0
5172 -332 0
5172 -1767 0
5172 -5173 0
-5173 165 1125 4983 5174 0
5173 -5174 0
5173 -165 0
5173 -4983 0
5173 -1125 0
-5174 416 1158 0
5174 -416 0
5174 -1158 0
5175 -5176 5179 0
5175 5176 -5179 0
-5175 5176 5179 0
-5175 -5176 -5179 0
5176 5177 -5178 0
-5176 -5177 0
-5176 5178 0
5177 5124 -5128 0
-5177 -5124 0
-5177 5128 0
-5178 5123 5131 0
5178 -5123 0
5178 -5131 0
-5179 -1775 5180 0
-5179 351 5180 0
-5179 -5069 5180 0
5179 -5180 0
5179 -351 1775 5069 0
5180 -5125 5127 0
-5180 5125 0
-5180 -5127 0
5181 -351 3735 -5069 0
5181 -351 -3735 5069 0
-5181 351 0
-5181 3735 5069 0
-5181 -3735 -5069 0
5182 -3796 -5183 0
-5182 3796 0
-5182 5183 0
-5183 5111 5136 0
5183 -5111 0
5183 -5136 0
-5184 -5185 -5204 0
-5184 5185 5204 0
5184 5185 -5204 0
5184 -5185 5204 0
5185 -5186 5187 0
5185 5186 -5187 0
-5185 5186 5187 0
-5185 -5186 -5187 0
5186 -5139 -5140 0
-5186 5139 0
-5186 5140 0
-5187 -5188 -5191 0
-5187 5188 5191 0
5187 5188 -5191 0
5187 -5188 5191 0
-5188 5189 5190 0
5188 -5189 0
5188 -5190 0
5189 -5145 -5150 0
-5189 5145 0
-5189 5150 0
5190 -5141 -5144 0
-5190 5141 0
-5190 5144 0
5191 5192 -5196 0
5191 -5192 5196 0
-5191 -5192 -5196 0
-5191 5192 5196 0
-5192 2118 2255 5193 5194 0
5192 -2118 0
5192 -5194 0
5192 -5193 0
5192 -2255 0
-5193 2301 3639 0
5193 -2301 0
5193 -3639 0
-5194 2011 3008 5019 5195 0
5194 -5195 0
5194 -2011 0
5194 -5019 0
5194 -3008 0
-5195 1983 2086 3077 0
5195 -3077 0
5195 -2086 0
5195 -1983 0
5196 5197 -5203 0
5196 -5197 5203 0
-5196 -5197 -5203 0
-5196 5197 5203 0
-5197 5198 5201 0
-5197 -5198 -5201 0
5197 -5198 5201 0
5197 5198 -5201 0
5198 5199 -5200 0
-5198 -5199 0
-5198 5200 0
5199 -5152 5155 0
-5199 5152 0
-5199 -5155 0
-5200 5151 5158 0
5200 -5151 0
5200 -5158 0
-5201 -3622 5202 0
-5201 -3707 5202 0
-5201 2462 5202 0
5201 -5202 0
5201 -2462 3622 3707 0
5202 5156 -5157 0
5202 2462 -5156 0
-5202 5156 5157 0
-5202 -2462 -5156 0
5203 -2462 -3622 3860 0
5203 -2462 3622 -3860 0
-5203 2462 0
-5203 3622 3860 0
-5203 -3622 -3860 0
5204 -3870 -5205 0
-5204 3870 0
-5204 5205 0
-5205 5138 5162 0
5205 -5138 0
5205 -5162 0
-5206 -5207 -5221 0
-5206 5207 5221 0
5206 5207 -5221 0
5206 -5207 5221 0
5207 5208 -5219 0
5207 -5208 5219 0
-5207 -5208 -5219 0
-5207 5208 5219 0
-5208 -5209 -5210 0
-5208 5209 5210 0
5208 5209 -5210 0
5208 -5209 5210 0
5209 -5166 -5167 0
-5209 5166 0
-5209 5167 0
5210 -5211 5215 0
5210 5211 -5215 0
-5210 5211 5215 0
-5210 -5211 -5215 0
-5211 5212 5214 0
5211 -5212 0
5211 -5214 0
5212 -5171 -5213 0
-5212 5171 0
-5212 5213 0
-5213 -5175 -5181 0
-5213 5175 5181 0
5213 5175 -5181 0
5213 -5175 5181 0
5214 -5168 5171 -5213 0
5214 -5168 -5171 5213 0
-5214 5168 0
-5214 5171 5213 0
-5214 -5171 -5213 0
-5215 155 209 270 5216 0
5215 -5216 0
5215 -270 0
5215 -155 0
5215 -209 0
-5216 91 146 594 5217 0
5216 -91 0
5216 -5217 0
5216 -594 0
5216 -146 0
-5217 184 370 1576 5218 0
5217 -5218 0
5217 -184 0
5217 -1576 0
5217 -370 0
-5218 98 485 555 0
5218 -98 0
5218 -485 0
5218 -555 0
5219 -3796 -5220 0
-5219 3796 0
-5219 5220 0
-5220 5165 5183 0
5220 -5165 0
5220 -5183 0
5221 5222 -5224 0
5221 -5222 5224 0
-5221 -5222 -5224 0
-5221 5222 5224 0
5222 -3870 -5223 0
-5222 3870 0
-5222 5223 0
-5223 5185 5205 0
5223 -5185 0
5223 -5205 0
5224 5225 -5226 0
5224 -5225 5226 0
-5224 -5225 -5226 0
-5224 5225 5226 0
5225 -5186 -5187 0
-5225 5186 0
-5225 5187 0
5226 5227 -5231 0
5226 -5227 5231 0
-5226 -5227 -5231 0
-5226 5227 5231 0
-5227 2288 2352 5228 5229 0
5227 -5229 0
5227 -2288 0
5227 -5228 0
5227 -2352 0
-5228 1946 2084 2219 3468 0
5228 -3468 0
5228 -2219 0
5228 -1946 0
5228 -2084 0
-5229 1970 1985 2002 5230 0
5229 -1985 0
5229 -2002 0
5229 -1970 0
5229 -5230 0
-5230 1982 2052 2171 0
5230 -2171 0
5230 -2052 0
5230 -1982 0
5231 -5192 -5196 0
5231 -5188 -5192 0
5231 -5188 -5196 0
-5231 5188 5192 0
-5231 5192 5196 0
-5231 5188 5196 0
-5232 -5233 -5242 0
-5232 5233 5242 0
5232 5233 -5242 0
5232 -5233 5242 0
5233 -5234 5241 0
5233 5234 5235 -5241 0
-5233 -5235 -5241 0
-5233 5234 5241 0
-5233 -5234 -5241 0
5234 -5209 -5210 0
-5234 5209 0
-5234 5210 0
5235 -5236 -5237 0
-5235 5236 0
-5235 5237 0
5236 -5211 -5215 0
-5236 5211 0
-5236 5215 0
-5237 146 179 260 5238 0
5237 -5238 0
5237 -260 0
5237 -146 0
5237 -179 0
-5238 125 171 1755 5239 0
5238 -125 0
5238 -5239 0
5238 -1755 0
5238 -171 0
-5239 595 647 671 5240 0
5239 -5240 0
5239 -595 0
5239 -671 0
5239 -647 0
-5240 390 402 1088 0
5240 -390 0
5240 -402 0
5240 -1088 0
-5241 5236 5237 0
5241 -5236 0
5241 -5237 0
5242 -3796 -5243 0
-5242 3796 0
-5242 5243 0
-5243 5208 5220 0
5243 -5208 0
5243 -5220 0
-5244 -5245 -5254 0
-5244 5245 5254 0
5244 5245 -5254 0
5244 -5245 5254 0
5245 -5246 5247 5253 0
5245 5246 -5247 5253 0
-5245 -5253 0
-5245 -5246 -5247 0
-5245 5246 5247 0
5246 -5225 -5226 0
-5246 5225 0
-5246 5226 0
-5247 5248 5249 0
5247 -5248 0
5247 -5249 0
5248 -5227 -5231 0
-5248 5227 0
-5248 5231 0
-5249 2000 2351 5250 5251 0
5249 -2000 0
5249 -5251 0
5249 -5250 0
5249 -2351 0
-5250 2017 2147 2211 3270 0
5250 -2017 0
5250 -3270 0
5250 -2211 0
5250 -2147 0
-5251 1982 2438 3649 5252 0
5251 -1982 0
5251 -5252 0
5251 -3649 0
5251 -2438 0
-5252 1883 2067 2183 0
5252 -2183 0
5252 -2067 0
5252 -1883 0
5253 -5248 -5249 0
-5253 5248 0
-5253 5249 0
5254 -3870 -5255 0
-5254 3870 0
-5254 5255 0
-5255 5223 5224 0
5255 -5223 0
5255 -5224 0
-5256 -5257 -5264 0
-5256 5257 5264 0
5256 5257 -5264 0
5256 -5257 5264 0
5257 5258 -5259 0
5257 -5258 5259 0
-5257 -5258 -5259 0
-5257 5258 5259 0
5258 -5234 -5241 0
-5258 5234 0
-5258 5241 0
5259 -5235 5260 0
5259 5235 -5260 0
-5259 5235 5260 0
-5259 -5235 -5260 0
-5260 144 210 307 5261 0
5260 -5261 0
5260 -307 0
5260 -144 0
5260 -210 0
-5261 92 147 5262 0
5261 -5262 0
5261 -147 0
5261 -92 0
-5262 96 105 559 5263 0
5262 -96 0
5262 -5263 0
5262 -559 0
5262 -105 0
-5263 272 1251 4232 5121 0
5263 -5121 0
5263 -272 0
5263 -4232 0
5263 -1251 0
5264 -3796 -5265 0
-5264 3796 0
-5264 5265 0
-5265 5233 5243 0
5265 -5233 0
5265 -5243 0
-5266 -5267 -5274 0
-5266 5267 5274 0
5266 5267 -5274 0
5266 -5267 5274 0
5267 5268 -5269 0
5267 -5268 5269 0
-5267 -5268 -5269 0
-5267 5268 5269 0
5268 -5246 -5247 0
-5268 5246 0
-5268 5247 0
5269 -5253 5270 0
5269 5253 -5270 0
-5269 5253 5270 0
-5269 -5253 -5270 0
-5270 2245 5146 5271 5273 0
5270 -5273 0
5270 -2245 0
5270 -5271 0
5270 -5146 0
-5271 1953 1971 1980 5272 0
5271 -5272 0
5271 -1980 0
5271 -1953 0
5271 -1971 0
-5272 1976 2064 4287 0
5272 -4287 0
5272 -2064 0
5272 -1976 0
-5273 1983 2053 2078 3450 0
5273 -3450 0
5273 -2078 0
5273 -1983 0
5273 -2053 0
5274 -3870 -5275 0
-5274 3870 0
-5274 5275 0
-5275 5245 5255 0
5275 -5245 0
5275 -5255 0
-5276 5277 5289 0
-5276 -5277 -5289 0
5276 -5277 5289 0
5276 5277 -5289 0
-5277 -5278 -5287 0
-5277 5278 5287 0
5277 5278 -5287 0
5277 -5278 5287 0
5278 -5279 5286 0
5278 5279 5280 -5286 0
-5278 -5280 -5286 0
-5278 5279 5286 0
-5278 -5279 -5286 0
5279 -5258 -5259 0
-5279 5258 0
-5279 5259 0
5280 -5281 -5282 0
-5280 5281 0
-5280 5282 0
5281 -5235 -5260 0
-5281 5235 0
-5281 5260 0
-5282 150 151 375 5283 0
5282 -5283 0
5282 -375 0
5282 -150 0
5282 -151 0
-5283 159 171 220 5284 0
5283 -5284 0
5283 -220 0
5283 -159 0
5283 -171 0
-5284 139 269 4569 5285 0
5284 -139 0
5284 -5285 0
5284 -4569 0
5284 -269 0
-5285 130 317 336 587 0
5285 -587 0
5285 -130 0
5285 -336 0
5285 -317 0
-5286 5281 5282 0
5286 -5281 0
5286 -5282 0
5287 -3796 -5288 0
-5287 3796 0
-5287 5288 0
-5288 5257 5265 0
5288 -5257 0
5288 -5265 0
-5289 -5290 -5300 0
-5289 5290 5300 0
5289 5290 -5300 0
5289 -5290 5300 0
5290 5291 -5297 0
-5290 -5291 0
-5290 5297 0
5291 -5292 -5293 0
-5291 5292 0
-5291 5293 0
5292 -5253 -5270 0
-5292 5253 0
-5292 5270 0
-5293 2380 4619 5294 5295 0
5293 -5295 0
5293 -2380 0
5293 -5294 0
5293 -4619 0
-5294 1925 2129 2474 0
5294 -1925 0
5294 -2129 0
5294 -2474 0
-5295 2070 2150 3013 5296 0
5295 -2070 0
5295 -5296 0
5295 -3013 0
5295 -2150 0
-5296 1912 2009 2020 0
5296 -2020 0
5296 -2009 0
5296 -1912 0
5297 -5298 5299 0
5297 5298 -5299 0
-5297 5298 5299 0
-5297 -5298 -5299 0
5298 -5268 -5269 0
-5298 5268 0
-5298 5269 0
-5299 5292 5293 0
5299 -5292 0
5299 -5293 0
5300 -3870 -5301 0
-5300 3870 0
-5300 5301 0
-5301 5267 5275 0
5301 -5267 0
5301 -5275 0
-5302 -5303 -5308 0
-5302 5303 5308 0
5302 5303 -5308 0
5302 -5303 5308 0
5303 5304 -5305 0
5303 -5304 5305 0
-5303 -5304 -5305 0
-5303 5304 5305 0
5304 -5279 -5286 0
-5304 5279 0
-5304 5286 0
5305 -5280 5306 0
5305 5280 -5306 0
-5305 5280 5306 0
-5305 -5280 -5306 0
-5306 244 264 275 5307 0
5306 -244 0
5306 -5307 0
5306 -275 0
5306 -264 0
-5307 320 1734 0
5307 -320 0
5307 -1734 0
5308 -3796 -5309 0
-5308 3796 0
-5308 5309 0
-5309 5278 5288 0
5309 -5278 0
5309 -5288 0
-5310 -5311 -5315 0
-5310 5311 5315 0
5310 5311 -5315 0
5310 -5311 5315 0
5311 5312 -5313 0
5311 -5312 5313 0
-5311 -5312 -5313 0
-5311 5312 5313 0
5312 -5298 -5299 0
-5312 5298 0
-5312 5299 0
5313 -5291 5314 0
5313 5291 -5314 0
-5313 5291 5314 0
-5313 -5291 -5314 0
-5314 2056 2110 2466 3625 0
5314 -2056 0
5314 -3625 0
5314 -2466 0
5314 -2110 0
5315 -3870 -5316 0
-5315 3870 0
-5315 5316 0
-5316 5290 5301 0
5316 -5290 0
5316 -5301 0
-5317 -5318 -5329 0
-5317 5318 5329 0
5317 5318 -5329 0
5317 -5318 5329 0
-5318 -5319 -5327 0
-5318 5319 5327 0
5318 5319 -5327 0
5318 -5319 5327 0
5319 -5320 5326 0
5319 -5321 5326 0
-5319 -5326 0
-5319 5320 5321 0
5320 -5304 -5305 0
-5320 5304 0
-5320 5305 0
5321 5322 -5325 0
-5321 -5322 0
-5321 5325 0
5322 -5323 -5324 0
-5322 5323 0
-5322 5324 0
5323 -5280 -5306 0
-5323 5280 0
-5323 5306 0
-5324 275 341 0
5324 -275 0
5324 -341 0
-5325 5323 5324 0
5325 -5323 0
5325 -5324 0
5326 -5320 -5325 0
-5326 5320 0
-5326 5325 0
5327 -3796 -5328 0
-5327 3796 0
-5327 5328 0
-5328 5303 5309 0
5328 -5303 0
5328 -5309 0
5329 5330 -5335 0
5329 -5330 5335 0
-5329 -5330 -5335 0
-5329 5330 5335 0
5330 -5331 5332 0
5330 5331 -5332 0
-5330 5331 5332 0
-5330 -5331 -5332 0
-5331 2140 2466 0
5331 -2140 0
5331 -2466 0
-5332 5333 5334 0
5332 -5333 0
5332 -5334 0
5333 -5291 -5314 0
-5333 5291 0
-5333 5314 0
5334 -5312 -5313 0
-5334 5312 0
-5334 5313 0
5335 -3870 -5336 0
-5335 3870 0
-5335 5336 0
-5336 5311 5316 0
5336 -5311 0
5336 -5316 0
5337 -5338 -5340 -5342 0
5337 -5338 5340 5342 0
-5337 5338 0
-5337 -5340 5342 0
-5337 5340 -5342 0
-5338 5374 5339 0
5338 -5374 0
5338 -5339 0
-5339 5373 24 0
5339 -5373 0
5339 -24 0
5340 -5341 0
-5340 5341 0
-5341 5322 5326 0
5341 -5322 0
5341 -5326 0
5342 -3796 -5343 0
-5342 3796 0
-5342 5343 0
-5343 5319 5328 0
5343 -5319 0
5343 -5328 0
5344 5345 -5346 5347 0
5344 -5345 -5335 -5346 0
-5344 5346 0
-5344 5345 -5347 0
-5344 -5345 5335 0
5345 -5331 -5332 0
-5345 5331 0
-5345 5332 0
-5346 5373 5374 1869 0
5346 -1869 0
5346 -5374 0
5346 -5373 0
5347 -3870 -5330 0
5347 -3870 -5336 0
-5347 3870 0
-5347 5330 5336 0
-5348 5349 5350 0
-5348 -5349 -5350 0
5348 -5349 5350 0
5348 5349 -5350 0
5349 -3796 5338 0
5349 -3796 -5341 0
5349 -3796 -5343 0
-5349 3796 0
-5349 -5338 5341 5343 0
-5350 -5351 5347 0
-5350 5374 5375 5347 0
-5350 -5374 -5375 5347 0
5350 -5347 0
5350 5374 -5375 5351 0
5350 -5374 5375 5351 0
5351 5345 -5346 0
-5351 -5345 0
-5351 5346 0
-5376 0
2 0
-2514 0

